** MAGNETIC DRIVE FRAME AUDIT - SCREENING ONLY
** L2.4 D0.815 coarse rigid carrier; one 30 Hz cycle; G=0
** FIELD_MODE=LOCAL_TANGENT_CONE; cone=40.0 deg
** SCREENING ONLY - NOT AN AUTHORITATIVE DESIGN
** CASE GEO_240; global 0.10 mm C3D4 rigid mesh; fixed direct dt=1e-7 s
** FROZEN L2300 WALL-SUPPORTED SCREENING: 29141 C3D4; threshold-aware 5 um acceptance
** CAD L=2.300000 mm D=0.815000 mm; no mesh scaling or refinement
** R014 exterior mesh analytic-field probe; 10 mg; D055; gradient 6 mT; Bias40; forward
** RESTORED ROBOT: _robot_true_R014_source.inp mesh; exact 6 mg; 2.01 mm wall helper offset=0.005 mm
** HIGH-WOBBLE 6 ms PROBE: only damping 0.055 -> 0.020; all other physics unchanged
** BOUNDED MEDIUM PROBE: 6 ms; no geometry/physics change; output 2 us
** COPEN PRECHECK: physics unchanged; robot exterior-only surface output added
** ROBOT CONTACT SANITIZED: TRUE EXTERIOR FACES ONLY
** ROBOT PART TRANSPLANTED FROM UNROUNDED BASE; no stacked fillet
** donor=_robot_true_R014_source.inp
** High-end robot-only stop added; CEL remains open; band=0.8 mm, faces=23
** CAPSULE/FILLET VARIANT; rf=0.1 mm; source=CEL_CurrentCenterline_Cone15_Z110_PolarityPlus_Mu003_Damp055_AfterBendReverse_015.inp
** MATRIX VARIANT: mu003
** Z=110 mm single-variable probe; 5 Hz fixed; m_robot=1.168e-3 A*m^2; adaptive-lead=0.
** POLARITY-PLUS CLOSED-LOOP 0.03 s: +robot_axis_global end assumed N; adaptive-lead=0.
** FULL 3D LIVE-MAGNETIC FORCE/TORQUE CLOSED-LOOP: the force is projected onto the local DXF tangent; torque remains live from Magpylib; endpoint caps are retained in the wall helper; duration=0.008333 s
** FULL 3D LIVE-MAGNETIC FORCE/TORQUE CLOSED-LOOP: the force is projected onto the local DXF tangent; torque remains live from Magpylib; endpoint caps are retained in the wall helper; duration=0.006 s
** FULL 3D LIVE-MAGNETIC FORCE/TORQUE CLOSED-LOOP: the force is projected onto the local DXF tangent; torque remains live from Magpylib; endpoint caps are retained in the wall helper; duration=0.008333 s
** Terminal robot-only outlet stop added at low-s end; CEL remains open; cap_band=0.8 mm, faces=75
** FULL 3D LIVE-MAGNETIC FORCE/TORQUE CLOSED-LOOP: the force is projected onto the local DXF tangent; torque remains live from Magpylib; endpoint caps are retained in the wall helper; duration=0.008333 s
** FORWARD-ONLY DIAGNOSTIC: live Magpylib force projected onto the local DXF pipe tangent; magnetic torque is disabled; 0.010 s probe
** WALL/CEL FACTORIAL DIAGNOSTIC; only contact inclusions changed
** CEL boundary-wall probe: Pipe_SOLID retained as fixed mass but excluded from contact; helper R3D4 wall offset=0.2 mm, end caps removed=98
*Heading
** AUTHORIZED 8.333 ms WALL-ON WOBBLE-SURVIVAL PROBE: Wobble_F30_G6L45_WallOn_Free_0083_WobbleSurvival; G6/L45; f=30 Hz
** WALL-ON FREE-TRANSLATION PROBE: Wobble_F30_G6L45_WallOn_Free_0083_WobbleSurvival; spin=30 Hz; duration=8.333 ms
** WALL/CEL FACTORIAL: Wobble_F30_G6L45_WallOn_Free_0083_WobbleSurvival; Wall=ON; CEL=ON; 1.8 ms; phase=248 deg; gradient=6.000 mT=0.006000 T; spin=30 Hz
** FREE-TRANSLATION PROBE: F30; cone30; B=10 mT; Wall-ON; CEL-ON; translations fixed, rotations free
** Robot refined contact mesh, centerline translation + tangent-following orientation
** Job name: Job_RouteA_CEL_SOLID_robotfine Model name: RouteA_SolidCEL_Probe
** Generated by: Abaqus/CAE 2025
*Preprint, echo=NO, model=NO, history=NO, contact=NO
**
** PARTS
**
**  
*Part, name=Pipe_WALL_HELPER
*Node
       1, -16.5312897005, -17.2868904576, -1.9669035138
       2, -16.970186333, -17.1510059578, -2.10575531598
       3, -17.0595094318, -16.9508545594, -1.83857117776
       4, -16.7227038313, -16.9776193944, -1.5996919504
       5, -16.3317931628, -16.889444982, -2.19820316494
       6, -16.5234998969, -16.5797011677, -1.83043029113
       7, -17.3244134201, -17.031705164, -2.20373843566
       8, -17.3635636271, -16.8736908617, -1.96599708767
       9, -17.2092992278, -16.7707359574, -1.65744899091
      10, -17.1057082159, -16.6814764918, -1.41875507815
      11, -16.9070916517, -16.2831055879, -1.64921683443
      12, -17.5776795246, -16.4778127316, -1.47257492853
      13, -17.4839078321, -16.6879875554, -1.7501234811
      14, -17.379782511, -16.0791305094, -1.70311896567
      15, -17.9256078331, -16.7447941558, -2.22512220262
      16, -17.7599030349, -16.6624138527, -1.94211206892
      17, -17.585744927, -16.8181869606, -2.06062148565
      18, -17.6289197219, -16.9097091641, -2.2546040873
      19, -17.3339940228, -17.1778080593, -2.46268508992
      20, -17.6517774276, -17.044993662, -2.50632761859
      21, -16.9820920214, -17.3196994572, -2.40546200501
      22, -17.9712010333, -16.8984405591, -2.52779530856
      23, -17.0596391151, -17.43502166, -2.66966436455
      24, -17.3445569286, -17.3513748607, -2.76960610732
      25, -16.8633106971, -17.6320243877, -2.84302742115
      26, -16.582755437, -17.5264189782, -2.42199600127
      27, -16.6643236125, -17.2351063933, -3.07566644259
      28, -16.3833375866, -17.1293396574, -2.65399119641
      29, -18.0113255342, -16.4226616794, -1.7466437497
      30, -17.8138939455, -16.0224693127, -1.97688605546
      31, -18.2902871381, -16.5296566535, -2.16755508299
      32, -18.3415738341, -16.7683517572, -2.62106417594
      33, -17.9391442343, -17.0618488563, -2.7808577845
      34, -18.1508256295, -17.076546856, -2.98699829996
      35, -17.6721402356, -17.2129795593, -2.81204891072
      36, -17.7691677699, -17.3722767806, -3.16951869508
      37, -17.2977827572, -17.5754099237, -3.11718317101
      38, -17.0994578877, -17.1784054897, -3.35024102471
      39, -17.5709858809, -16.9750192076, -3.40415852467
      40, -16.1351054628, -16.4944559821, -2.42834123501
      41, -16.3268121971, -16.1847121675, -2.06056823101
      42, -16.7104020511, -15.8881174883, -1.87935477451
      43, -17.1830948104, -15.6841414098, -1.9332569053
      44, -16.4676340125, -16.8401173933, -3.30580427259
      45, -16.1866498866, -16.7343506575, -2.88412926648
      46, -17.6172043461, -15.6274803127, -2.20702411581
      47, -16.9027701881, -16.7834164899, -3.58037908466
      48, -17.3742962821, -16.580030208, -3.63429635433
      49, -15.9384158644, -16.0994669857, -2.65847905351
      50, -16.130122598, -15.7897240701, -2.29070605984
      51, -16.5137143511, -15.4931284902, -2.10949260377
      52, -16.9864052101, -15.2891524107, -2.16339485466
      53, -16.2709463131, -16.4451283946, -3.53594233188
      54, -15.9899602875, -16.3393615591, -3.11426708546
      55, -17.4205166464, -15.2324913127, -2.43716194591
      56, -16.706080589, -16.3884273915, -3.8105169137
      57, -17.1776085823, -16.1850412089, -3.86443441381
      58, -15.7417272627, -15.7044779827, -2.88861711563
      59, -15.9334339972, -15.3947350676, -2.52084412084
      60, -16.3170247514, -15.0981394897, -2.33963066385
      61, -16.7897175102, -14.8941634109, -2.39353267451
      62, -16.0742567146, -16.0501393973, -3.76608016041
      63, -15.7932716885, -15.9443725607, -3.34440515627
      64, -17.2238270466, -14.8375023124, -2.66730000631
      65, -16.5093928881, -15.9934393914, -4.04065497362
      66, -16.9809189828, -15.7900522076, -4.09457248441
      67, -15.5450385627, -15.3094889827, -3.11875494563
      68, -15.7367452958, -14.9997460691, -2.75098195221
      69, -16.1203351494, -14.7031504903, -2.56976849434
      70, -16.5930279095, -14.499174409, -2.62367073569
      71, -15.8775680114, -15.6551512942, -3.99621822053
      72, -15.5965829868, -15.5493835582, -3.57454297439
      73, -17.027139345, -14.4425132096, -2.89743783783
      74, -16.3127032888, -15.5984503889, -4.27079280541
      75, -16.7842312844, -15.3950632059, -4.32471030513
      76, -15.3483499627, -14.9144999826, -3.34889300566
      77, -15.5400566958, -14.6047570691, -2.9811200122
      78, -15.9236474489, -14.3081614904, -2.79990655451
      79, -16.396338308, -14.1041854109, -2.85380856421
      80, -15.6808794112, -15.2601622929, -4.22635628179
      81, -15.3998943857, -15.1543945565, -3.80468104386
      82, -16.8304497432, -14.0475242128, -3.12757589422
      83, -16.1160155906, -15.2034613881, -4.50093062623
      84, -16.5875416843, -15.0000742057, -4.55484813524
      85, -15.1516612627, -14.5195109827, -3.57903083571
      86, -15.3433679965, -14.2097680683, -3.2112578315
      87, -15.72695885, -13.91317249, -3.03004438426
      88, -16.1996506079, -13.7091964111, -3.08394662401
      89, -15.4841907121, -14.8651732935, -4.45649411201
      90, -15.2032056857, -14.7594055564, -4.03481910417
      91, -16.6337620432, -13.6525352128, -3.35771372422
      92, -15.919326893, -14.8084722892, -4.73106892591
      93, -16.3908539874, -14.6050851064, -4.78498595454
      94, -14.9549726626, -14.1245218825, -3.80916889577
      95, -15.1466793964, -13.8147790681, -3.44139590166
      96, -15.53027015, -13.51818349, -3.26018244425
      97, -16.0029610079, -13.3142074111, -3.314084454
      98, -15.2875021114, -14.4701842929, -4.68663193201
      99, -15.0065170858, -14.3644165565, -4.26495692422
     100, -16.4370724432, -13.2575462128, -3.58785178422
     101, -15.7226382922, -14.4134832889, -4.96120675597
     102, -16.1941643875, -14.2100961066, -5.01512425441
     103, -14.7582839627, -13.7295328828, -4.0393069557
     104, -14.9499906963, -13.4197900686, -3.67153372167
     105, -15.33358155, -13.1231944901, -3.49032026418
     106, -15.8062733084, -12.9192184121, -3.54422251344
     107, -15.090813412, -14.075195294, -4.91676976136
     108, -14.8098283859, -13.9694275568, -4.49509475383
     109, -16.2403847441, -12.8625572145, -3.81798960321
     110, -15.5259495913, -14.0184942893, -5.19134457558
     111, -15.997476685, -13.8151071061, -5.24526208497
     112, -14.5615953628, -13.3345438828, -4.26944478558
     113, -14.7533020963, -13.0248009684, -3.90167179173
     114, -15.13689285, -12.7282053896, -3.72045833438
     115, -15.6095847094, -12.5242293114, -3.7743603441
     116, -14.8941248119, -13.6802062946, -5.14690806066
     117, -14.6131397856, -13.5744385564, -4.72523257353
     118, -16.0436951454, -12.4675682135, -4.04812767478
     119, -15.329259991, -13.6235052899, -5.42148240515
     120, -15.800787984, -13.4201181061, -5.47539990508
     121, -14.364906663, -12.9395548829, -4.49958260502
     122, -14.5566133967, -12.6298119689, -4.13180985132
     123, -14.9402042493, -12.3332163904, -3.95059615434
     124, -15.4128960097, -12.1292403102, -4.00449816491
     125, -14.6974361107, -13.2852172934, -5.37704589068
     126, -14.4164510855, -13.1794494562, -4.95537088376
     127, -15.8470065469, -12.0725792116, -4.27826549714
     128, -15.132571391, -13.2285162898, -5.65162070517
     129, -15.6040993861, -13.0251291068, -5.7055377345
     130, -14.1682179627, -12.5445658821, -4.72972043519
     131, -14.3599247968, -12.2348229682, -4.36194767121
     132, -14.74351555, -11.9382273905, -4.18073422405
     133, -15.2162074093, -11.7342513103, -4.23463646477
     134, -14.5007475101, -12.8902281927, -5.60718371083
     135, -14.2197623858, -12.7844604565, -5.18550870447
     136, -15.6503178453, -11.6775901118, -4.50840332615
     137, -14.93588269, -12.8335272893, -5.88175852533
     138, -15.4074096865, -12.6301401066, -5.93567603455
     139, -13.9715293634, -12.1495768839, -4.95985873469
     140, -14.1632360975, -11.8398339699, -4.59208550038
     141, -14.5468269511, -11.5432383906, -4.41087204357
     142, -15.0195187102, -11.3392623115, -4.46477429416
     143, -14.3040588102, -12.495239193, -5.83732154062
     144, -14.023073786, -12.3894714569, -5.41564653421
     145, -15.4536292457, -11.282601113, -4.73854162529
     146, -14.7391940887, -12.4385382887, -6.11189635554
     147, -15.2107210843, -12.2351511057, -6.16581386524
     148, -13.7748397636, -11.7545878849, -5.1899965649
     149, -13.966547498, -11.4448449708, -4.82222331985
     150, -14.3501373499, -11.1482493905, -4.64100987407
     151, -14.8228300107, -10.9442733105, -4.69491211491
     152, -14.107370211, -12.1002501937, -6.06745984061
     153, -13.8263850864, -11.9944824573, -5.64578435556
     154, -15.256940547, -10.887612113, -4.96867944597
     155, -14.5425053899, -12.0435491891, -6.34203417545
     156, -15.0140323843, -11.8401620057, -6.39595168524
     157, -13.5781510626, -11.3595987839, -5.4201343871
     158, -13.7698578975, -11.0498559687, -5.05236163044
     159, -14.1534486491, -10.7532603909, -4.87114817423
     160, -14.6261414092, -10.5492843091, -4.92504994557
     161, -13.910681511, -11.7052611935, -6.29759766083
     162, -13.629696487, -11.5994934578, -5.87592265772
     163, -15.0609467436, -10.4925735006, -5.19932594275
     164, -14.3458167915, -11.6485601899, -6.5721724852
     165, -14.8173437871, -11.4451730068, -6.62608951437
     166, -13.3814624621, -10.9646097843, -5.65027221854
     167, -13.5731691971, -10.6548669681, -5.28249945093
     168, -13.9567600504, -10.358271391, -5.10128599368
     169, -14.429451808, -10.1542953105, -5.15518824443
     170, -13.7139929103, -11.3102721928, -6.52773549094
     171, -13.4330077872, -11.204504458, -6.10606048805
     172, -14.8645879862, -10.0975943053, -5.4297625775
     173, -15.3416855013, -10.5979881053, -5.62018593112
     174, -15.1449968016, -10.2029991051, -5.85032423199
     175, -14.1491280904, -11.2535711894, -6.80231030534
     176, -14.6214323741, -11.049810917, -6.85625178944
     177, -13.184773762, -10.5696207846, -5.88041051916
     178, -13.3764804966, -10.2598779685, -5.51263728137
     179, -13.7600713511, -9.96328233053, -5.33142382361
     180, -14.2327631087, -9.759306252, -5.38532606355
     181, -13.5173042105, -10.9152831931, -6.75787331074
     182, -13.2363191873, -10.8095154582, -6.33619830778
     183, -14.6678993863, -9.70260528676, -5.65990088602
     184, -14.9483082016, -9.8080100451, -6.08046206187
     185, -14.8078555068, -10.3587868317, -6.90572873924
     186, -15.0045442065, -10.7537758316, -6.67559091947
     187, -14.425131249, -10.6546061095, -7.08635037633
     188, -13.9524394891, -10.8585821888, -7.03244813551
     189, -12.9880851621, -10.1746317854, -6.11054833939
     190, -13.1797918962, -9.86488890856, -5.74277510185
     191, -13.5633827503, -9.56829331882, -5.56156164461
     192, -14.036074509, -9.36431724079, -5.61546389441
     193, -13.320615611, -10.5202941937, -6.98801162061
     194, -13.039630487, -10.4145263578, -6.56633613741
     195, -14.4712106867, -9.3076162669, -5.89003870624
     196, -14.7516195012, -9.41302103527, -6.31059988093
     197, -14.6111669068, -9.96379781169, -7.13586656924
     198, -14.228442549, -10.2596171095, -7.31648820634
     199, -13.7557507902, -10.4635931893, -7.26258595539
     200, -12.7913964622, -9.77964277523, -6.34068616899
     201, -12.9831031965, -9.46989989812, -5.97291340151
     202, -13.3666940494, -9.17330430929, -5.79169995475
     203, -13.8393858078, -8.96932823035, -5.8456017145
     204, -13.1239269108, -10.1253050935, -7.21814944062
     205, -12.842941887, -10.0195373578, -6.79647443763
     206, -14.2745219863, -8.91262725635, -6.12017653649
     207, -14.5549309012, -9.01803201546, -6.54073771048
     208, -14.4144782076, -9.56880880325, -7.36600438832
     209, -14.0317539507, -9.86462809062, -7.54662602524
     210, -13.5590621914, -10.0686041899, -7.49272425521
     211, -12.5947078621, -9.38465375449, -6.5708239888
     212, -12.786414597, -9.07491087802, -6.20305123101
     213, -13.1700054503, -8.77831529097, -6.02183777377
     214, -13.6426972075, -8.57433921144, -6.07574002372
     215, -12.9272382101, -9.73031612275, -7.44828727076
     216, -12.6462531872, -9.62454837802, -7.02661225797
     217, -14.0778333859, -8.517638246, -6.35031435639
     218, -14.3582422013, -8.62304300499, -6.77087601149
     219, -14.2177896075, -9.17381979327, -7.59614269834
     220, -13.8350652507, -9.46963908063, -7.77676432523
     221, -13.3623734903, -9.67361515936, -7.72286208537
     222, -12.398019162, -8.98966474472, -6.8009622992
     223, -12.5897258967, -8.6799218684, -6.43318905135
     224, -12.9733167514, -8.38332628093, -6.25197560336
     225, -13.4460085089, -8.17935020234, -6.30587784338
     226, -12.7305496103, -9.33532711306, -7.67842509063
     227, -12.4495645873, -9.22955935822, -7.25675008767
     228, -13.8811446862, -8.12264922668, -6.58045265599
     229, -14.1615536013, -8.22805398498, -7.00101384151
     230, -14.0211009068, -8.77883077171, -7.82628051925
     231, -13.638376649, -9.07465005948, -8.00690215635
     232, -13.1656848891, -9.27862613876, -7.95299990555
     233, -12.2013305631, -8.59467572731, -7.03110011826
     234, -12.393037296, -8.28493284871, -6.66332688205
     235, -12.7766280507, -7.98833678916, -6.48211342431
     236, -13.2493199098, -7.78436119112, -6.53601567433
     237, -12.5338609112, -8.94033809436, -7.90856339017
     238, -12.2528758886, -8.83457035102, -7.48688790547
     239, -13.6844560865, -7.72766021571, -6.81059048733
     240, -13.9652762227, -7.83328365807, -7.23187771465
     241, -13.8250087069, -8.38333419512, -8.05605692126
     242, -13.441687949, -8.67966104949, -8.23703997634
     243, -12.9689961898, -8.88363712865, -8.18313773576
     244, -12.0046418634, -8.19968671562, -7.26123794613
     245, -12.1963485962, -7.88994383849, -6.89346518185
     246, -12.5799394498, -7.59334776904, -6.71225172468
     247, -13.0526312095, -7.38937216986, -6.76615349512
     248, -12.3371713122, -8.54534908453, -8.13870074095
     249, -12.056186288, -8.43958134045, -7.71702621399
     250, -13.4877664872, -7.33267120496, -7.04072830897
     251, -13.7687515116, -7.43843846916, -7.46240332494
     252, -14.0169855354, -8.07332258466, -7.68805376757
     253, -13.8202969367, -7.67833309541, -7.91819159448
     254, -13.6285901029, -7.9880764522, -8.28596434904
     255, -13.244999349, -8.28467203949, -8.46717780635
     256, -12.7723074905, -8.48864811835, -8.41327555607
     257, -11.8079532627, -7.80469770214, -7.49137576532
     258, -11.9996599967, -7.49495482842, -7.12360301135
     259, -12.3832507507, -7.19835876072, -6.94238955371
     260, -12.85594261, -6.99438316069, -6.99629179465
     261, -12.1404827129, -8.15036007383, -8.36883952255
     262, -11.8594976858, -8.0445923166, -7.94716403421
     263, -13.2910777882, -6.93768218615, -7.27086613863
     264, -13.5720628124, -7.04344946143, -7.69254162117
     265, -13.6236082377, -7.28334407593, -8.14832989197
     266, -13.4319015023, -7.59308743236, -8.51610217962
     267, -13.048310649, -7.88968301949, -8.69731562635
     268, -12.5756188924, -8.09365909873, -8.64341338614
     269, -11.6112645626, -7.4097086824, -7.72151406572
     270, -11.8029712963, -7.09996580877, -7.35374083168
     271, -12.1865621515, -6.80336975022, -7.17252737358
     272, -12.6592539113, -6.59939414114, -7.22642962457
     273, -11.9437940125, -7.75537058312, -8.59897734285
     274, -11.6628089854, -7.64960330581, -8.17730186437
     275, -13.0943891885, -6.54269317684, -7.50100443824
     276, -13.3753742124, -6.6484604514, -7.92267944142
     277, -13.4269195374, -6.88835506583, -8.37846771273
     278, -13.2352128027, -7.19809842386, -8.74623999911
     279, -12.8516220519, -7.49469401207, -8.92745345421
     280, -12.3789301946, -7.69866961008, -8.87355216562
     281, -11.4145759625, -7.01471967267, -7.95165189613
     282, -11.6062826956, -6.70497679834, -7.58387866249
     283, -11.9898734507, -6.40838072854, -7.40266520456
     284, -12.4625653116, -6.20440513004, -7.45656744536
     285, -11.7471054116, -7.36038156282, -8.82911517231
     286, -11.4661203858, -7.25461428656, -8.40743968452
     287, -12.897700489, -6.14770416721, -7.73114226833
     288, -13.1786855124, -6.25347143162, -8.15281727085
     289, -13.2302309376, -6.49336605517, -8.60860554172
     290, -13.0385242035, -6.80310940311, -8.97637877842
     291, -12.6549333515, -7.09970499232, -9.15759223429
     292, -12.1822415922, -7.30368059982, -9.10368998538
     293, -11.2179363105, -6.61982615991, -8.18173486655
     294, -11.4096396484, -6.31007746197, -7.81396552154
     295, -11.7932142505, -6.01345013262, -7.63276996729
     296, -12.2658790436, -5.80942095889, -7.68670246437
     297, -11.5504393696, -6.96543730704, -9.05922672245
     298, -11.2694714431, -6.85970291068, -8.63753207274
     299, -12.7009849272, -5.75266211178, -7.9613112318
     300, -12.9819500333, -5.85839130001, -8.38300855863
     301, -13.033490378, -6.09827630616, -8.83880180347
     302, -12.8417933544, -6.40803763393, -9.20656421808
     303, -12.4582233053, -6.7046733737, -9.3877546385
     304, -11.9855549145, -6.9086956129, -9.33382546476
     305, -11.0424318463, -6.30880267839, -8.35943978927
     306, -11.2291605034, -5.98140256591, -7.99662631446
     307, -11.6006277194, -5.6559768967, -7.83362747257
     308, -12.0465662837, -5.4207715637, -7.90875928004
     309, -11.3567043184, -6.61242506168, -9.2667930783
     310, -11.0876060359, -6.53643089649, -8.82830742352
     311, -12.4560865623, -5.32836448665, -8.19786570366
     312, -12.725183112, -5.40436105727, -8.63635055105
     313, -12.7703613541, -5.63198921406, -9.10521607516
     314, -12.5836520765, -5.95942419385, -9.46800692622
     315, -12.2121904429, -6.28485689649, -9.63100353275
     316, -11.766241689, -6.52004548082, -9.55588267876
     317, -10.8326348473, -6.01133449142, -8.52226182392
     318, -11.013103945, -5.6684807881, -8.16322747771
     319, -11.3684466532, -5.31467346794, -8.01746833258
     320, -11.7843195773, -5.04893278034, -8.11228995718
     321, -11.1235008988, -6.2751340271, -9.45663860916
     322, -10.8702859195, -6.22846519747, -9.00232638449
     323, -12.1647982627, -4.92199005338, -8.41507654913
     324, -12.4180253904, -4.96868473451, -8.86937620842
     325, -12.4556647431, -5.18578560036, -9.3494506144
     326, -12.2752315105, -5.52869292582, -9.70844974313
     327, -11.9198816724, -5.88248650049, -9.85422011396
     328, -11.5039940008, -6.14820685783, -9.7594127533
     329, -10.5905761945, -5.73027500727, -8.66864257194
     330, -10.763829891, -5.37412550934, -8.31249236552
     331, -11.0990740903, -4.99290051832, -8.18258638998
     332, -11.4817452817, -4.69760526153, -8.29526768745
     333, -10.8532547005, -5.95679204293, -9.62688834368
     334, -10.6199136978, -5.93842458297, -9.15804665166
     335, -11.8299028726, -4.53768739598, -8.61077643501
     336, -12.0632725959, -4.55609677507, -9.0795975231
     337, -12.0925773432, -4.76419536591, -9.56902200931
     338, -11.9193798661, -5.12041166951, -9.92513096983
     339, -11.5841120505, -5.50160625316, -10.0550556699
     340, -11.2014207119, -5.7968795862, -9.94239032617
     341, -10.3186637015, -5.46841804875, -8.79712742291
     342, -10.4839577162, -5.10101665598, -8.44324163916
     343, -10.7952830935, -4.69385627665, -8.32742001003
     344, -11.1418523458, -4.3702805806, -8.45587510387
     345, -10.5487627134, -5.66050830365, -9.77584825977
     346, -10.3391455773, -5.66884097313, -9.29407062063
     347, -11.4546152108, -4.17932873386, -8.78302677222
     348, -11.664272769, -4.17104026422, -9.26478494371
     349, -11.6847070905, -4.37140872984, -9.76174919933
     350, -11.5194797623, -4.73887471961, -10.1155970672
     351, -11.2081183139, -5.14600055062, -10.2314382646
     352, -10.8615277825, -5.4695556795, -10.1029975509
     353, -10.0195965657, -5.22836545274, -8.90643804158
     354, -10.176298916, -4.85162503536, -8.55444166155
     355, -10.4601710419, -4.4205136243, -8.45058624321
     356, -10.7680184746, -4.07021283388, -8.592514707
     357, -10.2131388825, -5.38918673807, -9.90203318655
     358, -10.0308242343, -5.42206155773, -9.40917707516
     359, -11.042573381, -3.85051638946, -8.93011886109
     360, -11.2249282256, -3.81767598895, -9.42296086051
     361, -11.2361076438, -4.0113295901, -9.92571549705
     362, -11.0794681759, -4.38811869825, -10.2776873961
     363, -10.7955596594, -4.81920235413, -10.3815564788
     364, -10.4876931129, -5.16948824708, -10.2396370508
     365, -9.696350555, -5.01250381158, -8.99548945518
     366, -9.84384299822, -4.62820417618, -8.64519972126
     367, -10.0971289434, -4.17559612206, -8.55089760091
     368, -10.3639573193, -3.80038385135, -8.70382932592
     369, -9.84978819686, -5.14550303263, -10.0041858137
     370, -9.69796324301, -5.20024732656, -9.50233545975
     371, -10.5978033435, -3.554540925, -9.05059481651
     372, -10.7496556126, -3.49981464695, -9.55243857448
     373, -10.7512371394, -3.68753683543, -10.0592925252
     374, -10.6037827041, -4.07186055478, -10.409571698
     375, -10.3504736243, -4.52445457031, -10.5038794423
     376, -10.0836333466, -4.89965954145, -10.3509515112
     377, -9.35213551223, -4.82297776329, -9.06339482831
     378, -9.48974766331, -4.43278261897, -8.71475928668
     379, -9.70981599768, -3.96154829735, -8.62737737017
     380, -9.93368703824, -3.56347499515, -8.78871262958
     381, -9.46237534569, -4.93187349952, -10.0812837558
     382, -9.34373348875, -5.00536971684, -9.57270695207
     383, -10.1246741144, -3.29435256833, -9.14326275855
     384, -10.2433159748, -3.22085637654, -9.65183952077
     385, -10.2349139467, -3.40324832519, -10.1611515906
     386, -10.0973018377, -3.79344353375, -10.5097871758
     387, -9.87723337526, -4.26467822309, -10.5971690621
     388, -9.65336238385, -4.66275093515, -10.435834677
     389, -8.990373831, -4.66167187617, -9.10948072921
     390, -9.11732214972, -4.2671590875, -8.76250671625
     391, -9.30212534081, -3.78051578186, -8.6792654227
     392, -9.4814819397, -3.36184196308, -8.84631960462
     393, -9.05479601976, -4.7504331318, -10.1325561354
     394, -8.97144886367, -4.83920959748, -9.61964726968
     395, -9.62784265187, -3.07252654656, -9.20720626919
     396, -9.71115958553, -2.98373921479, -9.72011796793
     397, -9.69227130303, -3.16128932632, -10.2302799873
     398, -9.56527963471, -3.55578539569, -10.5772573846
     399, -9.38050271176, -4.04243863233, -10.6604971887
     400, -9.20115865265, -4.46111760227, -10.4934416104
     401, -8.61466031543, -4.53018920314, -9.1332890134
     402, -8.73001593194, -4.13289480553, -8.78796553387
     403, -8.87814592354, -3.63432085752, -8.70603253676
     404, -9.01183786333, -3.19748751881, -8.87607996563
     405, -8.63113676215, -4.60301260825, -10.1574853358
     406, -8.58455674318, -4.703346308, -9.64270772847
     407, -9.11221446727, -2.89123998961, -9.24179776233
     408, -9.15874005407, -2.79089361695, -9.75657438455
     409, -9.12870200063, -2.96406492203, -10.2659924417
     410, -9.01326519663, -3.36133698853, -10.6113133346
     411, -8.86518192365, -3.85992236046, -10.6932476894
     412, -8.73151499898, -4.29676374395, -10.5232019989
     413, -8.22872980368, -4.42983607593, -9.13458252247
     414, -8.3314090756, -4.03130728417, -8.79080215917
     415, -8.44212602696, -3.52444717559, -8.70737946843
     416, -8.52942225477, -3.07204557914, -8.87769614428
     417, -8.19563580882, -4.4911258336, -10.1558151203
     418, -8.18661881437, -4.59915428227, -9.6416427971
     419, -8.58288693559, -2.75224601251, -9.24670033261
     420, -8.59184103244, -2.64421025012, -9.76086878838
     421, -8.54980605311, -2.81353508078, -10.2679319762
     422, -8.44702881819, -3.21204598389, -10.6117002875
     423, -8.33636295385, -3.7189124271, -10.6951305384
     424, -8.24909883397, -4.17132158793, -10.5248182548
     425, -7.83641855731, -4.36160969161, -9.11334797672
     426, -7.92519310222, -3.96346462664, -8.77083163241
     427, -7.99842878877, -3.45202681559, -8.68324077278
     428, -8.03902845282, -2.98676305288, -8.85115295465
     429, -7.75264669793, -4.41595137087, -10.1275525312
     430, -7.78130393482, -4.52779305569, -9.61640251106
     431, -8.04509950787, -2.65685726731, -9.22187827897
     432, -8.01638743788, -2.54501570563, -9.73302076117
     433, -7.96133710691, -2.71119567614, -10.2360814185
     434, -7.87246776055, -3.1093327969, -10.5785786656
     435, -7.79927318824, -3.62076999482, -10.6661799212
     436, -7.75870634694, -4.08603900842, -10.4982751144
     437, -7.44162380533, -4.32618858958, -9.06979788275
     438, -7.51516567906, -3.93018027986, -8.7280214076
     439, -7.55149489752, -3.41783128856, -8.63378189519
     440, -7.54553184491, -2.94248744335, -8.79671367073
     441, -7.30658958931, -4.37832906496, -10.0729632536
     442, -7.3723794554, -4.49020010054, -9.56713813842
     443, -7.50417528411, -2.60592636764, -9.16759137461
     444, -7.43835586139, -2.49406023911, -9.67340946968
     445, -7.36914425897, -2.65806384704, -10.1707558024
     446, -7.29553093681, -3.05407194937, -10.5125134574
     447, -7.2592188546, -3.56641666036, -10.6067610546
     448, -7.26521000537, -4.04176328686, -10.443835934
     449, -7.04827085705, -4.32392408659, -9.00436479624
     450, -7.10521341275, -3.93200738054, -8.6624979779
     451, -7.10580237968, -3.42226798119, -8.55939437736
     452, -7.05383681885, -2.9396585309, -8.71492008012
     453, -6.86192204744, -4.37875632124, -9.9925743822
     454, -6.96369310296, -4.4870760778, -9.49420218401
     455, -6.96546528509, -2.5998368216, -9.08439594786
     456, -6.86369301751, -2.49151926948, -9.58276609875
     457, -6.77911283181, -2.65466753311, -10.0726042646
     458, -6.72212633788, -3.04658703411, -10.4144588245
     459, -6.72152822969, -3.55632420039, -10.5175634157
     460, -6.77351464683, -4.0389339843, -10.3620424934
     461, -6.66014280502, -4.35485322354, -8.91766756497
     462, -6.69920564956, -3.96923942228, -8.57453902099
     463, -6.66578102527, -3.46538352185, -8.46068069545
     464, -6.56883571614, -2.97830305498, -8.60658731255
     465, -6.423028023, -4.41739090696, -9.88714492283
     466, -6.55905525581, -4.51888687945, -9.3981197128
     467, -6.43434189738, -2.63848935174, -8.9731551206
     468, -6.29832112097, -2.53699267867, -9.46218261054
     469, -6.19722352824, -2.7010273068, -9.94263295806
     470, -6.15814569429, -3.08664235167, -10.2857569059
     471, -6.19155920983, -3.59049830798, -10.3996129103
     472, -6.28851304064, -4.07757847972, -10.253709589
     473, -6.18117822809, -4.4140084566, -8.79667212345
     474, -6.22023335494, -4.02840582463, -8.45354776997
     475, -6.18677231719, -3.52455835615, -8.33967426263
     476, -6.08976063891, -3.03747136078, -8.48556439441
     477, -5.94400469955, -4.47655943049, -9.76612376032
     478, -6.08007150418, -4.57804379393, -9.27710832483
     479, -5.95519288137, -2.69765898987, -8.852127089
     480, -5.81912607627, -2.59617438603, -9.34114252581
     481, -5.71801935199, -2.76020972324, -9.82157872633
     482, -5.67896422554, -3.14581211481, -10.1647039899
     483, -5.7124252608, -3.64965982382, -10.2785775569
     484, -5.80943693912, -4.13674706075, -10.1326864042
     485, -5.70209707623, -4.47317727699, -8.67564894324
     486, -5.74115267358, -4.08757464286, -8.33252363862
     487, -5.70769116962, -3.58372693574, -8.21865108325
     488, -5.61067996031, -3.09663993256, -8.36454121346
     489, -5.46492354932, -4.53572777003, -9.64510058121
     490, -5.60099034224, -4.63721261415, -9.15608514382
     491, -5.47611172917, -2.7568275601, -8.73110390852
     492, -5.34004492612, -2.65534295605, -9.22011934577
     493, -5.23893819386, -2.81937829281, -9.70055554648
     494, -5.19988307687, -3.20498069461, -10.0436798902
     495, -5.23334410077, -3.70882839394, -10.1575533569
     496, -5.33035578037, -4.1959153991, -10.0116633055
     497, -5.22301639832, -4.5323456176, -8.55462576517
     498, -5.26207152267, -4.14674298443, -8.21150045914
     499, -5.22861048678, -3.64289551395, -8.09762695267
     500, -5.13159881129, -3.15580851062, -8.24351803492
     501, -4.9858428689, -4.59489611052, -9.52407645025
     502, -5.12190967364, -4.69638095403, -9.03506196586
     503, -4.99703105114, -2.81599613986, -8.61008072902
     504, -4.86096424592, -2.71451153608, -9.09909616572
     505, -4.75985752128, -2.8785468738, -9.57953236691
     506, -4.72080191702, -3.26414926605, -9.922656721
     507, -4.75426343467, -3.76799697135, -10.036530258
     508, -4.85127463088, -4.25508421912, -9.89064009562
     509, -4.74393524805, -4.5915144266, -8.43360163344
     510, -4.78299036347, -4.20591179482, -8.09047727959
     511, -4.74952933684, -3.70206408621, -7.97660377254
     512, -4.65251764993, -3.21497709066, -8.12249390466
     513, -4.50676170938, -4.65406492044, -9.40305327042
     514, -4.64282851386, -4.755549764, -8.91403783592
     515, -4.51794989126, -2.87516471988, -8.48905659897
     516, -4.38188309625, -2.77368011604, -8.9780720358
     517, -4.2807763621, -2.93771545281, -9.45850823568
     518, -4.24172124508, -3.32331784473, -9.80163353971
     519, -4.27518227053, -3.82716555412, -9.9155070468
     520, -4.3721939493, -4.31425255126, -9.76961596392
     521, -4.2648540861, -4.6506827664, -8.31257845223
     522, -4.3039092134, -4.26508013409, -7.9694536292
     523, -4.27044817855, -3.76123266708, -7.8555801229
     524, -4.17343649998, -3.27414566156, -8.00147072407
     525, -4.02768056032, -4.71323325979, -9.28203009168
     526, -4.16374736298, -4.8147181041, -8.79301465517
     527, -4.03886874042, -2.93433329999, -8.36803341875
     528, -3.90280193627, -2.83284868603, -8.85704885578
     529, -3.80169521414, -2.99688402273, -9.33748505647
     530, -3.76264008693, -3.38248642457, -9.68060941021
     531, -3.79610112078, -3.88633413402, -9.79448291687
     532, -3.89311280061, -4.37342136986, -9.64859278508
     533, -3.78577317838, -4.70985158708, -8.19155528436
     534, -3.82482853414, -4.32424895449, -7.84842996964
     535, -3.79136726742, -3.82040124616, -7.73455694268
     536, -3.6943555907, -3.33331400062, -7.88044707482
     537, -3.54859963896, -4.77240208047, -9.16100596034
     538, -3.68466644354, -4.87388692404, -8.67199148584
     539, -3.55978783144, -2.9935018693, -8.24701024011
     540, -3.4237210261, -2.89201726605, -8.73602567574
     541, -3.32261429153, -3.05605260384, -9.21646187709
     542, -3.28355893731, -3.44165499598, -9.55958623106
     543, -3.31702020461, -3.94550270141, -9.67345973797
     544, -3.41403165081, -4.43258970925, -9.52756961553
     545, -3.30669225829, -4.76901992671, -8.07053114372
     546, -3.34574738379, -4.38341728378, -7.72740678916
     547, -3.31228634839, -3.87956981728, -7.61353329285
     548, -3.21527467061, -3.39248258132, -7.75942341434
     549, -3.06951848945, -4.8315704204, -9.03998278048
     550, -3.20558529399, -4.93305526399, -8.55096734607
     551, -3.08070667001, -3.05267044925, -8.12598611019
     552, -2.94463986607, -2.95118584606, -8.61500154576
     553, -2.84353314177, -3.11522118293, -9.09543774573
     554, -2.80447801507, -3.50082357469, -9.43856304969
     555, -2.83793905059, -4.00467104376, -9.55243655684
     556, -2.93495072925, -4.4917585211, -9.40654547403
     557, -2.82761110699, -4.82818873643, -7.94950797268
     558, -2.86666646408, -4.44258610399, -7.60638313936
     559, -2.83320519844, -3.93873839731, -7.49250963286
     560, -2.73619351944, -3.4516511612, -7.63840023422
     561, -2.59043758026, -4.89073922982, -8.91895960163
     562, -2.72650437302, -4.99222407409, -8.4299441753
     563, -2.60162575972, -3.11183902964, -8.00496292942
     564, -2.46555895621, -3.01035442604, -8.49397836579
     565, -2.3644522241, -3.17438976264, -8.97441456632
     566, -2.32539686677, -3.55999215448, -9.31753892011
     567, -2.35885813059, -4.06383986376, -9.43141242684
     568, -2.45586958051, -4.55092685964, -9.28552230521
     569, -2.34853018746, -4.88735707694, -7.82848431371
     570, -2.38758531289, -4.50175444392, -7.48535947895
     571, -2.35412427705, -3.99790697638, -7.37148645258
     572, -2.25711259925, -3.51081973054, -7.51737658462
     573, -2.11135641894, -4.94990757046, -8.79793547036
     574, -2.24742346345, -5.05139241407, -8.3089209962
     575, -2.12254459979, -3.17100759926, -7.88393976016
     576, -1.98647791587, -3.06952299608, -8.37295518566
     577, -1.88537107166, -3.23355833379, -8.85339138707
     578, -1.84631594735, -3.61916073587, -9.19651574102
     579, -1.87977698476, -4.12300820107, -9.31038924803
     580, -1.97678866101, -4.61009567907, -9.16449912568
     581, -1.86944903733, -4.94652589673, -7.70746113331
     582, -1.90850427286, -4.5609232539, -7.36433630893
     583, -1.87504312803, -4.05707555641, -7.25046280282
     584, -1.7780315701, -3.56998831048, -7.39635340481
     585, -1.63227550947, -5.00907639039, -8.67691229051
     586, -1.76834230397, -5.11056123399, -8.187896866
     587, -1.64346369003, -3.23017617934, -7.76291610001
     588, -1.50739688615, -3.12869157604, -8.25193105541
     589, -1.40629003173, -3.29272691296, -8.73236725576
     590, -1.36723491507, -3.6783293047, -9.07549256969
     591, -1.40069594059, -4.18217701372, -9.18936606684
     592, -1.49770762924, -4.66926402119, -9.04347499396
     593, -1.39036799727, -5.0056942266, -7.58643748308
     594, -1.42942324421, -4.62009159482, -7.24331264983
     595, -1.39596209841, -4.11624436666, -7.12943914289
     596, -1.29895053004, -3.62915689043, -7.27532975483
     597, -1.15319447023, -5.06824471983, -8.5558891216
     598, -1.28926127335, -5.16972956404, -8.06687368494
     599, -1.1643826508, -3.28934475963, -7.64189244946
     600, -1.02831584659, -3.18786015598, -8.13090788554
     601, -0.927209063145, -3.35189549263, -8.61134407632
     602, -0.888153822761, -3.73749788448, -8.95446843012
     603, -0.92161496958, -4.24134535376, -9.06834193683
     604, -1.01862659046, -4.72843282971, -8.92245181516
     605, -0.911287027257, -5.06486256662, -7.4654138231
     606, -0.950342266015, -4.67926041468, -7.12228899938
     607, -0.916881117233, -4.17541270674, -7.0084159726
     608, -0.81986949634, -3.68832547075, -7.1543060945
     609, -0.674113436047, -5.12741354058, -8.43486498013
     610, -0.810180237535, -5.228898384, -7.94585002447
     611, -0.685301616805, -3.34851333928, -7.52086927013
     612, -0.549234815884, -3.24702872608, -8.00988470564
     613, -0.448128025572, -3.41106406382, -8.49032090708
     614, -0.409072818318, -3.79666646589, -8.83344526102
     615, -0.442533938788, -4.30051417112, -8.94731875803
     616, -0.539545558003, -4.7876011691, -8.80142863566
     617, -0.43220599219, -5.12403138662, -7.34439065308
     618, -0.471261201968, -4.73842875468, -7.00126581937
     619, -0.437800083328, -4.23458152664, -6.88739231287
     620, -0.340788492424, -3.74749404063, -7.03328291477
     621, -0.195032416481, -5.18658188041, -8.31384181047
     622, -0.331099232944, -5.28806672396, -7.82482684485
     623, -0.206220583114, -3.40768190936, -7.39984560998
     624, -0.0701537669718, -3.30619730604, -7.88886057546
     625, 0.0309529935344, -3.47023264293, -8.36929676573
     626, 0.0700082187501, -3.85583503471, -8.71242207969
     627, 0.0365470849263, -4.3596825038, -8.82629558683
     628, -0.0604645183776, -4.84676999115, -8.68040450399
     629, 0.0468750373393, -5.18319972648, -7.22336699337
     630, 0.00781981412694, -4.7975975654, -6.88024216036
     631, 0.0412809472475, -4.29374985665, -6.76636866288
     632, 0.138292542996, -3.80666262042, -6.91225926483
     633, 0.284048631838, -5.24575068972, -8.19281863182
     634, 0.147981802191, -5.34723553397, -7.70380319457
     635, 0.272860451206, -3.46685048962, -7.27882195947
     636, 0.408927252797, -3.36536588603, -7.76783739549
     637, 0.510034041198, -3.52940122268, -8.24827359624
     638, 0.549089222245, -3.91500361448, -8.59139795011
     639, 0.515628134422, -4.41885132377, -8.70527144683
     640, 0.418616511505, -4.90593832969, -8.55938132518
     641, 0.525956076796, -5.24236853662, -7.10234334308
     642, 0.486900838017, -4.85676590466, -6.75921850936
     643, 0.520361986754, -4.35291867673, -6.6453454826
     644, 0.617373607647, -3.86583120076, -6.7912356045
     645, 0.763129667977, -5.30491903058, -8.07179450013
     646, 0.627062806503, -5.406403874, -7.58277953448
     647, 0.751941487174, -3.52601906938, -7.15779877993
     648, 0.888008287683, -3.42453446601, -7.64681373516
     649, 0.989115078091, -3.58856980362, -8.12725041691
     650, 1.02817025272, -3.97417219588, -8.470374771
     651, 0.99470916525, -4.47801966109, -8.58424827803
     652, 0.897697546036, -4.96510713912, -8.43835814564
     653, 1.00503705277, -5.30153687662, -6.98132016309
     654, 0.965981871947, -4.91593472468, -6.6381953294
     655, 0.999442961617, -4.41208701661, -6.52432182289
     656, 1.09645463957, -3.92499977057, -6.67021242481
     657, 1.24221070051, -5.3640878504, -7.95077132049
     658, 1.10614389606, -5.46557269396, -7.46175636486
     659, 1.2310225199, -3.58518764935, -7.03677513
     660, 1.36708932347, -3.48370303599, -7.52579055555
     661, 1.4681960479, -3.6477383729, -8.00622628583
     662, 1.50725129507, -4.03334077471, -8.34935158966
     663, 1.47379013956, -4.53718847378, -8.4632250968
     664, 1.37677858075, -5.02427548114, -8.317334014
     665, 1.48411808165, -5.36070569651, -6.86029650342
     666, 1.44506284503, -4.97510306541, -6.51717168037
     667, 1.47852399164, -4.4712558266, -6.40329817288
     668, 1.57553568044, -3.98416835039, -6.54918877478
     669, 1.7212917396, -5.42325618968, -7.8297481419
     670, 1.58522493595, -5.52474103394, -7.34073270469
     671, 1.71010355966, -3.64435621956, -6.91575146958
     672, 1.84617035366, -3.54287161604, -7.40476690612
     673, 1.94727708694, -3.70690695316, -7.88520310668
     674, 1.98633232418, -4.09250958484, -8.22832746
     675, 1.9528711795, -4.59635681366, -8.34220096682
     676, 1.85585961955, -5.08344429965, -8.19631083519
     677, 1.9631991228, -5.41987403667, -6.73927285316
     678, 1.92414388712, -5.03427187467, -6.39614801933
     679, 1.95760503288, -4.53042416656, -6.28227499259
     680, 2.05461659065, -4.04333717094, -6.42816511437
     681, 2.20037277033, -5.48242500024, -7.70872449079
     682, 2.06430596643, -5.58390984399, -7.21970905433
     683, 2.18918458996, -3.70352479982, -6.79472828908
     684, 2.3252513933, -3.60203995597, -7.28374324563
     685, 2.4263581167, -3.76607553371, -7.76417944768
     686, 2.46541324175, -4.15167792525, -8.10730428098
     687, 2.43195220519, -4.65552563096, -8.22117778805
     688, 2.33494052835, -5.14261262836, -8.07528765626
     689, 2.44228015287, -5.47904284662, -6.61824967304
     690, 2.40322503712, -5.09344021469, -6.27512483935
     691, 2.43668606177, -4.58959298648, -6.16125133286
     692, 2.5336977496, -4.10250551081, -6.30714194464
     693, 2.6794536907, -5.54159334054, -7.5877008302
     694, 2.54338688624, -5.64307818397, -7.09868587459
     695, 2.66826550947, -3.76269338004, -6.67370463865
     696, 2.80433230344, -3.66120853598, -7.16272007544
     697, 2.90543927722, -3.82524410361, -7.64315627729
     698, 2.94449439293, -4.21084674469, -7.98628110032
     699, 2.91103336732, -4.71469397228, -8.10015460744
     700, 2.81402168984, -5.20178145018, -7.95426400479
     701, 2.92136131161, -5.53821118646, -6.49722601337
     702, 2.88230594507, -5.15260903542, -6.15410119037
     703, 2.91576722132, -4.64876132643, -6.04022768297
     704, 3.01277865954, -4.1616743206, -6.1861182848
     705, 3.15853484092, -5.60076216021, -7.46667765085
     706, 3.02246803588, -5.70224700393, -6.9776622146
     707, 3.14734665879, -3.8218619502, -6.55268097835
     708, 3.2834134641, -3.72037710607, -7.04169641554
     709, 3.38452018858, -3.88441268379, -7.52213261696
     710, 3.42357531509, -4.27001508497, -7.86525744978
     711, 3.39011427955, -4.77386278363, -7.97913095681
     712, 3.29310260102, -5.2609497906, -7.83324034431
     713, 3.40044222282, -5.59738000661, -6.37620236305
     714, 3.36138710703, -5.21177736447, -6.03307752926
     715, 3.39484813288, -4.70792966601, -5.91920450262
     716, 3.49185982073, -4.22084266071, -6.06509463452
     717, 3.63761576047, -5.6599304999, -7.34565400146
     718, 3.50154895643, -5.76141534399, -6.85663856419
     719, 3.62642757981, -3.88103053009, -6.43165779856
     720, 3.76249437393, -3.77954568605, -6.92067276546
     721, 3.86360110713, -3.94358126359, -7.40110896729
     722, 3.90265646257, -4.32918389464, -7.74423379041
     723, 3.86919519826, -4.83303112352, -7.85810729713
     724, 3.77218375038, -5.32011859975, -7.71221669499
     725, 3.87952338284, -5.65654834662, -6.25517918306
     726, 3.84046801706, -5.27094618445, -5.91205434924
     727, 3.87392929179, -4.76709847584, -5.7981808529
     728, 3.97094072959, -4.2800114806, -5.94407145478
     729, 4.11669667015, -5.71909931017, -7.22463034095
     730, 3.98063010627, -5.82058415397, -6.73561538448
     731, 4.1055084889, -3.94019911, -6.31063414875
     732, 4.24157529279, -3.83871426589, -6.79964958518
     733, 4.34268201717, -4.00274960335, -7.28008578688
     734, 4.38173762312, -4.38835223602, -7.62321061095
     735, 4.34827610732, -4.89219994349, -7.73708364736
     736, 4.25126490932, -5.37928693924, -7.59119351551
     737, 4.35860429163, -5.71571715648, -6.13415553338
     738, 4.31954917524, -5.33011452521, -5.79103070021
     739, 4.35301020191, -4.82626681589, -5.67715719286
     740, 4.45002187991, -4.33917982075, -5.82304779463
     741, 4.59577783096, -5.77826765026, -7.10360716075
     742, 4.45971102592, -5.87975249393, -6.61459173458
     743, 4.58458963882, -3.99936745018, -6.1896104884
     744, 4.72065644398, -3.89788283606, -6.6786259257
     745, 4.82176317809, -4.06191841354, -7.15906212678
     746, 4.86081829492, -4.44752105624, -7.50218696049
     747, 4.82735726837, -4.95136828357, -7.6160604671
     748, 4.73034559, -5.43845575941, -7.47016986528
     749, 4.83768545271, -5.77488549652, -6.01313187296
     750, 4.79863032672, -5.38928333444, -5.67000703934
     751, 4.83209136263, -4.88543563602, -5.55613401268
     752, 4.92910304048, -4.39834863098, -5.70202414438
     753, 5.07485898057, -5.83743646991, -6.98258351144
     754, 4.93879217659, -5.93892131401, -6.49356807416
     755, 5.06367079967, -4.05853626004, -6.06858731866
     756, 5.19973760417, -3.95705141608, -6.55760227539
     757, 5.30084432755, -4.12108675364, -7.03803847718
     758, 5.3398994524, -4.50668938496, -7.38116330063
     759, 5.30643841779, -5.0105370934, -7.49503680726
     760, 5.20942674015, -5.49762409979, -7.349146205
     761, 5.31676612258, -5.8340543166, -5.89210869315
     762, 5.27771100675, -5.44845167442, -5.54898386932
     763, 5.31117203151, -4.94460397588, -5.43511036296
     764, 5.4081837194, -4.45751697077, -5.5810009647
     765, 5.55394013008, -5.89660480008, -6.86155985112
     766, 5.41787333617, -5.99808965397, -6.37254489477
     767, 5.54275194971, -4.11770459972, -5.94756365928
     768, 5.67881875368, -4.01622023602, -6.43657909555
     769, 5.77992548735, -4.1802555729, -6.91701529608
     770, 5.81898060298, -4.56585772552, -7.26014013074
     771, 5.78551957711, -5.06970543359, -7.37401315741
     772, 5.68850788931, -5.55679290943, -7.22812302538
     773, 5.79584728204, -5.89322264654, -5.7710850433
     774, 5.7567921554, -5.50762049524, -5.42796021017
     775, 5.79025319203, -5.00377278596, -5.31408670283
     776, 5.88726487009, -4.51668579059, -5.45997731471
     777, 6.0330208109, -5.95577362022, -6.74053668083
     778, 5.89695400615, -6.05725846397, -6.25152124478
     779, 6.02183262911, -4.17687341989, -5.82654000895
     780, 6.15789943432, -4.07538857611, -6.31555544566
     781, 6.25900615844, -4.23942391288, -6.79599163555
     782, 6.29806175524, -4.62502654579, -7.13911647016
     783, 6.26460024857, -5.12887425385, -7.25298997704
     784, 6.16758905023, -5.61596124943, -7.10709937523
     785, 6.27492843281, -5.95239146637, -5.65006138266
     786, 6.23587331484, -5.56678883588, -5.30693656068
     787, 6.26933434307, -5.06294112605, -5.19306353257
     788, 6.36634601991, -4.57585412062, -5.33895365472
     789, 6.51210196198, -6.01494195975, -6.61951302174
     790, 6.37603516895, -6.11642680426, -6.13049806242
     791, 6.50091377686, -4.23604176019, -5.70551682839
     792, 6.63698058396, -4.13455738603, -6.1945317846
     793, 6.73808731984, -4.2985927233, -6.6749679856
     794, 6.77714243572, -4.68419488555, -7.01809281988
     795, 6.74368140982, -5.18804259441, -7.13196631669
     796, 6.64666972079, -5.67513006919, -6.98607571529
*Element, type=R3D4
       1, 1, 2, 3, 4
       2, 5, 1, 4, 6
       3, 2, 7, 8, 3
       4, 4, 3, 9, 10
       5, 6, 4, 10, 11
       6, 12, 10, 9, 13
       7, 11, 10, 12, 14
       8, 15, 16, 17, 18
       9, 7, 19, 20, 18
      10, 7, 2, 21, 19
      11, 22, 15, 18, 20
      12, 17, 16, 13, 8
      13, 19, 21, 23, 24
      14, 25, 23, 21, 26
      15, 27, 25, 26, 28
      16, 12, 13, 16, 29
      17, 14, 12, 29, 30
      18, 16, 15, 31, 29
      19, 31, 15, 22, 32
      20, 22, 33, 34, 32
      21, 33, 35, 36, 34
      22, 18, 17, 8, 7
      23, 26, 21, 2, 1
      24, 28, 26, 1, 5
      25, 23, 25, 37, 24
      26, 38, 37, 25, 27
      27, 22, 20, 35, 33
      28, 35, 24, 37, 36
      29, 39, 36, 37, 38
      30, 35, 20, 19, 24
      31, 8, 13, 9, 3
      32, 40, 5, 6, 41
      33, 41, 6, 11, 42
      34, 42, 11, 14, 43
      35, 44, 27, 28, 45
      36, 43, 14, 30, 46
      37, 45, 28, 5, 40
      38, 47, 38, 27, 44
      39, 48, 39, 38, 47
      40, 49, 40, 41, 50
      41, 50, 41, 42, 51
      42, 51, 42, 43, 52
      43, 53, 44, 45, 54
      44, 52, 43, 46, 55
      45, 54, 45, 40, 49
      46, 56, 47, 44, 53
      47, 57, 48, 47, 56
      48, 58, 49, 50, 59
      49, 59, 50, 51, 60
      50, 60, 51, 52, 61
      51, 62, 53, 54, 63
      52, 61, 52, 55, 64
      53, 63, 54, 49, 58
      54, 65, 56, 53, 62
      55, 66, 57, 56, 65
      56, 67, 58, 59, 68
      57, 68, 59, 60, 69
      58, 69, 60, 61, 70
      59, 71, 62, 63, 72
      60, 70, 61, 64, 73
      61, 72, 63, 58, 67
      62, 74, 65, 62, 71
      63, 75, 66, 65, 74
      64, 76, 67, 68, 77
      65, 77, 68, 69, 78
      66, 78, 69, 70, 79
      67, 80, 71, 72, 81
      68, 79, 70, 73, 82
      69, 81, 72, 67, 76
      70, 83, 74, 71, 80
      71, 84, 75, 74, 83
      72, 85, 76, 77, 86
      73, 86, 77, 78, 87
      74, 87, 78, 79, 88
      75, 89, 80, 81, 90
      76, 88, 79, 82, 91
      77, 90, 81, 76, 85
      78, 92, 83, 80, 89
      79, 93, 84, 83, 92
      80, 94, 85, 86, 95
      81, 95, 86, 87, 96
      82, 96, 87, 88, 97
      83, 98, 89, 90, 99
      84, 97, 88, 91, 100
      85, 99, 90, 85, 94
      86, 101, 92, 89, 98
      87, 102, 93, 92, 101
      88, 103, 94, 95, 104
      89, 104, 95, 96, 105
      90, 105, 96, 97, 106
      91, 107, 98, 99, 108
      92, 106, 97, 100, 109
      93, 108, 99, 94, 103
      94, 110, 101, 98, 107
      95, 111, 102, 101, 110
      96, 112, 103, 104, 113
      97, 113, 104, 105, 114
      98, 114, 105, 106, 115
      99, 116, 107, 108, 117
     100, 115, 106, 109, 118
     101, 117, 108, 103, 112
     102, 119, 110, 107, 116
     103, 120, 111, 110, 119
     104, 121, 112, 113, 122
     105, 122, 113, 114, 123
     106, 123, 114, 115, 124
     107, 125, 116, 117, 126
     108, 124, 115, 118, 127
     109, 126, 117, 112, 121
     110, 128, 119, 116, 125
     111, 129, 120, 119, 128
     112, 130, 121, 122, 131
     113, 131, 122, 123, 132
     114, 132, 123, 124, 133
     115, 134, 125, 126, 135
     116, 133, 124, 127, 136
     117, 135, 126, 121, 130
     118, 137, 128, 125, 134
     119, 138, 129, 128, 137
     120, 139, 130, 131, 140
     121, 140, 131, 132, 141
     122, 141, 132, 133, 142
     123, 143, 134, 135, 144
     124, 142, 133, 136, 145
     125, 144, 135, 130, 139
     126, 146, 137, 134, 143
     127, 147, 138, 137, 146
     128, 148, 139, 140, 149
     129, 149, 140, 141, 150
     130, 150, 141, 142, 151
     131, 152, 143, 144, 153
     132, 151, 142, 145, 154
     133, 153, 144, 139, 148
     134, 155, 146, 143, 152
     135, 156, 147, 146, 155
     136, 157, 148, 149, 158
     137, 158, 149, 150, 159
     138, 159, 150, 151, 160
     139, 161, 152, 153, 162
     140, 160, 151, 154, 163
     141, 162, 153, 148, 157
     142, 164, 155, 152, 161
     143, 165, 156, 155, 164
     144, 166, 157, 158, 167
     145, 167, 158, 159, 168
     146, 168, 159, 160, 169
     147, 170, 161, 162, 171
     148, 169, 160, 163, 172
     149, 172, 163, 173, 174
     150, 171, 162, 157, 166
     151, 175, 164, 161, 170
     152, 176, 165, 164, 175
     153, 177, 166, 167, 178
     154, 178, 167, 168, 179
     155, 179, 168, 169, 180
     156, 181, 170, 171, 182
     157, 180, 169, 172, 183
     158, 183, 172, 174, 184
     159, 185, 186, 176, 187
     160, 182, 171, 166, 177
     161, 188, 175, 170, 181
     162, 187, 176, 175, 188
     163, 189, 177, 178, 190
     164, 190, 178, 179, 191
     165, 191, 179, 180, 192
     166, 193, 181, 182, 194
     167, 192, 180, 183, 195
     168, 195, 183, 184, 196
     169, 197, 185, 187, 198
     170, 194, 182, 177, 189
     171, 199, 188, 181, 193
     172, 198, 187, 188, 199
     173, 200, 189, 190, 201
     174, 201, 190, 191, 202
     175, 202, 191, 192, 203
     176, 204, 193, 194, 205
     177, 203, 192, 195, 206
     178, 206, 195, 196, 207
     179, 208, 197, 198, 209
     180, 205, 194, 189, 200
     181, 210, 199, 193, 204
     182, 209, 198, 199, 210
     183, 211, 200, 201, 212
     184, 212, 201, 202, 213
     185, 213, 202, 203, 214
     186, 215, 204, 205, 216
     187, 214, 203, 206, 217
     188, 217, 206, 207, 218
     189, 219, 208, 209, 220
     190, 216, 205, 200, 211
     191, 221, 210, 204, 215
     192, 220, 209, 210, 221
     193, 222, 211, 212, 223
     194, 223, 212, 213, 224
     195, 224, 213, 214, 225
     196, 226, 215, 216, 227
     197, 225, 214, 217, 228
     198, 228, 217, 218, 229
     199, 230, 219, 220, 231
     200, 227, 216, 211, 222
     201, 232, 221, 215, 226
     202, 231, 220, 221, 232
     203, 233, 222, 223, 234
     204, 234, 223, 224, 235
     205, 235, 224, 225, 236
     206, 237, 226, 227, 238
     207, 236, 225, 228, 239
     208, 239, 228, 229, 240
     209, 241, 230, 231, 242
     210, 238, 227, 222, 233
     211, 243, 232, 226, 237
     212, 242, 231, 232, 243
     213, 244, 233, 234, 245
     214, 245, 234, 235, 246
     215, 246, 235, 236, 247
     216, 248, 237, 238, 249
     217, 247, 236, 239, 250
     218, 250, 239, 240, 251
     219, 251, 240, 252, 253
     220, 253, 252, 241, 254
     221, 254, 241, 242, 255
     222, 249, 238, 233, 244
     223, 256, 243, 237, 248
     224, 255, 242, 243, 256
     225, 257, 244, 245, 258
     226, 258, 245, 246, 259
     227, 259, 246, 247, 260
     228, 261, 248, 249, 262
     229, 260, 247, 250, 263
     230, 263, 250, 251, 264
     231, 264, 251, 253, 265
     232, 265, 253, 254, 266
     233, 266, 254, 255, 267
     234, 262, 249, 244, 257
     235, 268, 256, 248, 261
     236, 267, 255, 256, 268
     237, 269, 257, 258, 270
     238, 270, 258, 259, 271
     239, 271, 259, 260, 272
     240, 273, 261, 262, 274
     241, 272, 260, 263, 275
     242, 275, 263, 264, 276
     243, 276, 264, 265, 277
     244, 277, 265, 266, 278
     245, 278, 266, 267, 279
     246, 274, 262, 257, 269
     247, 280, 268, 261, 273
     248, 279, 267, 268, 280
     249, 281, 269, 270, 282
     250, 282, 270, 271, 283
     251, 283, 271, 272, 284
     252, 285, 273, 274, 286
     253, 284, 272, 275, 287
     254, 287, 275, 276, 288
     255, 288, 276, 277, 289
     256, 289, 277, 278, 290
     257, 290, 278, 279, 291
     258, 286, 274, 269, 281
     259, 292, 280, 273, 285
     260, 291, 279, 280, 292
     261, 293, 281, 282, 294
     262, 294, 282, 283, 295
     263, 295, 283, 284, 296
     264, 297, 285, 286, 298
     265, 296, 284, 287, 299
     266, 299, 287, 288, 300
     267, 300, 288, 289, 301
     268, 301, 289, 290, 302
     269, 302, 290, 291, 303
     270, 298, 286, 281, 293
     271, 304, 292, 285, 297
     272, 303, 291, 292, 304
     273, 305, 293, 294, 306
     274, 306, 294, 295, 307
     275, 307, 295, 296, 308
     276, 309, 297, 298, 310
     277, 308, 296, 299, 311
     278, 311, 299, 300, 312
     279, 312, 300, 301, 313
     280, 313, 301, 302, 314
     281, 314, 302, 303, 315
     282, 310, 298, 293, 305
     283, 316, 304, 297, 309
     284, 315, 303, 304, 316
     285, 317, 305, 306, 318
     286, 318, 306, 307, 319
     287, 319, 307, 308, 320
     288, 321, 309, 310, 322
     289, 320, 308, 311, 323
     290, 323, 311, 312, 324
     291, 324, 312, 313, 325
     292, 325, 313, 314, 326
     293, 326, 314, 315, 327
     294, 322, 310, 305, 317
     295, 328, 316, 309, 321
     296, 327, 315, 316, 328
     297, 329, 317, 318, 330
     298, 330, 318, 319, 331
     299, 331, 319, 320, 332
     300, 333, 321, 322, 334
     301, 332, 320, 323, 335
     302, 335, 323, 324, 336
     303, 336, 324, 325, 337
     304, 337, 325, 326, 338
     305, 338, 326, 327, 339
     306, 334, 322, 317, 329
     307, 340, 328, 321, 333
     308, 339, 327, 328, 340
     309, 341, 329, 330, 342
     310, 342, 330, 331, 343
     311, 343, 331, 332, 344
     312, 345, 333, 334, 346
     313, 344, 332, 335, 347
     314, 347, 335, 336, 348
     315, 348, 336, 337, 349
     316, 349, 337, 338, 350
     317, 350, 338, 339, 351
     318, 346, 334, 329, 341
     319, 352, 340, 333, 345
     320, 351, 339, 340, 352
     321, 353, 341, 342, 354
     322, 354, 342, 343, 355
     323, 355, 343, 344, 356
     324, 357, 345, 346, 358
     325, 356, 344, 347, 359
     326, 359, 347, 348, 360
     327, 360, 348, 349, 361
     328, 361, 349, 350, 362
     329, 362, 350, 351, 363
     330, 358, 346, 341, 353
     331, 364, 352, 345, 357
     332, 363, 351, 352, 364
     333, 365, 353, 354, 366
     334, 366, 354, 355, 367
     335, 367, 355, 356, 368
     336, 369, 357, 358, 370
     337, 368, 356, 359, 371
     338, 371, 359, 360, 372
     339, 372, 360, 361, 373
     340, 373, 361, 362, 374
     341, 374, 362, 363, 375
     342, 370, 358, 353, 365
     343, 376, 364, 357, 369
     344, 375, 363, 364, 376
     345, 377, 365, 366, 378
     346, 378, 366, 367, 379
     347, 379, 367, 368, 380
     348, 381, 369, 370, 382
     349, 380, 368, 371, 383
     350, 383, 371, 372, 384
     351, 384, 372, 373, 385
     352, 385, 373, 374, 386
     353, 386, 374, 375, 387
     354, 382, 370, 365, 377
     355, 388, 376, 369, 381
     356, 387, 375, 376, 388
     357, 389, 377, 378, 390
     358, 390, 378, 379, 391
     359, 391, 379, 380, 392
     360, 393, 381, 382, 394
     361, 392, 380, 383, 395
     362, 395, 383, 384, 396
     363, 396, 384, 385, 397
     364, 397, 385, 386, 398
     365, 398, 386, 387, 399
     366, 394, 382, 377, 389
     367, 400, 388, 381, 393
     368, 399, 387, 388, 400
     369, 401, 389, 390, 402
     370, 402, 390, 391, 403
     371, 403, 391, 392, 404
     372, 405, 393, 394, 406
     373, 404, 392, 395, 407
     374, 407, 395, 396, 408
     375, 408, 396, 397, 409
     376, 409, 397, 398, 410
     377, 410, 398, 399, 411
     378, 406, 394, 389, 401
     379, 412, 400, 393, 405
     380, 411, 399, 400, 412
     381, 413, 401, 402, 414
     382, 414, 402, 403, 415
     383, 415, 403, 404, 416
     384, 417, 405, 406, 418
     385, 416, 404, 407, 419
     386, 419, 407, 408, 420
     387, 420, 408, 409, 421
     388, 421, 409, 410, 422
     389, 422, 410, 411, 423
     390, 418, 406, 401, 413
     391, 424, 412, 405, 417
     392, 423, 411, 412, 424
     393, 425, 413, 414, 426
     394, 426, 414, 415, 427
     395, 427, 415, 416, 428
     396, 429, 417, 418, 430
     397, 428, 416, 419, 431
     398, 431, 419, 420, 432
     399, 432, 420, 421, 433
     400, 433, 421, 422, 434
     401, 434, 422, 423, 435
     402, 430, 418, 413, 425
     403, 436, 424, 417, 429
     404, 435, 423, 424, 436
     405, 437, 425, 426, 438
     406, 438, 426, 427, 439
     407, 439, 427, 428, 440
     408, 441, 429, 430, 442
     409, 440, 428, 431, 443
     410, 443, 431, 432, 444
     411, 444, 432, 433, 445
     412, 445, 433, 434, 446
     413, 446, 434, 435, 447
     414, 442, 430, 425, 437
     415, 448, 436, 429, 441
     416, 447, 435, 436, 448
     417, 449, 437, 438, 450
     418, 450, 438, 439, 451
     419, 451, 439, 440, 452
     420, 453, 441, 442, 454
     421, 452, 440, 443, 455
     422, 455, 443, 444, 456
     423, 456, 444, 445, 457
     424, 457, 445, 446, 458
     425, 458, 446, 447, 459
     426, 454, 442, 437, 449
     427, 460, 448, 441, 453
     428, 459, 447, 448, 460
     429, 461, 449, 450, 462
     430, 462, 450, 451, 463
     431, 463, 451, 452, 464
     432, 465, 453, 454, 466
     433, 464, 452, 455, 467
     434, 467, 455, 456, 468
     435, 468, 456, 457, 469
     436, 469, 457, 458, 470
     437, 470, 458, 459, 471
     438, 466, 454, 449, 461
     439, 472, 460, 453, 465
     440, 471, 459, 460, 472
     441, 473, 461, 462, 474
     442, 474, 462, 463, 475
     443, 475, 463, 464, 476
     444, 477, 465, 466, 478
     445, 476, 464, 467, 479
     446, 479, 467, 468, 480
     447, 480, 468, 469, 481
     448, 481, 469, 470, 482
     449, 482, 470, 471, 483
     450, 478, 466, 461, 473
     451, 484, 472, 465, 477
     452, 483, 471, 472, 484
     453, 485, 473, 474, 486
     454, 486, 474, 475, 487
     455, 487, 475, 476, 488
     456, 489, 477, 478, 490
     457, 488, 476, 479, 491
     458, 491, 479, 480, 492
     459, 492, 480, 481, 493
     460, 493, 481, 482, 494
     461, 494, 482, 483, 495
     462, 490, 478, 473, 485
     463, 496, 484, 477, 489
     464, 495, 483, 484, 496
     465, 497, 485, 486, 498
     466, 498, 486, 487, 499
     467, 499, 487, 488, 500
     468, 501, 489, 490, 502
     469, 500, 488, 491, 503
     470, 503, 491, 492, 504
     471, 504, 492, 493, 505
     472, 505, 493, 494, 506
     473, 506, 494, 495, 507
     474, 502, 490, 485, 497
     475, 508, 496, 489, 501
     476, 507, 495, 496, 508
     477, 509, 497, 498, 510
     478, 510, 498, 499, 511
     479, 511, 499, 500, 512
     480, 513, 501, 502, 514
     481, 512, 500, 503, 515
     482, 515, 503, 504, 516
     483, 516, 504, 505, 517
     484, 517, 505, 506, 518
     485, 518, 506, 507, 519
     486, 514, 502, 497, 509
     487, 520, 508, 501, 513
     488, 519, 507, 508, 520
     489, 521, 509, 510, 522
     490, 522, 510, 511, 523
     491, 523, 511, 512, 524
     492, 525, 513, 514, 526
     493, 524, 512, 515, 527
     494, 527, 515, 516, 528
     495, 528, 516, 517, 529
     496, 529, 517, 518, 530
     497, 530, 518, 519, 531
     498, 526, 514, 509, 521
     499, 532, 520, 513, 525
     500, 531, 519, 520, 532
     501, 533, 521, 522, 534
     502, 534, 522, 523, 535
     503, 535, 523, 524, 536
     504, 537, 525, 526, 538
     505, 536, 524, 527, 539
     506, 539, 527, 528, 540
     507, 540, 528, 529, 541
     508, 541, 529, 530, 542
     509, 542, 530, 531, 543
     510, 538, 526, 521, 533
     511, 544, 532, 525, 537
     512, 543, 531, 532, 544
     513, 545, 533, 534, 546
     514, 546, 534, 535, 547
     515, 547, 535, 536, 548
     516, 549, 537, 538, 550
     517, 548, 536, 539, 551
     518, 551, 539, 540, 552
     519, 552, 540, 541, 553
     520, 553, 541, 542, 554
     521, 554, 542, 543, 555
     522, 550, 538, 533, 545
     523, 556, 544, 537, 549
     524, 555, 543, 544, 556
     525, 557, 545, 546, 558
     526, 558, 546, 547, 559
     527, 559, 547, 548, 560
     528, 561, 549, 550, 562
     529, 560, 548, 551, 563
     530, 563, 551, 552, 564
     531, 564, 552, 553, 565
     532, 565, 553, 554, 566
     533, 566, 554, 555, 567
     534, 562, 550, 545, 557
     535, 568, 556, 549, 561
     536, 567, 555, 556, 568
     537, 569, 557, 558, 570
     538, 570, 558, 559, 571
     539, 571, 559, 560, 572
     540, 573, 561, 562, 574
     541, 572, 560, 563, 575
     542, 575, 563, 564, 576
     543, 576, 564, 565, 577
     544, 577, 565, 566, 578
     545, 578, 566, 567, 579
     546, 574, 562, 557, 569
     547, 580, 568, 561, 573
     548, 579, 567, 568, 580
     549, 581, 569, 570, 582
     550, 582, 570, 571, 583
     551, 583, 571, 572, 584
     552, 585, 573, 574, 586
     553, 584, 572, 575, 587
     554, 587, 575, 576, 588
     555, 588, 576, 577, 589
     556, 589, 577, 578, 590
     557, 590, 578, 579, 591
     558, 586, 574, 569, 581
     559, 592, 580, 573, 585
     560, 591, 579, 580, 592
     561, 593, 581, 582, 594
     562, 594, 582, 583, 595
     563, 595, 583, 584, 596
     564, 597, 585, 586, 598
     565, 596, 584, 587, 599
     566, 599, 587, 588, 600
     567, 600, 588, 589, 601
     568, 601, 589, 590, 602
     569, 602, 590, 591, 603
     570, 598, 586, 581, 593
     571, 604, 592, 585, 597
     572, 603, 591, 592, 604
     573, 605, 593, 594, 606
     574, 606, 594, 595, 607
     575, 607, 595, 596, 608
     576, 609, 597, 598, 610
     577, 608, 596, 599, 611
     578, 611, 599, 600, 612
     579, 612, 600, 601, 613
     580, 613, 601, 602, 614
     581, 614, 602, 603, 615
     582, 610, 598, 593, 605
     583, 616, 604, 597, 609
     584, 615, 603, 604, 616
     585, 617, 605, 606, 618
     586, 618, 606, 607, 619
     587, 619, 607, 608, 620
     588, 621, 609, 610, 622
     589, 620, 608, 611, 623
     590, 623, 611, 612, 624
     591, 624, 612, 613, 625
     592, 625, 613, 614, 626
     593, 626, 614, 615, 627
     594, 622, 610, 605, 617
     595, 628, 616, 609, 621
     596, 627, 615, 616, 628
     597, 629, 617, 618, 630
     598, 630, 618, 619, 631
     599, 631, 619, 620, 632
     600, 633, 621, 622, 634
     601, 632, 620, 623, 635
     602, 635, 623, 624, 636
     603, 636, 624, 625, 637
     604, 637, 625, 626, 638
     605, 638, 626, 627, 639
     606, 634, 622, 617, 629
     607, 640, 628, 621, 633
     608, 639, 627, 628, 640
     609, 641, 629, 630, 642
     610, 642, 630, 631, 643
     611, 643, 631, 632, 644
     612, 645, 633, 634, 646
     613, 644, 632, 635, 647
     614, 647, 635, 636, 648
     615, 648, 636, 637, 649
     616, 649, 637, 638, 650
     617, 650, 638, 639, 651
     618, 646, 634, 629, 641
     619, 652, 640, 633, 645
     620, 651, 639, 640, 652
     621, 653, 641, 642, 654
     622, 654, 642, 643, 655
     623, 655, 643, 644, 656
     624, 657, 645, 646, 658
     625, 656, 644, 647, 659
     626, 659, 647, 648, 660
     627, 660, 648, 649, 661
     628, 661, 649, 650, 662
     629, 662, 650, 651, 663
     630, 658, 646, 641, 653
     631, 664, 652, 645, 657
     632, 663, 651, 652, 664
     633, 665, 653, 654, 666
     634, 666, 654, 655, 667
     635, 667, 655, 656, 668
     636, 669, 657, 658, 670
     637, 668, 656, 659, 671
     638, 671, 659, 660, 672
     639, 672, 660, 661, 673
     640, 673, 661, 662, 674
     641, 674, 662, 663, 675
     642, 670, 658, 653, 665
     643, 676, 664, 657, 669
     644, 675, 663, 664, 676
     645, 677, 665, 666, 678
     646, 678, 666, 667, 679
     647, 679, 667, 668, 680
     648, 681, 669, 670, 682
     649, 680, 668, 671, 683
     650, 683, 671, 672, 684
     651, 684, 672, 673, 685
     652, 685, 673, 674, 686
     653, 686, 674, 675, 687
     654, 682, 670, 665, 677
     655, 688, 676, 669, 681
     656, 687, 675, 676, 688
     657, 689, 677, 678, 690
     658, 690, 678, 679, 691
     659, 691, 679, 680, 692
     660, 693, 681, 682, 694
     661, 692, 680, 683, 695
     662, 695, 683, 684, 696
     663, 696, 684, 685, 697
     664, 697, 685, 686, 698
     665, 698, 686, 687, 699
     666, 694, 682, 677, 689
     667, 700, 688, 681, 693
     668, 699, 687, 688, 700
     669, 701, 689, 690, 702
     670, 702, 690, 691, 703
     671, 703, 691, 692, 704
     672, 705, 693, 694, 706
     673, 704, 692, 695, 707
     674, 707, 695, 696, 708
     675, 708, 696, 697, 709
     676, 709, 697, 698, 710
     677, 710, 698, 699, 711
     678, 706, 694, 689, 701
     679, 712, 700, 693, 705
     680, 711, 699, 700, 712
     681, 713, 701, 702, 714
     682, 714, 702, 703, 715
     683, 715, 703, 704, 716
     684, 717, 705, 706, 718
     685, 716, 704, 707, 719
     686, 719, 707, 708, 720
     687, 720, 708, 709, 721
     688, 721, 709, 710, 722
     689, 722, 710, 711, 723
     690, 718, 706, 701, 713
     691, 724, 712, 705, 717
     692, 723, 711, 712, 724
     693, 725, 713, 714, 726
     694, 726, 714, 715, 727
     695, 727, 715, 716, 728
     696, 729, 717, 718, 730
     697, 728, 716, 719, 731
     698, 731, 719, 720, 732
     699, 732, 720, 721, 733
     700, 733, 721, 722, 734
     701, 734, 722, 723, 735
     702, 730, 718, 713, 725
     703, 736, 724, 717, 729
     704, 735, 723, 724, 736
     705, 737, 725, 726, 738
     706, 738, 726, 727, 739
     707, 739, 727, 728, 740
     708, 741, 729, 730, 742
     709, 740, 728, 731, 743
     710, 743, 731, 732, 744
     711, 744, 732, 733, 745
     712, 745, 733, 734, 746
     713, 746, 734, 735, 747
     714, 742, 730, 725, 737
     715, 748, 736, 729, 741
     716, 747, 735, 736, 748
     717, 749, 737, 738, 750
     718, 750, 738, 739, 751
     719, 751, 739, 740, 752
     720, 753, 741, 742, 754
     721, 752, 740, 743, 755
     722, 755, 743, 744, 756
     723, 756, 744, 745, 757
     724, 757, 745, 746, 758
     725, 758, 746, 747, 759
     726, 754, 742, 737, 749
     727, 760, 748, 741, 753
     728, 759, 747, 748, 760
     729, 761, 749, 750, 762
     730, 762, 750, 751, 763
     731, 763, 751, 752, 764
     732, 765, 753, 754, 766
     733, 764, 752, 755, 767
     734, 767, 755, 756, 768
     735, 768, 756, 757, 769
     736, 769, 757, 758, 770
     737, 770, 758, 759, 771
     738, 766, 754, 749, 761
     739, 772, 760, 753, 765
     740, 771, 759, 760, 772
     741, 773, 761, 762, 774
     742, 774, 762, 763, 775
     743, 775, 763, 764, 776
     744, 777, 765, 766, 778
     745, 776, 764, 767, 779
     746, 779, 767, 768, 780
     747, 780, 768, 769, 781
     748, 781, 769, 770, 782
     749, 782, 770, 771, 783
     750, 778, 766, 761, 773
     751, 784, 772, 765, 777
     752, 783, 771, 772, 784
     753, 785, 773, 774, 786
     754, 786, 774, 775, 787
     755, 787, 775, 776, 788
     756, 789, 777, 778, 790
     757, 788, 776, 779, 791
     758, 791, 779, 780, 792
     759, 792, 780, 781, 793
     760, 793, 781, 782, 794
     761, 794, 782, 783, 795
     762, 790, 778, 773, 785
     763, 796, 784, 777, 789
     764, 795, 783, 784, 796
*Elset, elset=PIPE_WALL_HELPER_ALL, generate
1, 764, 1
*Surface, type=ELEMENT, name=PIPE_WALL_HELPER_SURF
PIPE_WALL_HELPER_ALL, SPOS
*End Part
** Robot-only terminal stop; not included in CEL material contact
*Part, name=Pipe_TERMINAL_STOP
*Node
       1, -17.8120422, -16.0254612, -1.98043847
       2, -18.0087299, -16.4204502, -1.75030053
       3, -18.288311, -16.5256882, -2.16986728
       4, -18.0916214, -16.1306992, -2.40000534
       5, -18.3395977, -16.7643833, -2.62337637
       6, -18.1429081, -16.3693943, -2.85351443
       7, -18.1488495, -17.0725784, -2.9893105
       8, -17.9521599, -16.6775894, -3.21944857
       9, -17.7671776, -17.367691, -3.16961789
      10, -17.570488, -16.972702, -3.39975595
      11, -17.6153526, -15.6304722, -2.21057653
      12, -17.8949337, -15.7357101, -2.63014317
      13, -17.9462204, -15.9744062, -3.08365226
      14, -17.7554722, -16.2826004, -3.44958639
      15, -17.3737984, -16.577713, -3.62989378
      16, -17.4186649, -15.2354832, -2.44071436
      17, -17.6982441, -15.3407211, -2.86028123
      18, -17.7495308, -15.5794172, -3.31379032
      19, -17.5587826, -15.8876114, -3.67972445
      20, -17.1771107, -16.182724, -3.86003184
      21, -17.2219753, -14.8404942, -2.67085242
      22, -17.5015564, -14.9457321, -3.09041905
      23, -17.5528431, -15.1844282, -3.54392815
      24, -17.3620949, -15.4926224, -3.90986228
      25, -16.9804211, -15.787735, -4.09016991
      26, -17.0252876, -14.4455051, -2.90099025
      27, -17.3048668, -14.5507431, -3.32055712
      28, -17.3561535, -14.7894392, -3.77406621
      29, -17.1654053, -15.0976334, -4.14000034
      30, -16.7837334, -15.392746, -4.32030773
      31, -16.828598, -14.0505161, -3.13112831
      32, -17.1081791, -14.1557541, -3.55069494
      33, -17.1594658, -14.3944502, -4.00420427
      34, -16.9687176, -14.7026443, -4.37013817
      35, -16.5870438, -14.997757, -4.55044556
      36, -16.6319103, -13.6555271, -3.36126614
      37, -16.9114895, -13.7607651, -3.78083301
      38, -16.9627762, -13.9994612, -4.2343421
      39, -16.772028, -14.3076553, -4.60027599
      40, -16.3903561, -14.6027679, -4.78058338
      41, -16.4352207, -13.2605381, -3.5914042
      42, -16.7148018, -13.3657761, -4.01097107
      43, -16.7660885, -13.6044722, -4.46447992
      44, -16.5753403, -13.9126663, -4.8304143
      45, -16.1936665, -14.2077789, -5.01072168
      46, -16.238533, -12.8655491, -3.82154202
      47, -16.5181122, -12.970787, -4.24110889
      48, -16.5693989, -13.2094831, -4.69461775
      49, -16.3786507, -13.5176773, -5.06055212
      50, -15.9969788, -13.8127899, -5.24085951
      51, -16.0418434, -12.4705601, -4.05168009
      52, -16.3214245, -12.575798, -4.47124672
      53, -16.3727112, -12.8144941, -4.92475605
      54, -16.181963, -13.1226883, -5.29068995
      55, -15.8002901, -13.4178009, -5.47099733
      56, -15.8451548, -12.0755711, -4.28181791
      57, -16.1247349, -12.180809, -4.70138454
      58, -16.1760216, -12.4195051, -5.15489388
      59, -15.9852734, -12.7276993, -5.52082777
      60, -15.6036015, -13.0228119, -5.70113516
      61, -15.6484661, -11.680582, -4.51195574
      62, -15.9280462, -11.78582, -4.93152285
      63, -15.9793329, -12.0245161, -5.3850317
      64, -15.7885847, -12.3327103, -5.75096607
      65, -15.4069118, -12.6278229, -5.93127346
      66, -15.4517775, -11.285593, -4.74209404
      67, -15.7313576, -11.390831, -5.16166067
      68, -15.7826443, -11.6295271, -5.61516953
      69, -15.5918961, -11.9377213, -5.9811039
      70, -15.2102232, -12.2328339, -6.16141129
      71, -15.2550888, -10.890604, -4.97223186
      72, -15.5346689, -10.995842, -5.3917985
      73, -15.5859556, -11.2345381, -5.84530783
      74, -15.3952074, -11.5427322, -6.21124172
      75, -15.0135345, -11.8378448, -6.39154911
      76, -15.0584002, -10.495615, -5.20236969
      77, -15.3379803, -10.600853, -5.62193632
      78, -15.389267, -10.8395491, -6.07544565
      79, -15.1985188, -11.1477432, -6.44137955
      80, -14.8168459, -11.4428558, -6.62168694
      81, -15.1412916, -10.205864, -5.85207462
      82, -15.1925783, -10.4445601, -6.30558348
      83, -15.0018301, -10.7527542, -6.67151785
      84, -14.6201572, -11.0478668, -6.85182524
      85, -14.944603, -9.81087494, -6.08221245
      86, -14.9958897, -10.049571, -6.5357213
      87, -14.8051414, -10.3577652, -6.90165567
      88, -14.7479143, -9.41588593, -6.31235027
      89, -14.799201, -9.65458202, -6.7658596
      90, -14.6084528, -9.96277618, -7.1317935
      91, -14.5512257, -9.02089691, -6.5424881
      92, -14.6025124, -9.25959301, -6.99599743
      93, -14.4117641, -9.56778717, -7.36193132
      94, -14.354537, -8.6259079, -6.7726264
      95, -14.4058237, -8.864604, -7.22613525
      96, -14.2150755, -9.17279816, -7.59206963
      97, -14.1578484, -8.23091888, -7.00276423
      98, -14.2091351, -8.46961498, -7.45627308
      99, -14.0183868, -8.77780914, -7.82220745
     100, -13.9611597, -7.83593035, -7.23290205
     101, -14.0124464, -8.07462597, -7.68641138
     102, -13.8216982, -8.38282013, -8.05234528
*Element, type=R3D4
       1, 1, 2, 3, 4
       2, 4, 3, 5, 6
       3, 6, 5, 7, 8
       4, 8, 7, 9, 10
       5, 11, 1, 4, 12
       6, 12, 4, 6, 13
       7, 13, 6, 8, 14
       8, 14, 8, 10, 15
       9, 16, 11, 12, 17
      10, 17, 12, 13, 18
      11, 18, 13, 14, 19
      12, 19, 14, 15, 20
      13, 21, 16, 17, 22
      14, 22, 17, 18, 23
      15, 23, 18, 19, 24
      16, 24, 19, 20, 25
      17, 26, 21, 22, 27
      18, 27, 22, 23, 28
      19, 28, 23, 24, 29
      20, 29, 24, 25, 30
      21, 31, 26, 27, 32
      22, 32, 27, 28, 33
      23, 33, 28, 29, 34
      24, 34, 29, 30, 35
      25, 36, 31, 32, 37
      26, 37, 32, 33, 38
      27, 38, 33, 34, 39
      28, 39, 34, 35, 40
      29, 41, 36, 37, 42
      30, 42, 37, 38, 43
      31, 43, 38, 39, 44
      32, 44, 39, 40, 45
      33, 46, 41, 42, 47
      34, 47, 42, 43, 48
      35, 48, 43, 44, 49
      36, 49, 44, 45, 50
      37, 51, 46, 47, 52
      38, 52, 47, 48, 53
      39, 53, 48, 49, 54
      40, 54, 49, 50, 55
      41, 56, 51, 52, 57
      42, 57, 52, 53, 58
      43, 58, 53, 54, 59
      44, 59, 54, 55, 60
      45, 61, 56, 57, 62
      46, 62, 57, 58, 63
      47, 63, 58, 59, 64
      48, 64, 59, 60, 65
      49, 66, 61, 62, 67
      50, 67, 62, 63, 68
      51, 68, 63, 64, 69
      52, 69, 64, 65, 70
      53, 71, 66, 67, 72
      54, 72, 67, 68, 73
      55, 73, 68, 69, 74
      56, 74, 69, 70, 75
      57, 76, 71, 72, 77
      58, 77, 72, 73, 78
      59, 78, 73, 74, 79
      60, 79, 74, 75, 80
      61, 81, 77, 78, 82
      62, 82, 78, 79, 83
      63, 83, 79, 80, 84
      64, 85, 81, 82, 86
      65, 86, 82, 83, 87
      66, 88, 85, 86, 89
      67, 89, 86, 87, 90
      68, 91, 88, 89, 92
      69, 92, 89, 90, 93
      70, 94, 91, 92, 95
      71, 95, 92, 93, 96
      72, 97, 94, 95, 98
      73, 98, 95, 96, 99
      74, 100, 97, 98, 101
      75, 101, 98, 99, 102
*Elset, elset=PIPE_TERMINAL_STOP_ALL, generate
1, 75, 1
*Surface, type=ELEMENT, name=PIPE_TERMINAL_STOP_SURF
PIPE_TERMINAL_STOP_ALL, SPOS
*End Part
** Robot-only HIGH terminal stop; CEL material remains open
*Part, name=Pipe_TERMINAL_STOP_HIGH
*Node
       1, 6.27608633, -5.94825697, -5.65262365
       2, 6.23722649, -5.56458235, -5.31121445
       3, 6.34579229, -5.31667519, -5.61977959
       4, 6.38327122, -5.54258728, -5.87859058
       5, 6.42685938, -5.04812479, -5.80939579
       6, 6.46756983, -5.20532656, -6.0474062
       7, 6.27052021, -5.06325388, -5.19791079
       8, 6.33665085, -5.0666728, -5.4613657
       9, 6.36704683, -4.57860231, -5.34307146
      10, 6.40535831, -4.81330633, -5.60947752
      11, 6.58144331, -4.56312513, -6.18421125
      12, 6.53330231, -4.8993721, -6.15803194
      13, 6.48639822, -4.85262394, -5.94950342
      14, 6.49429512, -4.60639381, -5.86038208
      15, 6.58811331, -4.99606991, -6.42228222
      16, 6.52141619, -5.31991053, -6.3165822
      17, 6.44574213, -5.67432833, -6.19029665
      18, 6.65065527, -4.65971994, -6.50541687
      19, 6.5850873, -5.45662498, -6.63546896
      20, 6.51303816, -5.71766949, -6.47788239
      21, 6.51207399, -6.01049471, -6.61722803
      22, 6.37668753, -6.11147213, -6.13065815
      23, 6.50094175, -4.24048901, -5.70780182
      24, 6.63632822, -4.13951206, -6.1943717
      25, 6.73692942, -4.30272722, -6.67240572
      26, 6.77578926, -4.68640137, -7.01381493
      27, 6.69572878, -4.81666231, -6.76057386
      28, 6.74249554, -5.18772984, -7.12711906
      29, 6.65333557, -5.12154388, -6.74181366
      30, 6.64596891, -5.67238188, -6.98195791
*Element, type=R3D4
       1, 1, 2, 3, 4
       2, 4, 3, 5, 6
       3, 2, 7, 8, 3
       4, 9, 10, 8, 7
       5, 11, 12, 13, 14
       6, 6, 12, 15, 16
       7, 6, 16, 17, 4
       8, 18, 15, 12, 11
       9, 13, 5, 10, 14
      10, 16, 19, 20, 17
      11, 21, 22, 17, 20
      12, 9, 23, 14, 10
      13, 14, 23, 24, 11
      14, 24, 25, 18, 11
      15, 18, 25, 26, 27
      16, 27, 26, 28, 29
      17, 12, 6, 5, 13
      18, 22, 1, 4, 17
      19, 20, 19, 30, 21
      20, 18, 27, 29, 15
      21, 29, 28, 30, 19
      22, 29, 19, 16, 15
      23, 5, 3, 8, 10
*Elset, elset=PIPE_TERMINAL_STOP_HIGH_ALL, generate
1, 23, 1
*Surface, type=ELEMENT, name=PIPE_TERMINAL_STOP_HIGH_SURF
PIPE_TERMINAL_STOP_HIGH_ALL, SPOS
*End Part
*Part, name=Pipe_SOLID
*Node
      1,  -16.5284824,  -17.2844334,  -1.96806526
      2,  -18.3441372,  -16.7630806,  -2.62501884
      3,  -13.0335417,  -6.09837723,  -8.83874321
      4,  -11.2178869,  -6.61973047,   -8.1817894
      5,  -6.19710016,  -2.70104122,  -9.94260216
      6,   6.73808718,  -4.29859257,  -6.67496824
      7,   6.27492857,  -5.95239115,  -5.65006161
      8,  -6.66025925,   -4.3548398,    -8.917696
      9,  -16.7201881,  -16.9746914,  -1.60029233
     10,  -17.1037788,  -16.6780949,  -1.41907883
     11,  -17.5764713,  -16.4741192,  -1.47298098
     12,  -18.0116062,  -16.4174194,  -1.74755561
     13,   -18.292593,  -16.5231857,   -2.1692307
     14,  -18.1524296,  -17.0728245,  -2.99279189
     15,  -17.7688389,  -17.3694191,  -3.17400527
     16,  -17.2961483,  -17.5733948,  -3.12010312
     17,  -16.8610115,  -17.6300964,  -2.84552836
     18,  -16.5800266,  -17.5243282,   -2.4238534
     19,  -18.1474476,  -16.3680916,  -2.85515666
     20,  -17.9507599,  -15.9731026,  -3.08529472
     21,  -17.7540703,  -15.5781136,  -3.31543255
     22,  -17.5573826,  -15.1831245,  -3.54557061
     23,   -17.360693,  -14.7881355,  -3.77570844
     24,  -17.1640053,  -14.3931465,   -4.0058465
     25,  -16.9673157,  -13.9981575,  -4.23598433
     26,   -16.770628,  -13.6031685,  -4.46612215
     27,  -16.5739384,  -13.2081795,  -4.69626045
     28,  -16.3772507,  -12.8131905,  -4.92639828
     29,  -16.1805611,  -12.4182014,   -5.1565361
     30,  -15.9838724,  -12.0232124,  -5.38667393
     31,  -15.7871838,  -11.6282234,  -5.61681223
     32,  -15.5904951,  -11.2332344,  -5.84695005
     33,  -15.3938065,  -10.8382454,  -6.07708788
     34,  -15.1971178,  -10.4432564,   -6.3072257
     35,  -15.0004292,  -10.0482674,  -6.53736401
     36,  -14.8037405,  -9.65327835,  -6.76750183
     37,  -14.6070518,  -9.25828934,  -6.99763966
     38,  -14.4103632,  -8.86330032,  -7.22777748
     39,  -14.2136745,  -8.46831131,  -7.45791578
     40,  -14.0169859,   -8.0733223,  -7.68805361
     41,  -13.8202972,  -7.67833328,  -7.91819143
     42,  -13.6236076,  -7.28334427,  -8.14832973
     43,   -13.426919,  -6.88835526,  -8.37846756
     44,  -13.2302303,  -6.49336624,  -8.60860538
     45,   -12.841835,  -6.40812016,  -9.20651627
     46,  -12.4582443,  -6.70471573,  -9.38772964
     47,  -11.9855528,  -6.90869188,  -9.33382797
     48,  -11.5504169,  -6.96539259,  -9.05925274
     49,  -11.2694321,  -6.85962534,  -8.63757801
     50,  -11.4145756,  -7.01471949,  -7.95165205
     51,  -11.6112642,   -7.4097085,  -7.72151375
     52,  -11.8079529,  -7.80469751,  -7.49137592
     53,  -12.0046415,    -8.199687,   -7.2612381
     54,  -12.2013302,  -8.59467602,  -7.03110027
     55,  -12.3980188,  -8.98966503,  -6.80096197
     56,  -12.5947084,  -9.38465405,  -6.57082415
     57,  -12.7913971,  -9.77964306,  -6.34068632
     58,  -12.9880857,  -10.1746321,   -6.1105485
     59,  -13.1847744,  -10.5696211,  -5.88041019
     60,  -13.3814631,  -10.9646101,  -5.65027237
     61,  -13.5781517,  -11.3595991,  -5.42013454
     62,  -13.7748404,  -11.7545881,  -5.18999672
     63,   -13.971529,  -12.1495771,  -4.95985842
     64,  -14.1682177,  -12.5445662,  -4.72972059
     65,  -14.3649063,  -12.9395552,  -4.49958277
     66,   -14.561595,  -13.3345442,  -4.26944494
     67,  -14.7582836,  -13.7295332,  -4.03930664
     68,  -14.9549723,  -14.1245222,  -3.80916882
     69,  -15.1516609,  -14.5195112,  -3.57903099
     70,  -15.3483496,  -14.9145002,  -3.34889293
     71,  -15.5450382,  -15.3094893,   -3.1187551
     72,  -15.7417269,  -15.7044783,  -2.88861704
     73,  -15.9384155,  -16.0994663,  -2.65847921
     74,  -16.1351051,  -16.4944553,  -2.42834115
     75,  -16.3317928,  -16.8894444,  -2.19820333
     76,  -5.71801949,   -2.7602098,  -9.82157898
     77,  -5.23893833,  -2.81937838,   -9.7005558
     78,  -4.75985718,  -2.87854695,  -9.57953167
     79,   -4.2807765,  -2.93771553,  -9.45850849
     80,  -3.80169535,  -2.99688411,  -9.33748531
     81,  -3.32261419,  -3.05605268,  -9.21646118
     82,  -2.84353328,  -3.11522126,    -9.095438
     83,  -2.36445212,  -3.17438984,  -8.97441483
     84,  -1.88537109,  -3.23355842,  -8.85339069
     85,  -1.40629005,  -3.29272699,  -8.73236752
     86, -0.927209079,  -3.35189557,  -8.61134434
     87, -0.448128045,  -3.41106415,  -8.49032021
     88, 0.0309529938,  -3.47023273,  -8.36929703
     89,  0.510034025,   -3.5294013,  -8.24827385
     90,  0.989115059,  -3.58856988,  -8.12724972
     91,   1.46819603,  -3.64773846,  -8.00622654
     92,   1.94727707,  -3.70690703,  -7.88520288
     93,   2.42635822,  -3.76607561,  -7.76417971
     94,   2.90543914,  -3.82524419,  -7.64315605
     95,   3.38452029,  -3.88441277,   -7.5221324
     96,   3.86360121,   -3.9435811,  -7.40110922
     97,   4.34268236,  -4.00274992,  -7.28008556
     98,   4.82176352,  -4.06191826,  -7.15906191
     99,   5.30084419,  -4.12108707,  -7.03803873
    100,   5.77992535,  -4.18025541,  -6.91701508
    101,    6.2590065,  -4.23942423,   -6.7959919
    102,   6.77714252,  -4.68419504,  -7.01809311
    103,   6.74368143,  -5.18804264,  -7.13196611
    104,   6.64666986,  -5.67512989,  -6.98607588
    105,   6.51210213,  -6.01494217,  -6.61951303
    106,   6.37603521,  -6.11642694,  -6.13049793
    107,   5.79584742,  -5.89322281,  -5.77108526
    108,   5.31676626,  -5.83405447,  -5.89210844
    109,   4.83768511,  -5.77488565,   -6.0131321
    110,   4.35860443,  -5.71571732,  -6.13415575
    111,   3.87952328,   -5.6565485,  -6.25517893
    112,   3.40044212,  -5.59738016,  -6.37620258
    113,   2.92136121,  -5.53821135,  -6.49722624
    114,   2.44228029,  -5.47904301,  -6.61824942
    115,   1.96319914,  -5.41987419,  -6.73927307
    116,    1.4841181,  -5.36070585,  -6.86029673
    117,   1.00503707,  -5.30153704,   -6.9813199
    118,  0.525956094,   -5.2423687,  -7.10234356
    119, 0.0468750373,  -5.18319988,  -7.22336674
    120, -0.432206005,  -5.12403154,  -7.34439039
    121,  -0.91128701,  -5.06486273,  -7.46541405
    122,   -1.3903681,  -5.00569439,  -7.58643723
    123,  -1.86944914,  -4.94652557,  -7.70746088
    124,  -2.34853005,  -4.88735723,  -7.82848454
    125,  -2.82761121,  -4.82818842,  -7.94950771
    126,  -3.30669212,  -4.76902008,  -8.07053185
    127,  -3.78577328,  -4.70985126,  -8.19155502
    128,  -4.26485443,  -4.65068293,   -8.3125782
    129,  -4.74393511,  -4.59151411,  -8.43360233
    130,  -5.22301626,  -4.53234577,  -8.55462551
    131,  -5.70209742,  -4.47317696,  -8.67564869
    132,  -6.18117857,  -4.41400862,  -8.79667282
    133,   -6.5591526,   -4.5188756,  -9.39813232
    134,  -6.42308569,  -4.41739082,  -9.88714695
    135,  -6.28851795,  -4.07757854,  -10.2537098
    136,  -6.19150639,  -3.59049129,   -10.399601
    137,  -6.15804529,   -3.0866437,  -10.2857275
    138,   6.63698053,  -4.13455725,  -6.19453192
    139,   6.50091362,  -4.23604202,  -5.70551682
    140,   6.36634588,   -4.5758543,  -5.33895397
    141,   6.26933432,  -5.06294155,  -5.19306326
    142,   6.23587322,  -5.56678915,  -5.30693674
    143,  -11.4095936,  -6.30998755,  -7.81401682
    144,  -11.7931843,  -6.01339197,  -7.63280344
    145,  -12.2658768,  -5.80941582,  -7.68670559
    146,  -12.7010117,  -5.75271511,  -7.96128035
    147,  -12.9819975,  -5.85848236,  -8.38295555
    148,  -12.7703638,  -5.63199282,  -9.10521412
    149,  -12.4556665,  -5.18578768,  -9.34944916
    150,  -12.0925779,   -4.7641964,  -9.56902218
    151,  -11.6847076,  -4.37140942,  -9.76174927
    152,  -11.2361078,  -4.01133013,  -9.92571545
    153,  -10.7512369,  -3.68753695,  -10.0592928
    154,  -10.2349148,  -3.40324831,  -10.1611509
    155,  -9.69227123,  -3.16128922,  -10.2302799
    156,  -9.12870121,  -2.96406484,  -10.2659922
    157,  -8.54980469,  -2.81353498,  -10.2679319
    158,  -7.96133518,  -2.71119547,  -10.2360811
    159,  -7.36914158,  -2.65806365,  -10.1707554
    160,  -6.77910852,  -2.65466785,  -10.0726042
    161,   -7.0482645,  -4.32392406,  -9.00436306
    162,  -7.44161987,  -4.32618809,  -9.06979752
    163,  -7.83641624,  -4.36160946,  -9.11334801
    164,  -8.22872925,   -4.4298358,  -9.13458252
    165,  -8.61466026,  -4.53018904,  -9.13328934
    166,  -8.99037361,  -4.66167212,  -9.10948086
    167,  -9.35213566,  -4.82297802,   -9.0633955
    168,   -9.6963501,  -5.01250362,  -8.99548912
    169,  -10.0195971,   -5.2283659,  -8.90643787
    170,  -10.3186646,   -5.4684186,  -8.79712677
    171,  -10.5905781,  -5.73027658,  -8.66864204
    172,  -10.8326368,  -6.01133728,  -8.52226067
    173,  -11.0424347,  -6.30880737,  -8.35943699
    174,  -6.29820728,  -2.53700566,  -9.46216583
    175,   -6.4342742,  -2.63849044,  -8.97315121
    176,  -6.56884193,  -2.97830272,  -8.60658836
    177,   -6.6658535,  -3.46538997,  -8.46069813
    178,  -6.69931459,  -3.96923757,  -8.57457066
    179,  -16.9367886,  -17.1639099,  -2.11016941
    180,  -17.1209431,  -17.3531113,  -2.59228754
    181,  -17.2510071,   -16.834156,  -1.81275749
    182,  -17.7513466,  -16.6892757,    -1.991714
    183,  -17.9320316,  -16.8792171,  -2.47213769
    184,  -17.6167412,  -17.2113457,  -2.77270818
    185,  -17.4348106,  -17.0218353,  -2.29196239
    186,  -17.9557419,  -16.6778355,  -3.22292972
    187,  -17.7590523,  -16.2828465,  -3.45306778
    188,  -17.5623646,  -15.8878565,   -3.6832056
    189,   -17.365675,  -15.4928675,  -3.91334367
    190,  -17.1689873,  -15.0978785,  -4.14348173
    191,  -16.9722977,  -14.7028894,  -4.37361956
    192,    -16.77561,  -14.3079004,  -4.60375738
    193,  -16.5789204,  -13.9129114,  -4.83389521
    194,  -16.3822327,  -13.5179224,  -5.06403351
    195,  -16.1855431,  -13.1229334,  -5.29417133
    196,  -15.9888544,  -12.7279444,  -5.52430916
    197,  -15.7921658,  -12.3329554,  -5.75444698
    198,  -15.5954771,  -11.9379663,  -5.98458529
    199,  -15.3987885,  -11.5429773,  -6.21472311
    200,  -15.2020998,  -11.1479883,  -6.44486094
    201,  -15.0054111,  -10.7529993,  -6.67499876
    202,  -14.8087225,  -10.3580103,  -6.90513706
    203,  -14.6120338,  -9.96302128,  -7.13527489
    204,  -14.4153452,  -9.56803226,  -7.36541271
    205,  -14.2186565,  -9.17304325,  -7.59555054
    206,  -14.0219669,  -8.77805424,  -7.82568884
    207,  -13.8252783,  -8.38306522,  -8.05582619
    208,  -13.6285896,  -7.98807621,  -8.28596497
    209,   -13.431901,   -7.5930872,  -8.51610279
    210,  -13.2352123,  -7.19809818,  -8.74624062
    211,  -13.0385237,  -6.80310917,  -8.97637844
    212,  -17.5721512,  -16.9744301,   -3.4041431
    213,  -17.3754616,  -16.5794411,  -3.63428116
    214,  -17.1787739,  -16.1844521,  -3.86441898
    215,  -16.9820843,   -15.789463,  -4.09455681
    216,  -16.7853966,   -15.394474,  -4.32469511
    217,   -16.588707,   -14.999485,  -4.55483294
    218,  -16.3920193,   -14.604496,  -4.78497076
    219,  -16.1953297,   -14.209507,  -5.01510859
    220,   -15.998641,   -13.814518,  -5.24524689
    221,  -15.8019524,   -13.419529,  -5.47538471
    222,  -15.6052637,  -13.0245399,  -5.70552254
    223,  -15.4085751,  -12.6295509,  -5.93566036
    224,  -15.2118864,  -12.2345619,  -6.16579866
    225,  -15.0151978,  -11.8395729,  -6.39593649
    226,  -14.8185091,  -11.4445839,  -6.62607431
    227,  -14.6218204,  -11.0495949,  -6.85621214
    228,  -14.4251318,  -10.6546059,  -7.08635044
    229,  -14.2284431,  -10.2596169,  -7.31648827
    230,  -14.0317545,  -9.86462784,  -7.54662609
    231,  -13.8350649,  -9.46963882,  -7.77676392
    232,  -13.6383762,  -9.07464981,  -8.00690174
    233,  -13.4416876,   -8.6796608,  -8.23703957
    234,  -13.2449989,  -8.28467178,  -8.46717834
    235,  -13.0483103,  -7.88968277,  -8.69731617
    236,  -12.8516216,  -7.49469376,  -8.92745399
    237,   -12.654933,  -7.09970474,  -9.15759182
    238,  -17.0994587,  -17.1784058,  -3.35024095
    239,   -16.902771,  -16.7834167,  -3.58037901
    240,  -16.7060814,  -16.3884277,  -3.81051683
    241,  -16.5093918,  -15.9934387,  -4.04065466
    242,  -16.3127041,  -15.5984497,  -4.27079296
    243,  -16.1160145,  -15.2034607,  -4.50093079
    244,  -15.9193268,  -14.8084717,  -4.73106861
    245,  -15.7226381,  -14.4134827,  -4.96120644
    246,  -15.5259495,  -14.0184937,  -5.19134474
    247,  -15.3292608,  -13.6235046,  -5.42148256
    248,  -15.1325722,  -13.2285156,  -5.65162039
    249,  -14.9358835,  -12.8335266,  -5.88175821
    250,  -14.7391939,  -12.4385376,  -6.11189651
    251,  -14.5425053,  -12.0435486,  -6.34203434
    252,  -14.3458166,  -11.6485596,  -6.57217216
    253,   -14.149128,  -11.2535706,  -6.80230999
    254,  -13.9524393,  -10.8585815,  -7.03244829
    255,  -13.7557507,  -10.4635925,  -7.26258612
    256,   -13.559062,  -10.0686035,  -7.49272394
    257,  -13.3623734,   -9.6736145,  -7.72286177
    258,  -13.1656847,  -9.27862549,  -7.95300007
    259,   -12.968996,  -8.88363647,  -8.18313789
    260,  -12.7723074,  -8.48864746,  -8.41327572
    261,  -12.5756187,  -8.09365845,  -8.64341354
    262,  -12.3789301,  -7.69866991,  -8.87355137
    263,  -12.1822414,   -7.3036809,  -9.10368919
    264,  -16.6643238,  -17.2351074,  -3.07566643
    265,  -16.4676342,  -16.8401184,  -3.30580425
    266,  -16.2709465,  -16.4451294,  -3.53594232
    267,  -16.0742569,  -16.0501404,  -3.76608014
    268,  -15.8775682,  -15.6551514,   -3.9962182
    269,  -15.6808796,  -15.2601624,  -4.22635603
    270,  -15.4841909,  -14.8651733,  -4.45649385
    271,  -15.2875023,  -14.4701843,  -4.68663216
    272,  -15.0908136,  -14.0751953,  -4.91676998
    273,   -14.894125,  -13.6802063,  -5.14690781
    274,  -14.6974363,  -13.2852173,  -5.37704563
    275,  -14.5007477,  -12.8902283,  -5.60718393
    276,   -14.304059,  -12.4952393,  -5.83732176
    277,  -14.1073704,  -12.1002502,  -6.06745958
    278,  -13.9106817,  -11.7052612,  -6.29759741
    279,  -13.7139931,  -11.3102722,  -6.52773571
    280,  -13.5173044,  -10.9152832,  -6.75787354
    281,  -13.3206158,  -10.5202942,  -6.98801136
    282,  -13.1239262,  -10.1253052,  -7.21814919
    283,  -12.9272375,  -9.73031616,  -7.44828749
    284,  -12.7305489,  -9.33532715,  -7.67842531
    285,  -12.5338602,  -8.94033813,  -7.90856314
    286,  -12.3371716,  -8.54534912,  -8.13870144
    287,  -12.1404829,  -8.15036011,  -8.36883926
    288,  -11.9437943,  -7.75537062,  -8.59897709
    289,  -11.7471056,   -7.3603816,  -8.82911491
    290,  -16.3833389,  -17.1293392,  -2.65399122
    291,  -16.1866493,  -16.7343502,  -2.88412929
    292,  -15.9899607,  -16.3393612,  -3.11426711
    293,   -15.793272,  -15.9443731,  -3.34440517
    294,  -15.5965834,  -15.5493841,    -3.574543
    295,  -15.3998947,  -15.1543951,  -3.80468106
    296,  -15.2032061,  -14.7594061,  -4.03481913
    297,  -15.0065174,  -14.3644171,  -4.26495695
    298,  -14.8098288,  -13.9694281,  -4.49509478
    299,  -14.6131401,   -13.574439,   -4.7252326
    300,  -14.4164515,    -13.17945,   -4.9553709
    301,  -14.2197628,   -12.784461,  -5.18550873
    302,  -14.0230742,   -12.389472,  -5.41564655
    303,  -13.8263855,   -11.994483,  -5.64578438
    304,  -13.6296959,   -11.599494,  -5.87592268
    305,  -13.4330072,   -11.204505,   -6.1060605
    306,  -13.2363186,   -10.809516,  -6.33619833
    307,  -13.0396299,  -10.4145269,  -6.56633615
    308,  -12.8429413,  -10.0195379,  -6.79647446
    309,  -12.6462526,  -9.62454891,  -7.02661228
    310,   -12.449564,   -9.2295599,  -7.25675011
    311,  -12.2528753,  -8.83457088,  -7.48688793
    312,  -12.0561867,  -8.43958187,  -7.71702623
    313,   -11.859498,  -8.04459286,  -7.94716406
    314,  -11.6628094,  -7.64960337,  -8.17730236
    315,  -11.4661207,  -7.25461435,  -8.40744019
    316,  -5.67896414,  -3.14581227,  -10.1647034
    317,  -5.19988298,  -3.20498085,  -10.0436802
    318,  -4.72080231,  -3.26414943,  -9.92265701
    319,  -4.24172115,    -3.323318,  -9.80163288
    320,     -3.76264,  -3.38248658,   -9.6806097
    321,  -3.28355908,  -3.44165516,  -9.55958652
    322,  -2.80447793,  -3.50082374,  -9.43856239
    323,  -2.32539701,  -3.55999231,  -9.31753922
    324,  -1.84631586,  -3.61916089,  -9.19651604
    325,  -1.36723483,  -3.67832947,  -9.07549191
    326, -0.888153851,  -3.73749804,  -8.95446873
    327, -0.409072816,  -3.79666662,  -8.83344555
    328, 0.0700082108,   -3.8558352,  -8.71242142
    329,  0.549089253,  -3.91500378,  -8.59139824
    330,   1.02817023,  -3.97417235,  -8.47037506
    331,   1.50725126,  -4.03334093,  -8.34935093
    332,    1.9863323,  -4.09250927,  -8.22832775
    333,   2.46541333,  -4.15167809,  -8.10730457
    334,   2.94449449,  -4.21084642,  -7.98628092
    335,    3.4235754,  -4.27001524,  -7.86525726
    336,   3.90265656,  -4.32918358,  -7.74423409
    337,   4.38173771,  -4.38835239,  -7.62321043
    338,   4.86081839,  -4.44752073,  -7.50218678
    339,   5.33989954,  -4.50668955,   -7.3811636
    340,   5.81898069,  -4.56585789,  -7.26013994
    341,   6.29806137,   -4.6250267,  -7.13911629
    342,  -5.71242523,  -3.64965987,  -10.2785769
    343,  -5.23334408,  -3.70882845,  -10.1575537
    344,   -4.7542634,  -3.76799703,  -10.0365305
    345,  -4.27518225,   -3.8271656,  -9.91550636
    346,  -3.79610109,  -3.88633418,  -9.79448318
    347,  -3.31702018,  -3.94550276,  -9.67346001
    348,  -2.83793902,   -4.0046711,  -9.55243587
    349,  -2.35885811,  -4.06383991,   -9.4314127
    350,  -1.87977707,  -4.12300825,  -9.31038952
    351,  -1.40069604,  -4.18217707,  -9.18936539
    352, -0.921615005,  -4.24134541,  -9.06834221
    353,  -0.44253394,  -4.30051422,  -8.94731903
    354, 0.0365470834,  -4.35968256,   -8.8262949
    355,  0.515628099,  -4.41885138,  -8.70527172
    356,  0.994709134,  -4.47801971,  -8.58424854
    357,   1.47379017,  -4.53718853,  -8.46322441
    358,    1.9528712,  -4.59635687,  -8.34220123
    359,   2.43195224,  -4.65552568,  -8.22117805
    360,   2.91103315,  -4.71469402,  -8.10015392
    361,   3.39011431,  -4.77386284,  -7.97913074
    362,   3.86919522,  -4.83303118,  -7.85810709
    363,   4.34827614,  -4.89219999,  -7.73708391
    364,   4.82735729,  -4.95136833,  -7.61606026
    365,   5.30643845,  -5.01053715,   -7.4950366
    366,    5.7855196,  -5.06970549,  -7.37401342
    367,   6.26460028,   -5.1288743,  -7.25298977
    368,   -5.8094368,  -4.13674688,  -10.1326866
    369,  -5.33035564,   -4.1959157,  -10.0116634
    370,  -4.85127497,  -4.25508404,  -9.89063931
    371,  -4.37219381,  -4.31425285,  -9.76961613
    372,  -3.89311266,  -4.37342119,  -9.64859295
    373,  -3.41403174,  -4.43259001,  -9.52756882
    374,  -2.93495059,  -4.49175835,  -9.40654564
    375,  -2.45586967,  -4.55092716,  -9.28552246
    376,  -1.97678864,   -4.6100955,  -9.16449833
    377,  -1.49770761,  -4.66926432,  -9.04347515
    378,  -1.01862657,  -4.72843266,  -8.92245197
    379, -0.539545536,  -4.78760147,  -8.80142784
    380,  -0.06046452,  -4.84676981,  -8.68040466
    381,  0.418616503,  -4.90593863,  -8.55938148
    382,  0.897697568,  -4.96510696,  -8.43835831
    383,    1.3767786,  -5.02427578,  -8.31733418
    384,   1.85585964,  -5.08344412,    -8.196311
    385,   2.33494067,  -5.14261293,  -8.07528782
    386,   2.81402159,  -5.20178127,  -7.95426369
    387,   3.29310274,  -5.26095009,  -7.83324051
    388,   3.77218366,  -5.32011843,  -7.71221685
    389,   4.25126457,  -5.37928724,   -7.5911932
    390,   4.73034573,  -5.43845558,  -7.47017002
    391,   5.20942688,   -5.4976244,  -7.34914637
    392,   5.68850803,  -5.55679274,  -7.22812271
    393,   6.16758871,  -5.61596155,  -7.10709953
    394,  -5.94400454,  -4.47655916,  -9.76612377
    395,  -5.46492386,  -4.53572798,  -9.64510059
    396,   -4.9858427,  -4.59489632,  -9.52407646
    397,  -4.50676155,  -4.65406513,  -9.40305328
    398,  -4.02768087,  -4.71323347,  -9.28203011
    399,  -3.54859972,  -4.77240229,  -9.16100597
    400,  -3.06951857,  -4.83157063,   -9.0399828
    401,  -2.59043765,  -4.89073944,  -8.91895962
    402,   -2.1113565,  -4.94990778,  -8.79793549
    403,  -1.63227546,  -5.00907612,  -8.67691231
    404,  -1.15319443,  -5.06824493,  -8.55588913
    405, -0.674113452,  -5.12741327,    -8.434865
    406, -0.195032418,  -5.18658209,  -8.31384182
    407,  0.284048617,  -5.24575043,  -8.19281864
    408,  0.763129652,  -5.30491924,  -8.07179451
    409,   1.24221063,  -5.36408758,  -7.95077133
    410,   1.72129166,   -5.4232564,  -7.82974815
    411,    2.2003727,  -5.48242474,   -7.7087245
    412,   2.67945385,  -5.54159355,  -7.58770084
    413,   3.15853477,  -5.60076189,  -7.46667767
    414,   3.63761592,  -5.65993071,  -7.34565401
    415,   4.11669683,  -5.71909904,  -7.22463036
    416,   4.59577799,  -5.77826786,  -7.10360718
    417,   5.07485914,   -5.8374362,  -6.98258352
    418,   5.55393982,  -5.89660501,  -6.86155987
    419,   6.03302097,  -5.95577335,  -6.74053669
    420,  -6.08007145,  -4.57804394,  -9.27710819
    421,  -5.60099077,  -4.63721275,  -9.15608501
    422,  -5.12190962,  -4.69638109,  -9.03506184
    423,  -4.64282846,  -4.75554943,   -8.9140377
    424,  -4.16374731,  -4.81471825,  -8.79301453
    425,   -3.6846664,  -4.87388659,  -8.67199135
    426,  -3.20558548,   -4.9330554,  -8.55096722
    427,  -2.72650433,  -4.99222374,  -8.42994404
    428,  -2.24742341,  -5.05139256,  -8.30892086
    429,  -1.76834238,  -5.11056089,  -8.18789673
    430,  -1.28926134,  -5.16972971,  -8.06687355
    431, -0.810180247,  -5.22889805,  -7.94585037
    432, -0.331099242,  -5.28806686,  -7.82482672
    433,  0.147981793,   -5.3472352,  -7.70380306
    434,  0.627062798,  -5.40640402,  -7.58277988
    435,   1.10614383,  -5.46557236,  -7.46175623
    436,   1.58522487,  -5.52474117,  -7.34073257
    437,   2.06430602,  -5.58390951,   -7.2197094
    438,   2.54338694,  -5.64307833,  -7.09868574
    439,   3.02246785,  -5.70224667,  -6.97766209
    440,   3.50154901,  -5.76141548,  -6.85663891
    441,   3.98062992,  -5.82058382,  -6.73561525
    442,   4.45971107,  -5.87975264,   -6.6145916
    443,   4.93879223,  -5.93892097,  -6.49356842
    444,   5.41787291,  -5.99808979,  -6.37254477
    445,   5.89695406,  -6.05725813,  -6.25152111
    446,   6.63325882,   -4.6661377,  -6.43969011
    447,    6.6359005,  -5.15575457,  -6.68952179
    448,   6.50400925,  -4.63386059,  -5.91226435
    449,    6.3761282,  -5.08798599,  -5.62806034
    450,   6.37960291,  -5.57410288,  -5.87947702
    451,   6.50954962,  -5.60815048,  -6.41052771
    452,   6.50640821,  -5.12099886,  -6.15992355
    453,  -11.6062822,  -6.70497656,  -7.58387899
    454,  -11.9898729,  -6.40838099,  -7.40266562
    455,  -12.4625654,  -6.20440483,  -7.45656776
    456,  -12.8977013,  -6.14770412,  -7.73114204
    457,  -13.1786861,  -6.25347137,  -8.15281773
    458,  -11.8029709,  -7.09996557,  -7.35374069
    459,  -12.1865625,     -6.80337,  -7.17252731
    460,  -12.6592541,  -6.59939384,  -7.22642946
    461,  -13.0943899,  -6.54269314,  -7.50100422
    462,  -13.3753748,  -6.64846039,  -7.92267942
    463,  -11.9996605,  -7.49495459,  -7.12360287
    464,  -12.3832512,  -7.19835901,  -6.94238949
    465,  -12.8559427,  -6.99438286,  -6.99629164
    466,  -13.2910786,  -6.93768215,  -7.27086639
    467,  -13.5720634,   -7.0434494,   -7.6925416
    468,  -12.1963491,   -7.8899436,  -6.89346504
    469,  -12.5799398,  -7.59334803,  -6.71225166
    470,  -13.0526314,  -7.38937187,  -6.76615381
    471,  -13.4877672,  -7.33267117,  -7.04072857
    472,  -13.7687521,  -7.43843842,   -7.4624033
    473,  -12.3930378,  -8.28493309,  -6.66332722
    474,  -12.7766285,  -7.98833704,  -6.48211384
    475,    -13.24932,  -7.78436089,  -6.53601599
    476,  -13.6844559,  -7.72766018,  -6.81059027
    477,  -13.9654408,  -7.83342743,  -7.23226547
    478,  -12.5897264,   -8.6799221,  -6.43318892
    479,  -12.9733171,  -8.38332558,  -6.25197554
    480,  -13.4460087,   -8.1793499,  -6.30587769
    481,  -13.8811445,  -8.12264919,  -6.58045244
    482,  -14.1621294,  -8.22841644,  -7.00212765
    483,  -12.7864151,  -9.07491112,  -6.20305109
    484,  -13.1700058,  -8.77831459,  -6.02183771
    485,  -13.6426973,  -8.57433891,  -6.07573986
    486,  -14.0778332,  -8.51763821,  -6.35031462
    487,  -14.3588181,  -8.62340546,  -6.77198982
    488,  -12.9831038,  -9.46990013,  -5.97291327
    489,  -13.3666945,   -9.1733036,  -5.79169989
    490,   -13.839386,  -8.96932793,  -5.84560204
    491,  -14.2745218,  -8.91262722,  -6.12017679
    492,  -14.5555067,  -9.01839447,  -6.54185152
    493,  -13.1797924,  -9.86488914,  -5.74277544
    494,  -13.5633831,  -9.56829262,  -5.56156206
    495,  -14.0360746,  -9.36431694,  -5.61546421
    496,  -14.4712105,  -9.30761623,  -5.89003849
    497,  -14.7521954,  -9.41338348,   -6.3117137
    498,  -13.3764811,  -10.2598782,  -5.51263714
    499,  -13.7600718,  -9.96328163,  -5.33142376
    500,  -14.2327633,  -9.75930595,  -5.38532591
    501,  -14.6678991,  -9.70260525,  -5.65990067
    502,   -14.948884,   -9.8083725,  -6.08157587
    503,  -13.5731697,  -10.6548672,  -5.28249931
    504,  -13.9567604,  -10.3582706,  -5.10128593
    505,  -14.4294519,   -10.154295,  -5.15518808
    506,  -14.8645878,  -10.0975943,  -5.42976284
    507,  -15.1455727,  -10.2033615,  -5.85143805
    508,  -13.7698584,  -11.0498562,  -5.05236149
    509,  -14.1534491,  -10.7532597,  -4.87114811
    510,  -14.6261406,   -10.549284,  -4.92505026
    511,  -15.0612764,  -10.4925833,  -5.19962502
    512,  -15.3422613,  -10.5983505,  -5.62129974
    513,   -13.966547,  -11.4448452,  -4.82222366
    514,  -14.3501377,  -11.1482487,  -4.64101028
    515,  -14.8228292,   -10.944273,  -4.69491243
    516,  -15.2579651,  -10.8875723,  -4.96948671
    517,    -15.53895,  -10.9933395,  -5.39116192
    518,  -14.1632357,  -11.8398342,  -4.59208536
    519,  -14.5468264,  -11.5432377,  -4.41087198
    520,  -15.0195179,   -11.339262,  -4.46477413
    521,  -15.4546537,  -11.2825613,  -4.73934889
    522,  -15.7356386,  -11.3883286,  -5.16102409
    523,  -14.3599243,  -12.2348232,  -4.36194754
    524,   -14.743515,  -11.9382267,  -4.18073416
    525,  -15.2162075,   -11.734251,  -4.23463631
    526,  -15.6513424,  -11.6775503,  -4.50921106
    527,  -15.9323273,  -11.7833176,  -4.93088627
    528,   -14.556613,  -12.6298122,  -4.13180971
    529,  -14.9402037,  -12.3332157,  -3.95059633
    530,  -15.4128962,    -12.12924,  -4.00449848
    531,   -15.848031,  -12.0725393,  -4.27907324
    532,  -16.1290169,  -12.1783066,  -4.70074797
    533,  -14.7533016,  -13.0248013,  -3.90167165
    534,  -15.1368923,  -12.7282047,  -3.72045827
    535,  -15.6095848,   -12.524229,  -3.77436042
    536,  -16.0447197,  -12.4675283,  -4.04893494
    537,  -16.3257046,  -12.5732956,  -4.47061014
    538,  -14.9499903,  -13.4197903,  -3.67153382
    539,   -15.333581,  -13.1231937,  -3.49032044
    540,  -15.8062735,  -12.9192181,  -3.54422259
    541,  -16.2414093,  -12.8625174,  -3.81879711
    542,  -16.5223942,  -12.9682846,  -4.24047232
    543,  -15.1466789,  -13.8147793,  -3.44139576
    544,  -15.5302696,  -13.5181828,  -3.26018238
    545,  -16.0029621,  -13.3142071,  -3.31408453
    546,   -16.438097,  -13.2575064,  -3.58865929
    547,  -16.7190819,  -13.3632736,  -4.01033449
    548,  -15.3433676,  -14.2097683,  -3.21125793
    549,  -15.7269583,  -13.9131718,  -3.03004456
    550,  -16.1996498,  -13.7091961,   -3.0839467
    551,  -16.6347866,  -13.6524954,  -3.35852122
    552,  -16.9157715,  -13.7582626,  -3.78019643
    553,  -15.5400562,  -14.6047573,  -2.98111987
    554,  -15.9236469,  -14.3081608,  -2.79990649
    555,  -16.3963394,  -14.1041851,  -2.85380864
    556,  -16.8314743,  -14.0474844,   -3.1283834
    557,  -17.1124592,  -14.1532516,  -3.55005836
    558,  -15.7367449,  -14.9997463,  -2.75098205
    559,  -16.1203365,  -14.7031498,  -2.56976867
    560,  -16.5930271,  -14.4991741,  -2.62367082
    561,  -17.0281639,  -14.4424734,  -2.89824533
    562,  -17.3091488,  -14.5482407,  -3.31992054
    563,  -15.9334335,  -15.3947353,  -2.52084398
    564,  -16.3170242,  -15.0981388,   -2.3396306
    565,  -16.7897167,  -14.8941631,  -2.39353275
    566,  -17.2248516,  -14.8374624,  -2.66810751
    567,  -17.5058365,  -14.9432297,  -3.08978248
    568,  -16.1301231,  -15.7897243,  -2.29070616
    569,  -16.5137138,  -15.4931278,  -2.10949278
    570,  -16.9864044,  -15.2891521,  -2.16339493
    571,  -17.4215412,  -15.2324514,  -2.43796945
    572,  -17.7025261,  -15.3382187,  -2.85964465
    573,  -16.3268108,  -16.1847134,  -2.06056809
    574,  -16.7104015,  -15.8881168,  -1.87935472
    575,   -17.183094,  -15.6841412,  -1.93325686
    576,  -17.6182289,  -15.6274405,  -2.20783162
    577,  -17.8992138,  -15.7332077,  -2.62950659
    578,  -16.5235004,  -16.5797024,  -1.83043027
    579,  -16.9070911,  -16.2831059,  -1.64921677
    580,  -17.3797836,  -16.0791302,  -1.70311892
    581,  -17.8149185,  -16.0224304,  -1.97769356
    582,  -18.0959034,  -16.1281967,  -2.39936876
    583,  -12.5836515,  -5.95944548,  -9.46800804
    584,   -12.275238,  -5.52872562,  -9.70844746
    585,  -11.9193916,  -5.12044859,  -9.92512798
    586,  -11.5194921,  -4.73890924,  -10.1155968
    587,  -11.0794783,  -4.38814783,  -10.2776899
    588,  -10.6037846,   -4.0718832,  -10.4095783
    589,  -10.0972958,  -3.79345894,  -10.5097942
    590,  -9.56526279,  -3.55579448,  -10.5772648
    591,  -9.01323986,    -3.361341,  -10.6113186
    592,  -8.44699574,  -3.21204758,  -10.6117039
    593,  -7.87243414,  -3.10933256,   -10.578578
    594,  -7.29550266,  -3.05407023,  -10.5125093
    595,   -6.7221117,  -3.04658246,  -10.4144535
    596,  -12.2121696,  -6.28487301,  -9.63100529
    597,  -11.9198608,   -5.8825202,  -9.85421658
    598,  -11.5840912,  -5.50165129,  -10.0550499
    599,  -11.2080975,  -5.14605188,   -10.231432
    600,   -10.795537,  -4.81925583,  -10.3815498
    601,  -10.3504496,    -4.524508,  -10.5038738
    602,  -9.87720776,  -4.26472807,  -10.5971642
    603,  -9.38047504,  -4.04248428,  -10.6604919
    604,  -8.86515331,  -3.85996175,   -10.693243
    605,  -8.33633804,  -3.71894479,  -10.6951256
    606,  -7.79925156,  -3.62079382,  -10.6661758
    607,  -7.25920486,  -3.56643033,  -10.6067581
    608,  -6.72152662,  -3.55632496,  -10.5175629
    609,  -11.7662373,  -6.52003813,  -9.55588627
    610,  -11.5039902,  -6.14820051,  -9.75941658
    611,   -11.201416,  -5.79687452,   -9.9423933
    612,  -10.8615236,  -5.46955204,  -10.1029987
    613,  -10.4876909,  -5.16948557,  -10.2396383
    614,  -10.0836315,   -4.8996582,  -10.3509521
    615,  -9.65336323,   -4.6627512,  -10.4358339
    616,  -9.20116043,   -4.4611187,  -10.4934416
    617,  -8.73151875,  -4.29676485,  -10.5232019
    618,   -8.2491045,   -4.1713233,  -10.5248184
    619,  -7.75871372,   -4.0860405,  -10.4982758
    620,  -7.26521873,  -4.04176378,  -10.4438372
    621,  -6.77352476,  -4.03893375,  -10.3620443
    622,  -11.3567181,  -6.61241817,  -9.26681709
    623,  -11.1235123,  -6.27511454,  -9.45667553
    624,  -10.8532639,  -5.95676565,  -9.62693501
    625,  -10.5487728,  -5.66048002,  -9.77589989
    626,    -10.21315,  -5.38915968,  -9.90208721
    627,  -9.84980202,  -5.14547873,  -10.0042381
    628,  -9.46239376,  -4.93185282,  -10.0813332
    629,  -9.05481911,   -4.7504158,  -10.1326017
    630,   -8.6311636,  -4.60299921,   -10.157526
    631,  -8.19566441,  -4.49111509,  -10.1558485
    632,  -7.75267315,  -4.41594267,  -10.1275778
    633,  -7.30661106,  -4.37832355,   -10.072979
    634,   -6.8619318,  -4.37875557,   -9.9925766
    635,  -11.0876074,  -6.53643084,  -8.82832336
    636,  -10.8702774,  -6.22845221,  -9.00235081
    637,  -10.6198978,  -5.93840742,  -9.15807533
    638,  -10.3391275,  -5.66882563,   -9.2940979
    639,  -10.0308094,  -5.42205095,  -9.40920258
    640,  -9.69795513,  -5.20024252,  -9.50235748
    641,  -9.34373569,  -5.00537205,   -9.5727253
    642,   -8.9714632,  -4.83921576,  -9.61966228
    643,  -8.58458042,  -4.70335436,  -9.64272118
    644,  -8.18664837,  -4.59916115,  -9.64165306
    645,  -7.78133488,   -4.5277977,  -9.61641026
    646,  -7.37240314,    -4.490201,  -9.56714153
    647,  -6.96370125,  -4.48707581,  -9.49419785
    648,   5.75679207,  -5.50762033,   -5.4279604
    649,   5.79025316,  -5.00377274,  -5.31408691
    650,   5.88726473,  -4.51668549,  -5.45997715
    651,   6.02183294,  -4.17687321,  -5.82653999
    652,   6.15789938,  -4.07538843,  -6.31555557
    653,   5.27771091,    -5.448452,  -5.54898357
    654,   5.31117249,   -4.9446044,  -5.43511057
    655,   5.40818405,  -4.45751715,   -5.5810008
    656,   5.54275179,  -4.11770487,  -5.94756365
    657,    5.6788187,  -4.01622009,  -6.43657875
    658,   4.79863024,  -5.38928318,  -5.67000723
    659,   4.83209133,  -4.88543558,  -5.55613375
    660,    4.9291029,  -4.39834833,  -5.70202446
    661,   5.06367064,  -4.05853605,   -6.0685873
    662,   5.19973755,  -3.95705152,  -6.55760241
    663,   4.31954908,  -5.33011484,  -5.79103088
    664,   4.35301018,  -4.82626724,   -5.6771574
    665,   4.45002174,  -4.33917999,  -5.82304764
    666,   4.58458948,  -3.99936771,  -6.18961048
    667,   4.72065639,  -3.89788294,  -6.67862606
    668,   3.84046793,  -5.27094603,  -5.91205406
    669,   3.87392926,  -4.76709843,  -5.79818106
    670,   3.97094083,  -4.28001118,  -5.94407129
    671,    4.1055088,  -3.94019914,  -6.31063414
    672,   4.24157572,  -3.83871436,  -6.79964924
    673,   3.36138701,  -5.21177769,  -6.03307772
    674,   3.39484811,  -4.70793009,  -5.91920424
    675,   3.49185967,  -4.22084284,  -6.06509495
    676,   3.62642765,  -3.88103056,  -6.43165779
    677,   3.76249456,  -3.77954578,  -6.92067289
    678,    2.8823061,  -5.15260887,  -6.15410137
    679,   2.91576719,  -4.64876127,  -6.04022789
    680,   3.01277876,  -4.16167402,  -6.18611813
    681,    3.1473465,  -3.82186198,  -6.55268097
    682,   3.28341341,  -3.72037721,  -7.04169655
    683,   2.40322495,  -5.09344053,  -6.27512455
    684,   2.43668604,  -4.58959293,  -6.16125154
    685,   2.53369761,  -4.10250568,  -6.30714178
    686,   2.66826558,  -3.76269341,  -6.67370462
    687,   2.80433249,  -3.66120863,  -7.16271973
    688,   1.92414391,  -5.03427172,   -6.3961482
    689,     1.957605,  -4.53042412,  -6.28227472
    690,   2.05461669,  -4.04333687,  -6.42816544
    691,   2.18918467,  -3.70352483,  -6.79472828
    692,   2.32525134,  -3.60204005,  -7.28374338
    693,   1.44506288,  -4.97510338,  -6.51717186
    694,   1.47852409,  -4.47125578,  -6.40329838
    695,   1.57553566,  -3.98416853,  -6.54918861
    696,   1.71010351,  -3.64435625,  -6.91575146
    697,   1.84617031,  -3.54287148,  -7.40476704
    698,  0.965981901,  -4.91593456,  -6.63819504
    699,  0.999442995,  -4.41208696,  -6.52432203
    700,   1.09645462,  -3.92499995,  -6.67021227
    701,   1.23102248,  -3.58518767,  -7.03677511
    702,   1.36708927,   -3.4837029,  -7.52579021
    703,  0.486900836,  -4.85676622,  -6.75921869
    704,   0.52036196,  -4.35291862,  -6.64534521
    705,  0.617373586,  -3.86583138,  -6.79123592
    706,  0.751941442,   -3.5260191,  -7.15779877
    707,  0.888008296,  -3.42453432,  -7.64681387
    708, 0.00781981554,  -4.79759741,  -6.88024235
    709, 0.0412809476,  -4.29374981,  -6.76636887
    710,  0.138292551,   -3.8066628,   -6.9122591
    711,  0.272860438,  -3.46685052,  -7.27882195
    712,  0.408927262,  -3.36536574,  -7.76783752
    713, -0.471261203,  -4.73842907,  -7.00126553
    714,  -0.43780008,  -4.23458147,  -6.88739252
    715, -0.340788484,  -3.74749422,  -7.03328276
    716, -0.206220582,  -3.40768194,   -7.3998456
    717, -0.0701537654,  -3.30619717,   -7.8888607
    718, -0.950342238,  -4.67926025,  -7.12228918
    719, -0.916881084,  -4.17541265,   -7.0084157
    720, -0.819869518,  -3.68832564,  -7.15430641
    721, -0.685301602,  -3.34851336,  -7.52086926
    722, -0.549234807,  -3.24702859,  -8.00988388
    723,  -1.42942321,  -4.62009192,  -7.24331284
    724,  -1.39596212,  -4.11624432,  -7.12943935
    725,  -1.29895055,  -3.62915707,  -7.27532959
    726,   -1.1643827,  -3.28934479,  -7.64189243
    727,  -1.02831578,  -3.18786001,  -8.13090801
    728,  -1.90850425,   -4.5609231,  -7.36433601
    729,  -1.87504315,   -4.0570755,  -7.25046301
    730,  -1.77803159,  -3.56998849,  -7.39635324
    731,  -1.64346373,  -3.23017621,  -7.76291609
    732,  -1.50739682,  -3.12869143,  -8.25193119
    733,   -2.3875854,  -4.50175476,  -7.48535967
    734,  -2.35412431,  -3.99790692,  -7.37148619
    735,   -2.2571125,  -3.51081991,   -7.5173769
    736,  -2.12254477,  -3.17100763,  -7.88393974
    737,  -1.98647785,  -3.06952286,  -8.37295437
    738,  -2.86666632,  -4.44258595,  -7.60638332
    739,  -2.83320522,  -3.93873835,  -7.49250984
    740,  -2.73619366,  -3.45165133,  -7.63840008
    741,  -2.60162568,  -3.11183906,  -8.00496292
    742,  -2.46555901,  -3.01035428,   -8.4939785
    743,  -3.34574747,  -4.38341761,   -7.7274065
    744,  -3.31228614,  -3.87957001,   -7.6135335
    745,  -3.21527457,  -3.39248276,  -7.75942373
    746,  -3.08070683,  -3.05267048,   -8.1259861
    747,  -2.94463992,   -2.9511857,  -8.61500168
    748,  -3.82482839,  -4.32424879,  -7.84843016
    749,  -3.79136729,  -3.82040143,  -7.73455667
    750,  -3.69435573,  -3.33331418,  -7.88044691
    751,  -3.55978775,   -2.9935019,  -8.24701023
    752,  -3.42372108,  -2.89201713,  -8.73602486
    753,   -4.3039093,  -4.26508045,  -7.96945381
    754,  -4.27044821,  -3.76123285,  -7.85558033
    755,  -4.17343664,   -3.2741456,  -8.00147057
    756,   -4.0388689,  -2.93433332,  -8.36803341
    757,  -3.90280199,  -2.83284855,  -8.85704899
    758,  -4.78299046,  -4.20591164,  -8.09047699
    759,  -4.74952936,  -3.70206428,  -7.97660351
    760,   -4.6525178,  -3.21497703,  -8.12249374
    761,  -4.51795006,  -2.87516475,  -8.48905659
    762,  -4.38188314,  -2.77367997,  -8.97807217
    763,  -5.26207161,   -4.1467433,  -8.21150017
    764,  -5.22861052,   -3.6428957,  -8.09762764
    765,  -5.13159895,  -3.15580845,  -8.24351788
    766,  -4.99703074,  -2.81599617,  -8.61008072
    767,  -4.86096382,  -2.71451139,  -9.09909534
    768,  -5.74115276,  -4.08757448,   -8.3325243
    769,  -5.70769119,  -3.58372712,  -8.21865082
    770,  -5.61067963,  -3.09663987,  -8.36454105
    771,  -5.47611189,  -2.75682759,   -8.7311039
    772,  -5.34004498,  -2.65534282,  -9.22011948
    773,  -6.22023344,  -4.02840614,  -8.45354748
    774,  -6.18677235,  -3.52455854,    -8.339674
    775,  -6.08976078,  -3.03747129,  -8.48556423
    776,  -5.95519304,  -2.69765902,  -8.85212708
    777,  -5.81912613,  -2.59617424,  -9.34114265
    778,  -7.10524654,  -3.93201208,  -8.66250706
    779,  -7.10584354,   -3.4222672,  -8.55940247
    780,  -7.05384874,  -2.93965793,   -8.7149229
    781,  -6.96543837,  -2.59983802,  -9.08439064
    782,  -6.86365652,  -2.49152088,  -9.58276558
    783,  -7.51521206,  -3.93018389,   -8.7280283
    784,  -7.55154657,  -3.41782093,  -8.63379002
    785,  -7.54554272,  -2.94248796,  -8.79671574
    786,  -7.50413942,  -2.60593104,  -9.16757393
    787,  -7.43831015,  -2.49405813,  -9.67340469
    788,  -7.92524338,  -3.96346736,  -8.77083397
    789,  -7.99848413,  -3.45200849,  -8.68324757
    790,   -8.0390377,  -2.98676467,  -8.85115337
    791,  -8.04506111,  -2.65686393,   -9.2218523
    792,  -8.01634121,  -2.54500937,   -9.7330122
    793,  -8.33145523,  -4.03130913,  -8.79080009
    794,  -8.44217873,  -3.52442145,  -8.70738411
    795,  -8.52942848,  -3.07204747,  -8.87769604
    796,  -8.58285046,   -2.7522552,  -9.24666691
    797,  -8.59180069,  -2.64420104,  -9.76085854
    798,  -8.73005199,  -4.13289356,   -8.7879591
    799,  -8.87819195,  -3.63428736,  -8.70603657
    800,  -9.01184273,  -3.19748902,  -8.87607956
    801,  -9.11218262,  -2.89125204,  -9.24175739
    802,  -9.15871048,  -2.79088378,  -9.75656319
    803,  -9.11734295,  -4.26715231,  -8.76249886
    804,  -9.30216217,  -3.78047395,  -8.67926979
    805,  -9.48148441,  -3.36184311,   -8.8463192
    806,  -9.62781811,  -3.07254291,  -9.20716095
    807,  -9.71114349,  -2.98373175,  -9.72010326
    808,  -9.48975372,  -4.43276739,   -8.7147522
    809,  -9.70984173,  -3.96149802,  -8.62738228
    810,  -9.93368721,  -3.56347513,   -8.7887125
    811,  -10.1246567,  -3.29437351,  -9.14321327
    812,  -10.2433138,  -3.22085428,  -9.65182114
    813,  -9.84383583,  -4.62817907,  -8.64519405
    814,  -10.0971451,  -4.17553711,  -8.55090618
    815,  -10.3639555,  -3.80038238,  -8.70382977
    816,  -10.5977917,  -3.55456686,  -9.05054188
    817,  -10.7496662,  -3.49982023,   -9.5524168
    818,   -10.176281,  -4.85159016,  -8.55444145
    819,  -10.4601793,  -4.42044783,  -8.45059776
    820,  -10.7680149,  -4.07020998,  -8.59251595
    821,  -11.0425663,  -3.85054636,   -8.9300642
    822,  -11.2249489,  -3.81769061,  -9.42293358
    823,  -10.4839344,  -5.10097313,  -8.44324589
    824,  -10.7952862,  -4.69378662,  -8.32743549
    825,  -11.1418476,  -4.37027597,   -8.4558773
    826,  -11.4546099,   -4.1793623,  -8.78297234
    827,  -11.6642981,  -4.17106342,  -9.26475334
    828,  -10.7638073,   -5.3740778,      -8.3125
    829,  -11.0990753,  -4.99283171,  -8.18260479
    830,    -11.48174,  -4.69759846,  -8.29527092
    831,  -11.8299007,  -4.53772116,   -8.6107254
    832,  -12.0632982,  -4.55612469,  -9.07956314
    833,  -11.0130863,  -5.66843462,  -8.16323662
    834,  -11.3684483,  -5.31461191,  -8.01748657
    835,  -11.7843142,  -5.04892445,   -8.1122942
    836,  -12.1647949,  -4.92202044,  -8.41503239
    837,   -12.418046,  -4.96871376,   -8.8693409
    838,  -11.2291527,  -5.98136711,  -7.99663305
    839,  -11.6006298,  -5.65592957,  -7.83364296
    840,  -12.0465612,  -5.42076206,  -7.90876436
    841,  -12.4560814,  -5.32838583,  -8.19783401
    842,  -12.7251959,  -5.40438414,  -8.63632107
    843,  -10.9936361,  -4.39642286,  -9.62744141
    844,  -10.3627052,  -4.35934925,  -10.0400238
    845,  -10.3738508,  -3.90222144,  -9.81771278
    846,   -10.435461,  -4.33111334,  -9.58098412
    847,    3.6815958,  -4.46310377,  -6.43616962
    848,   3.97813129,  -4.26917124,  -6.76678562
    849,  -9.94153786,  -4.25552416,  -9.45052719
    850,  -10.1263514,  -3.74799776,  -9.33864307
    851,  -10.3772612,  -4.13658571,  -9.08961296
    852,  -10.4535694,  -4.69758558,  -9.38119316
    853,  -10.0735712,  -4.62485123,  -9.05657005
    854,  -10.7979918,  -4.03466415,  -9.39614487
    855,  -10.7038269,  -4.27534866,  -9.00790882
    856,  -13.4302444,  -10.1661224,  -6.10813618
    857,  -13.7261419,  -10.0952749,  -5.88490343
    858,  -13.7547607,  -10.6847229,   -5.8394022
    859, -0.127503976,  -4.33985901,  -7.83738089
    860,  0.200742528,  -4.77090263,  -8.19087124
    861, -0.226819068,  -4.84202957,  -7.87921095
    862, -0.0289304033,   -4.3927598,  -8.39801788
    863,  0.386123717,  -4.48407078,  -8.13251591
    864, -0.766009152,  -4.77453995,  -7.76049995
    865, -0.477156401,   -4.4756465,  -7.32918596
    866, -0.528102875,  -4.20667839,  -7.98473692
    867,  -14.0475569,  -9.86550713,  -5.77069998
    868, -0.394104213,  -3.89273429,  -7.43715429
    869,  0.321142137,  -4.47533131,  -7.65135193
    870, -0.0388854668,  -4.79288769,  -7.42264032
    871,  -17.1750393,  -15.6362524,  -3.23496008
    872,  -17.4699726,  -15.8728743,  -3.12628508
    873,  -17.3132381,  -15.3637609,  -3.12113237
    874,  0.274558932,  -3.95480061,   -8.0661087
    875, -0.305737108,   -3.7219739,  -7.96045065
    876,  0.190641075,  -3.74672771,  -7.85059643
    877,  -11.1019945,  -4.98070669,  -9.83375549
    878,  -14.5173473,  -10.1941833,  -5.69857979
    879,  -14.1165638,  -10.2702255,  -6.16291618
    880,  -14.0138197,    -10.20508,  -5.59558582
    881,   2.88368559,  -4.08073139,  -7.03364658
    882,  -9.84140491,     -4.75737,  -9.72311401
    883,  -9.64799881,  -4.60923767,  -9.24802208
    884,  -10.0569267,  -4.93399954,   -9.2435751
    885,  -10.3419638,  -4.53321886,  -8.86195469
    886,   -10.526062,  -5.10672998,  -9.06044483
    887,   4.31062984,  -4.40577316,  -7.03528738
    888,    3.8999548,  -4.45935154,  -7.27834749
    889,  -9.90767193,  -4.04863548,  -8.97526836
    890,   2.26728988,  -4.69496965,  -6.61142397
    891,     1.940781,   -4.2851634,  -6.86264563
    892,   1.90322983,  -4.73682356,  -6.76559019
    893,   2.73917818,  -4.71935463,   -6.4428339
    894,   2.41832781,  -5.04532528,  -6.90136003
    895,   2.58901191,  -4.56480265,  -7.03321075
    896,  -14.1009359,  -9.32372665,  -6.94210482
    897,  -14.1357603,  -8.99364662,  -6.82889462
    898,  -13.8821335,  -9.13637829,  -7.26651144
    899,  -9.16095066,  -3.67285085,  -10.2621355
    900,  -8.83080578,  -3.30481601,  -10.0564814
    901,  -8.41609383,  -3.44130349,  -10.2164907
    902,  -9.37970734,  -3.42580438,  -9.94188976
    903,  -9.57440662,  -4.10695887,  -9.94664097
    904,   -9.8133173,  -3.89742851,  -10.1628714
    905,  -4.01160431,  -4.18435907,  -8.28556442
    906,  -8.91084576,  -3.81207228,   -9.7147007
    907,   -8.9681139,  -4.14797592,  -10.1906347
    908, -0.842473388,  -4.09486866,  -7.42691946
    909,  -1.08637881,  -3.82952547,  -7.93991661
    910, -0.744354963,  -3.63256931,  -8.10409927
    911,  -14.4531431,  -9.71692562,  -6.38552856
    912,   3.47218323,   -4.4108429,  -7.45598412
    913,  -1.14465785,  -3.74698234,  -8.37501335
    914, -0.370979697,  -3.95539594,  -8.42803955
    915,  -15.7093315,  -13.9967871,  -4.13129425
    916,  -15.5494919,  -14.0826082,   -3.6101048
    917,  -16.0083866,  -13.6819191,  -3.65461612
    918,  -16.1561508,  -14.4116344,  -3.97256398
    919,  -15.3353224,  -13.7405691,  -3.83397603
    920,  -15.8610134,  -13.5927687,   -4.3564415
    921,  -15.2812471,   -13.868331,  -4.22226477
    922,  -14.5694399,  -12.5869226,   -5.1336813
    923,  -15.8348322,   -13.901474,  -4.73841619
    924,  -16.2148991,  -14.0358324,  -4.40483904
    925,  -16.0463009,  -14.5423346,  -4.42555094
    926,  -15.3533993,  -13.9723406,  -4.56680298
    927,   5.45016909,  -4.89599657,  -6.32226562
    928,    4.9734149,  -4.71584082,  -5.97710514
    929,   5.22722101,  -5.19495678,  -5.90731478
    930,   5.60666847,  -4.75146961,  -5.88348389
    931,   4.88638735,  -4.84572124,  -6.59017372
    932,   5.30050611,  -5.12689447,  -6.76230574
    933,   4.97916555,  -5.29263639,  -6.31054592
    934,  -17.1944466,  -17.0778923,  -2.99906206
    935,   5.80384445,  -4.99213839,  -6.45632935
    936,   5.94683075,  -4.46663046,   -6.3926034
    937,   5.23929262,  -4.47097445,  -6.16285706
    938,  -12.5850248,  -8.48449993,  -7.16993046
    939,   5.50761461,   -4.5924592,  -6.67816544
    940,  -14.9914045,  -12.7427235,  -5.45811796
    941,  -14.9336863,  -12.0643501,  -5.16518211
    942,   -14.919137,  -12.3665838,  -5.70798111
    943,  -15.4093952,  -12.4081278,  -5.53553391
    944,   3.24137092,  -4.88994932,  -6.37963772
    945,   3.29583097,  -4.71992111,   -6.9681654
    946,   3.69650626,  -5.07104397,   -6.3353076
    947,   2.81457949,   -5.1595192,  -6.72007799
    948,   3.33079147,  -5.20515394,  -6.57551193
    949,  -17.4578724,  -16.0175953,  -2.48256373
    950,   -16.967144,  -16.3729362,  -2.84968209
    951,  -17.0323086,   -15.775176,  -2.54846811
    952,  -16.9480476,  -16.4241791,  -2.41070127
    953,  -17.6917667,  -16.1925735,  -2.76812553
    954,   -17.400753,  -16.7099113,  -2.69829702
    955,  -17.0067863,   -16.848156,  -2.33687544
    956,  -16.4985771,  -16.3100128,  -3.19422007
    957,  -16.4038925,  -16.1706963,  -2.67404914
    958,  -16.6304073,  -16.7467384,  -2.88820052
    959,  -16.9464073,  -16.4251213,  -3.32615972
    960,  -15.7230339,  -12.9063997,   -5.2256093
    961,  -13.8534889,  -9.90731335,  -6.98174524
    962,  -13.9298801,  -9.74117374,  -6.27986717
    963,   -13.961236,  -10.1223841,  -6.54936218
    964,  -13.4166689,  -10.0835714,  -6.89308214
    965,  -13.3165503,  -9.80334187,  -6.45477152
    966,  -13.5023403,   -9.5634594,  -7.25921583
    967,  -14.5167475,  -10.4773197,  -6.47315741
    968,  -14.2144585,  -10.6440115,  -6.70946598
    969,  -13.5801077,  -10.5321875,    -6.422575
    970,  -14.3498144,  -10.1181965,  -6.81546593
    971,  -9.48556995,  -4.36623287,   -10.185463
    972,  -9.26789379,  -4.05315161,  -9.49847603
    973,  -9.86668873,  -3.54811668,  -9.65134716
    974,  -9.05800819,  -3.89313841,  -9.06749439
    975,  -9.31445312,  -3.67683864,  -9.23410034
    976,  -9.51132488,  -4.05918884,  -9.04617786
    977,  -6.64635372,  -4.09736681,  -9.52456379
    978,  -13.9022284,  -8.93171406,  -6.49196005
    979,  -13.6736021,  -9.31193829,  -6.72431564
    980,  -13.7379122,  -8.91413307,  -7.29975986
    981,  -9.03866386,  -4.39818287,  -9.87367821
    982,   -8.5835247,  -4.27994728,  -9.56768036
    983,  -9.21682644,  -3.29206347,  -9.66113186
    984,  -8.46036148,  -3.13779187,  -9.40108013
    985,  -7.96623468,  -3.02306032,  -9.82493401
    986,  -8.08742046,   -3.4006207,  -9.14182663
    987,  -3.93327498,  -3.50234818,  -8.35021114
    988,  -4.20644093,  -3.88092375,  -8.48920631
    989,  -4.18899059,  -3.75519347,  -9.08249569
    990,  -3.54446101,  -3.75751352,  -8.50395489
    991,  -4.31546259,  -3.27221704,  -8.59820175
    992,  -4.37896442,  -3.67622757,  -8.28783798
    993,  -4.84762859,  -3.65933466,  -8.90832043
    994,  -4.49004221,  -4.27320337,  -8.64852715
    995,  -4.82899809,  -3.94446683,  -8.44111538
    996,    3.9820714,  -4.82461452,  -7.07016516
    997,   3.60776687,  -5.10124636,  -7.40227032
    998,   -3.7608912,  -3.99525428,   -8.8241291
    999,  -13.5816326,  -9.57005692,  -6.02017975
   1000,  -3.51367927,  -4.19947958,  -8.15853691
   1001,  -2.85241246,  -4.00207472,  -8.50577164
   1002,  -3.06152606,   -4.2771244,  -8.05275345
   1003,  -3.51229167,  -4.41796541,  -8.47153378
   1004,  -4.06301212,  -3.25183582,  -8.97497749
   1005,  -3.51863122,  -3.30633092,  -8.53712463
   1006,  -3.01204348,  -3.69680285,  -8.02960014
   1007,  -3.06013203,  -3.43524718,  -8.69152832
   1008,  -3.36420369,  -3.44741082,  -8.21263599
   1009,  -2.73918629,   -3.4519906,  -8.27781105
   1010,  -2.35320497,  -3.45332718,     -8.44312
   1011,  -2.33752751,  -4.04279232,  -8.45833778
   1012,  -2.27335429,  -4.54706335,  -8.33718967
   1013,  -2.46863008,   -4.4869318,  -8.02705193
   1014,  -2.86505985,  -4.56819868,  -8.43376827
   1015,  -3.07070136,  -4.47869205,  -8.86998463
   1016,  -2.35616779,  -4.51503372,  -8.77340221
   1017,  -2.62329316,  -4.08174706,  -9.08081722
   1018,  -3.97423458,  -4.40992022,  -8.58570671
   1019,  -3.28763127,  -4.17804813,  -9.18456173
   1020,  -6.87684917,   -3.5506978,   -9.5331583
   1021,  -6.69245958,  -3.49117112,  -10.0519876
   1022,  -6.22223091,   -3.5589087,  -9.56940556
   1023,  -6.35291338,  -3.87045956,   -9.9208231
   1024,  -7.40778065,  -4.11029768,  -9.65656662
   1025,  -7.00127172,   -3.8007009,  -10.0327663
   1026,  -6.41450071,  -3.13191056,  -9.70656013
   1027,  -14.1385984,  -9.35978794,  -6.22089148
   1028,   -12.443656,  -6.80016899,  -8.88128757
   1029,   -11.996994,  -7.19814587,  -8.45569229
   1030,  -12.4335489,  -6.89054775,  -8.07715225
   1031,  -12.4214544,  -7.33973169,   -8.6172142
   1032,  -11.7055359,  -6.71627998,  -8.72677231
   1033,  -11.9109516,  -6.64300442,   -9.0376358
   1034,  -12.6603022,  -7.23025751,  -8.86418629
   1035,  -12.7877436,  -6.92272663,  -8.62038422
   1036,  -12.5434084,  -6.39290619,  -8.94879913
   1037,  -12.7541513,  -6.47290945,  -8.50204563
   1038,  -12.1282825,  -6.48804855,  -8.60012054
   1039,  -9.74656296,  -3.54532242,   -9.1508379
   1040,  -11.6399164,  -5.70701265,     -8.93048
   1041,  -10.8557615,  -5.40844631,  -8.92141533
   1042,  -11.3358126,  -5.16540384,  -9.02871037
   1043,  -11.1452971,  -5.36503315,  -8.50360584
   1044,   -11.571208,  -4.99463367,  -8.56915092
   1045,  -11.1521587,  -4.80087566,  -8.71498871
   1046,  -11.6119642,  -5.78405905,  -8.45753098
   1047,  -11.1682673,  -5.95167542,  -8.81377125
   1048,  -16.1864395,  -15.7066441,  -2.88915849
   1049,  -15.9752855,  -15.2380381,  -3.26220608
   1050,  -11.8569565,  -5.35760164,  -8.40689468
   1051,  -13.2418556,  -9.14110756,  -7.47099304
   1052,  -13.2334213,  -8.73096371,  -7.11323118
   1053,  -13.3638496,  -8.74517441,  -6.49744797
   1054,  -13.4134579,  -9.15484047,  -6.24838066
   1055,  -16.0869923,  -14.5785313,  -3.51836419
   1056,  -16.5630016,  -15.2661867,  -3.32867718
   1057,  -16.3880348,  -14.8017864,  -2.93565273
   1058,  -16.6531105,  -14.7001543,   -3.5879097
   1059,  -15.6269674,  -14.6578741,    -3.602072
   1060,  -16.0263538,  -14.2155457,  -3.28678179
   1061,  -16.5504494,  -14.3609781,  -3.40048528
   1062,  -16.4636135,   -14.010087,  -3.53741503
   1063,  -15.9638357,  -14.8767166,  -3.11090374
   1064,  -9.14698982,  -4.48015594,  -9.43330193
   1065,  -8.77038574,  -3.53920555,  -9.20465469
   1066,  -8.36587238,  -3.94018006,  -9.20234489
   1067,   -6.3949914,  -4.03870916,   -8.8545599
   1068,  -6.30561733,  -4.10351896,  -9.34798527
   1069,  -6.72252178,  -4.04993057,  -9.20761776
   1070,  -6.60898733,  -3.55874658,  -8.88663292
   1071,  -6.20855379,  -3.74528933,  -8.78450775
   1072,  -5.95431614,  -4.02187967,   -9.0117588
   1073,  -7.35296392,  -3.13154125,   -10.056881
   1074,  -7.39930725,  -3.51509452,  -9.62197971
   1075,  -7.39587307,  -3.96467304,  -9.27272701
   1076,  -13.2214489,    -7.692554,  -7.26086903
   1077,  -11.7180567,  -6.58832169,  -8.28787613
   1078,  -12.1038132,  -7.56494904,  -8.08171749
   1079,  -12.2384758,  -7.95331097,  -7.77241516
   1080,  -12.3575163,  -7.60482025,  -7.30310011
   1081,  -11.8230267,  -6.27113771,  -8.82139301
   1082,  -12.9826593,  -7.32930231,  -8.41027641
   1083,   4.68414497,   -4.7290802,   -7.2285533
   1084,  -11.1173935,  -4.27198792,  -9.15001011
   1085,   -11.800168,  -4.95811033,  -9.08413029
   1086,  -12.0358591,  -5.12626123,  -8.73872757
   1087,  -10.9244566,  -5.15482807,  -9.47376823
   1088,  -10.8781986,  -5.57146692,  -9.37590122
   1089,  -12.1236954,  -5.55480003,  -9.06854439
   1090,   -11.604001,  -4.87578392,   -9.4631815
   1091,   5.44616556,  -5.56440496,  -6.45371485
   1092,  -11.6800346,  -5.49957275,  -9.52487087
   1093,  -11.8044329,  -6.01131344,   -8.0741272
   1094,  -12.3387251,  -5.60439062,  -8.67298031
   1095,  -10.3152122,  -4.73993921,   -10.017664
   1096,    -10.41574,  -5.25028563,   -9.5085268
   1097,  -16.3617325,  -13.5135336,  -4.35836697
   1098,  -15.8895473,  -13.1392822,  -4.72975969
   1099,  -15.9044476,   -12.969511,   -4.0880146
   1100,  -15.4194984,  -13.2814455,  -4.14088964
   1101,  -12.4922132,  -5.90289307,   -8.4840641
   1102,  -15.2423944,  -13.6453476,  -4.80680656
   1103,  -15.9111309,  -13.2485838,  -3.89633203
   1104,  -12.2084637,  -6.42349339,  -7.93638086
   1105,  -10.7345457,  -4.62593985,  -8.69952488
   1106,  -16.9470692,   -16.595665,  -1.99277973
   1107,  -17.2895908,  -16.0301552,  -2.19660401
   1108,  -17.3775272,  -16.5822716,  -2.14970255
   1109,  -14.3660135,  -10.6977329,  -5.86690569
   1110,  -14.0864115,  -10.9759912,  -6.37686729
   1111,  -1.96604908,  -3.57723403,  -7.97324467
   1112,  -1.92991114,  -3.99319196,  -7.64948559
   1113,   -2.2400775,  -4.16262531,  -7.77790976
   1114,  -1.72726452,  -4.03226089,  -8.13553429
   1115,  -2.40243268,  -3.65517807,  -7.84154844
   1116,  -1.57596219,  -3.86346102,  -7.65760565
   1117,  -1.81867731,  -3.58958244,   -8.5544672
   1118,  -1.48976564,  -3.54503918,  -8.18420887
   1119,   5.61874962,  -5.30667448,  -5.85633659
   1120,   6.14077282,  -5.39736462,  -6.41021395
   1121,     6.200634,  -5.68991566,  -6.08724403
   1122,    6.1111784,  -5.22987938,  -5.92871141
   1123,   2.45427179,  -4.32276583,  -6.67637825
   1124,   3.07882142,  -4.41587448,  -6.45403814
   1125,  -14.8239498,  -12.3702936,   -4.4738431
   1126,  -14.9052114,  -12.7799482,  -4.72369671
   1127,  -14.9663801,  -12.9427128,  -4.24634743
   1128,  -15.5912209,  -12.4450579,  -4.48758554
   1129,  -15.4224882,   -12.743556,  -4.10803604
   1130,  -15.2205715,  -12.4817152,  -4.95899677
   1131,    -15.02075,  -11.8695421,  -4.60689354
   1132,  -14.6090565,  -12.4433422,  -4.75339651
   1133,  -1.08836794,  -4.47979975,  -7.53098106
   1134,  -1.49634719,  -4.72926807,  -7.99659491
   1135,  -1.56654501,  -4.42050838,  -7.63049698
   1136,  -1.23469579,  -4.29392529,  -7.90368319
   1137,   4.38437271,   -5.1244154,  -7.24398708
   1138,   4.98438835,  -5.21404934,  -7.02837324
   1139,   5.00643396,   -4.4943347,   -6.9428196
   1140,   4.16821003,  -5.06104088,  -6.71579123
   1141,  -2.51239681,  -3.90069079,  -8.05780411
   1142,  -1.84268975,  -4.36561584,  -8.79512882
   1143,   6.25012922,  -5.28522062,  -6.79623842
   1144,   5.58867741,  -5.20620108,  -6.94876289
   1145,    6.0206151,  -4.83785105,  -6.90088749
   1146,   6.27588558,  -4.81124163,  -6.42488718
   1147,  -5.15149355,  -3.07672167,  -9.13942719
   1148,  -5.00184965,   -3.2362287,  -9.45728588
   1149,  -5.40849829,  -3.39515638,  -8.61995602
   1150,  -5.55422831,  -3.51297164,  -9.09092617
   1151,  -4.67887354,  -3.15433478,  -9.00946045
   1152,  -5.67830658,  -3.00433421,  -9.22848129
   1153,  -16.7151928,  -15.3701496,  -2.79277778
   1154,  -17.3285332,  -16.4989777,  -3.17657924
   1155,  -1.21395183,  -4.17346525,  -8.41001797
   1156, -0.818798304,  -4.28599405,  -8.61528587
   1157,  -5.65505791,  -3.91466212,  -9.75156116
   1158,  -5.51909256,  -4.22176361,  -9.32631493
   1159,     5.414114,  -4.65527058,   -6.9688673
   1160,  -15.4912891,  -13.3860416,   -5.1139431
   1161,  -16.5715027,  -15.5631838,  -2.52722788
   1162,  -5.15378523,  -3.64272475,  -9.70451069
   1163,  -5.15112782,  -4.20715237,   -9.6005888
   1164,   -6.0467205,  -3.25813746,  -9.28603458
   1165,  -6.07860327,  -2.96634722,  -9.43715763
   1166,  -5.45693731,  -3.21236897,  -9.51497269
   1167,  -5.88452101,  -3.31992674,  -8.74660587
   1168,  -5.16324377,  -3.82250142,  -8.55455399
   1169,  -4.96127796,   -4.2467947,  -8.77686882
   1170,  -4.48631859,  -3.51638341,   -9.4945879
   1171,  -4.86892319,  -3.93868732,  -9.28715515
   1172,   -1.9389751,  -4.55241632,  -7.90242481
   1173,  -1.55328643,  -4.72562075,  -8.24668217
   1174,  -14.2853231,  -9.76039982,  -6.97508097
   1175, -0.531530499,  -4.68753529,  -8.31975269
   1176,  0.573688149,  -4.95317125,  -7.87902021
   1177,  0.343766987,  -4.87702179,  -7.42697334
   1178,  -11.4521961,  -6.27180624,   -8.4094677
   1179,  -13.1035576,  -8.33368778,  -7.38810778
   1180,   -12.792614,  -8.43961334,  -6.81692362
   1181,  -12.7071962,  -8.02533913,  -7.04485893
   1182,  -13.0835466,  -8.18829536,  -6.77867365
   1183,  -13.4143772,   -8.7217598,  -7.77662277
   1184,  -13.6880474,   -8.3377676,  -7.51624107
   1185,    -13.26367,  -8.35815239,  -7.98660517
   1186,  -12.7242308,    -8.289711,  -7.62718391
   1187,  -13.0445366,  -7.94008732,  -7.76342916
   1188,  -13.5313416,  -7.87581205,  -7.30660725
   1189,   4.45261669,  -4.96860981,  -6.10968113
   1190,  -12.6608973,   -7.3869195,   -7.9808445
   1191,  -13.1445932,  -7.12335205,  -7.82306242
   1192,  -12.6976433,  -6.80116224,  -7.65589046
   1193,  -12.4448109,  -7.97201157,  -7.47161674
   1194,  -12.9218149,  -7.34326124,  -7.26809025
   1195,  -12.3952951,  -7.21887684,  -7.38880014
   1196,  -11.9620848,  -7.17961025,  -7.99286175
   1197,  -13.3260498,  -7.50374508,  -7.63483286
   1198,  -12.4598627,  -7.63967228,   -8.4379034
   1199,  -16.3897285,  -15.0151701,  -3.87360835
   1200,  -16.8703365,  -15.5387735,   -3.7221694
   1201,  -16.8117256,  -15.0529327,  -3.80698156
   1202,  -11.2310686,  -5.86050749,  -9.33784676
   1203,  -16.6873169,  -14.6870461,  -4.07204151
   1204,   -16.024725,  -15.3108273,  -3.73582244
   1205,   -7.7299962,  -3.03025937,  -9.55547428
   1206,  -7.83664083,  -3.47088861,  -10.1802826
   1207,  -7.93444729,  -3.69551086,  -9.51974964
   1208,   4.13880301,   -4.6152401,  -6.19493294
   1209,   4.44502926,  -4.31139135,  -6.47497272
   1210,  -13.0128288,  -8.68921185,  -6.53872919
   1211,   4.36236858,  -5.30158234,  -6.27738667
   1212,  -17.8211861,  -16.6134853,   -2.8959024
   1213,  -14.5301876,  -11.1895304,  -6.46131802
   1214,    -14.51752,  -11.4470787,  -5.90730858
   1215,  -17.0424595,  -16.0018005,  -2.91021132
   1216,    -17.78578,  -16.3432751,  -2.33405566
   1217,   1.95537937,  -4.47076416,  -7.24222088
   1218,   2.29117799,  -5.20154476,  -7.27734661
   1219,   1.41197562,  -3.99879003,  -7.12081861
   1220,   1.83469975,  -4.03096914,  -7.55823803
   1221,   2.23049927,  -4.00507259,  -7.06351995
   1222,   2.58310843,  -5.00522184,  -7.63149929
   1223,   2.30993605,  -4.13048124,  -7.52974939
   1224,  -13.8359079,  -8.51268196,  -6.94662237
   1225,  -13.6160994,  -8.13583088,  -7.01858997
   1226,  -16.3634834,   -13.602972,  -3.87750387
   1227,  -16.6592903,  -14.1310043,  -3.81934881
   1228,  -3.69146037,  -4.20267773,  -9.21670628
   1229,  -16.1595325,  -12.8592052,  -4.43065929
   1230,  -12.8683167,  -9.11382675,  -6.82619905
   1231,  -12.7446165,  -8.92743015,  -7.37165546
   1232,  -13.0923691,  -9.48662949,   -7.0227561
   1233,  -13.0390768,   -8.6088171,  -7.77135706
   1234,  -16.1648846,  -15.7215843,   -3.4253602
   1235,  -16.6758652,  -16.0246429,  -3.37882471
   1236,  -13.1389236,  -7.73329687,  -8.19779873
   1237,  -12.7659845,  -8.12468243,  -8.14191055
   1238,  -11.9908819,  -6.94734049,  -7.74173069
   1239,  -14.4942102,  -10.5166578,  -5.42638159
   1240,  -13.9600935,  -10.8719749,  -5.44758368
   1241,  -16.2843857,  -15.1731901,  -2.78299451
   1242,  -13.2520542,  -7.13209486,  -7.48382521
   1243,  -4.88200378,  -3.42639637,  -8.51117897
   1244,  -5.61559772,  -3.77052379,  -8.67453194
   1245,  -5.38296175,  -4.15582085,  -8.87172508
   1246,  -7.18375015,   -2.9286561,  -9.57582474
   1247,   3.80343723,  -5.25234509,  -6.95679235
   1248,   -7.4817977,  -3.19493794,  -9.12025547
   1249,  -8.40690708,  -3.62332082,   -9.6463871
   1250,  -8.06364536,  -3.93698788,  -10.1942368
   1251,  -7.85801792,  -4.05579948,  -9.84306526
   1252,  -7.57119894,  -3.85150409,  -10.1414537
   1253,  -6.43118668,  -3.02923775,  -9.17249203
   1254,   -6.8624115,  -3.11603904,  -9.75109673
   1255,  -5.82175589,    -3.337641,  -9.80779552
   1256,   3.25771642,  -5.34253883,  -7.03115463
   1257,   2.75366831,  -5.20341301,  -7.20454693
   1258,  -17.0612564,   -15.186451,  -3.44328117
   1259,  -16.7482281,  -14.6079683,  -3.17491794
   1260,  -12.1942272,   -6.2551837,  -9.16941166
   1261,   1.79209471,  -5.06675386,  -7.03554678
   1262,  -9.88354015,  -4.49064922,  -10.1152334
   1263,  -17.1421242,  -15.9788218,  -3.49361038
   1264,  -12.9160547,  -6.61870575,  -8.18077946
   1265,  -12.3921938,  -6.03868341,  -9.02323341
   1266,  -11.4596605,  -6.16642523,  -9.17692852
   1267,  -2.68858671,  -3.43996358,  -8.94106197
   1268,  -6.85510778,  -3.21955514,  -8.97594643
   1269,  -7.94634533,  -3.64900708,  -9.07003403
   1270,  -7.22358656,  -3.58262849,  -9.14663696
   1271,  -3.92402005,  -3.72406483,  -9.39003658
   1272,  -4.44785738,  -3.97755933,  -9.53148556
   1273,  -4.41774702,  -4.24971294,  -9.11297989
   1274,  -4.91357803,  -4.34874487,  -9.16174316
   1275,  -8.00813198,  -4.13904905,  -9.42102623
   1276,    -8.417799,  -4.18614769,  -9.83447361
   1277,   -15.226326,  -11.8086233,  -5.38900566
   1278,  -14.6652269,  -11.9391193,  -5.91516924
   1279,  -14.5128841,  -12.0727968,  -5.55797434
   1280,  -15.0463953,  -12.0843906,  -5.75381994
   1281,  -11.9330626,  -5.83290195,  -9.38165474
   1282,  -11.8438978,  -6.11425638,   -9.4085474
   1283,   2.74356055,  -4.46305323,  -7.70588875
   1284,   3.07717609,  -4.68308258,   -7.7557354
   1285,  -8.48551178,  -3.94973087,  -10.2326899
   1286,  -3.24213004,  -3.62098145,  -9.14968395
   1287,  -14.8410845,  -10.7415285,  -6.17958164
   1288,   1.10173929,  -3.91666412,  -7.70227146
   1289,  0.896804392,  -4.07026434,  -7.14465761
   1290,   1.25528836,  -4.65983105,  -6.95810366
   1291,  0.646435201,  -4.11221027,  -8.21335602
   1292,  0.639331698,  -3.82823324,  -7.73377752
   1293,  0.804691434,  -4.59555912,   -7.7652607
   1294,   1.14686167,  -4.49137449,  -8.13146877
   1295,   6.09263325,  -4.79459667,  -5.72839737
   1296,  0.755743563,  -4.75808954,  -7.09440517
   1297,   1.23349416,  -4.96104813,  -7.31486273
   1298,  -14.4067011,  -10.9938068,  -5.14172649
   1299,  0.217193216,  -4.49421024,  -7.11632633
   1300,  -15.0418234,  -13.4894466,  -4.30609989
   1301,  -15.4002018,  -12.9801779,  -4.69899702
   1302,   3.06835723,  -4.99039745,  -7.50155497
   1303,   3.10828876,  -4.28109312,  -7.41404104
   1304,  -15.8309793,  -14.8865747,  -3.92959285
   1305,  -16.9562321,  -14.6992922,  -3.65357232
   1306,  -15.9185734,  -13.4108534,  -5.02635241
   1307,   1.49645996,  -4.76544142,  -7.97951746
   1308,  -3.58162069,  -3.44295216,  -9.03252125
   1309,   1.92807615,  -4.60081339,  -7.69279242
   1310,    3.3709712,  -4.14128637,  -6.92143726
   1311,   1.04491138,  -4.98105335,  -7.86255169
   1312,  0.839728236,  -5.02476311,  -7.60713196
   1313,  0.340361625,   -4.1001358,  -7.17351055
   1314,  -2.11954737,  -4.05688763,  -8.94949341
   1315,  -5.46635771,  -3.41756797,  -9.83629894
   1316,  -15.3275175,  -12.8696356,  -5.21236372
   1317,  -15.8522139,  -12.6580877,  -4.90877247
   1318,  -14.8983946,   -11.181983,  -6.04344559
   1319,  -15.1323195,  -11.6940985,  -5.89191103
   1320,  -14.4492455,  -11.4887323,  -5.31008768
   1321,  -14.1293612,  -11.6841307,  -5.73286915
   1322,  -14.3303804,  -11.7332907,  -6.02999783
   1323,  -13.9264717,  -11.2877827,  -5.96104622
   1324,   -14.905818,   -10.983695,  -5.20260906
   1325,  -14.7459784,  -11.3489046,  -4.96393919
   1326,  -14.2577457,  -11.8431473,  -5.19353867
   1327,  -14.9631948,  -10.9861231,  -5.63374472
   1328,  -15.1899538,  -11.4007215,  -5.12125301
   1329,  -1.03181052,  -4.72377491,  -8.26574135
   1330,   1.45058644,  -4.49132681,  -7.52604485
   1331,   1.72982144,  -5.06943989,  -7.58399487
   1332,  -13.1469212,  -9.37108612,  -6.48141146
   1333,  -16.9759941,  -15.0319033,  -2.85277224
   1334,    4.6479435,  -5.49241209,  -6.69072866
   1335,   4.92234087,  -4.36573362,  -6.35297728
   1336,   -15.334342,  -11.6766243,  -4.91240406
   1337,  -4.09974194,  -3.38950729,  -9.40911388
   1338,  -15.4303951,  -14.3221397,  -4.08892155
   1339,   1.59387505,  -4.19760799,   -7.9463315
   1340,  -13.3804913,  -7.80715179,  -7.99312449
   1341,  -1.39781177,   -3.9348619,  -8.72356319
   1342,  -1.35954142,  -4.45811987,  -8.71008778
   1343,  -15.5371227,  -12.0574503,  -4.71304798
   1344,  -15.1271267,  -13.2857504,  -4.96049547
   1345,   -15.672617,  -12.2970943,  -5.22640181
*Element, type=C3D4
   1,  843,  844,  845,  846
   2,  847,  671,  848,  676
   3,  846,  849,  845,  850
   4,  846,  851,  849,  850
   5,  849,  852,  851,  846
   6,  853,  849,  852,  851
   7,  846,  854,  855,  851
   8,  846,  852,  851,  855
   9,  856,  498,  857,  858
  10,  859,  860,  861,  862
  11,  859,  863,  860,  862
  12,  859,  864,  865,  866
  13,  867,  499,  494,  495
  14,  868,  869,  870,  859
  15,  871,  872,  873,   21
  16,  859,  869,  863,  874
  17,  859,  875,  862,  866
  18,  859,  876,  875,  868
  19,  877,  586,  843,  587
  20,  876,  869,  868,  859
  21,  867,  501,  878,  500
  22,  867,  879,  880,  878
  23,  881,   95,  687,  682
  24,  867,  880,  857,  499
  25,  853,  849,  882,  852
  26,  853,  883,  168,  884
  27,  885,  853,  818,  886
  28,  853,  849,  883,  882
  29,  337,  887,   97,  888
  30,  885,  889,  813,  853
  31,   22,   21,  873,  572
  32,  853,  849,  851,  889
  33,  890,  689,  891,  892
  34,  890,  892,  688,  689
  35,  890,  893,  894,  895
  36,  896,  897,  898,   38
  37,  890,  688,  892,  894
  38,  899,  591,  900,  901
  39,  899,  902,  900,  156
  40,  155,  902,  590,  156
  41,  902,  590,  156,  899
  42,  902,  903,  904,  899
  43,  905,  127,  748,  128
  44,  903,  899,  906,  907
  45,  721,  908,  909,  910
  46,  911,  497,  492,   37
  47,  362,  912,  888,  336
  48,  910,  727,  909,  726
  49,  910,   86,  913,  727
  50,  910,  913,  914,  866
  51,  910,  866,  908,  909
  52,  910,  914,   87,  875
  53,  915,  916,  917,  918
  54,  919,  920,  921,  915
  55,  922,   64,  300,  301
  56,  915,  920,  923,  924
  57,  915,  925,  924,  923
  58,  915,  926,  920,  921
  59,  927,  928,  929,  930
  60,  927,  931,  932,  933
  61,  934,   17,  180,   16
  62,  927,  930,  935,  936
  63,  927,  928,  937,  931
  64,  938,  311,   54,  310
  65,  927,  936,  935,  939
  66,  940,  941,  942,  943
  67,  944,  945,  847,  946
  68,  944,  946,  674,  673
  69,  944,  678,  893,  947
  70,  944,  948,  946,  673
  71,  949,  950,  951,  952
  72,  953,  954,  950,  949
  73,  950,  955,  952,  954
  74,  950,  956,  957,  958
  75,  950,  958,  952,  955
  76,  950,  934,  959,  958
  77,  196,  943,  960,  222
  78,  961,  962,  911,  963
  79,  961,  964,  965,  963
  80,  965,  966,  964,  961
  81,  963,  967,  879,  911
  82,  963,  879,  968,  969
  83,  255,  963,  970,  968
  84,  963,  255,  969,  968
  85,  963,  968,  879,  967
  86,  903,  603,  971,  602
  87,  903,  849,  883,  972
  88,  903,  972,  902,  973
  89,  903,  972,  973,  849
  90,  972,  974,  975,  976
  91,  975,  849,  973,  972
  92,  977,  647,  634,  134
  93,  978,  979,  897,  980
  94,  973,  845,  904,  903
  95,  882,  849,  883,  903
  96,  899,  903,  904,  603
  97,  972,  981,  906,  982
  98,  972,  983,  906,  902
  99,  972,  983,  973,  975
 100,  902,  903,  899,  906
 101,  791,  984,  985,  986
 102,  987,  988,  989,  990
 103,  991,  988,  989,  987
 104,  988,  991,  992,  987
 105,  988,  993,  991,  989
 106,  988,  993,  994,  995
 107,  988,  994,  905,  753
 108,  996,  997,  362,  389
 109,  990,  988,  989,  998
 110,  989,  994,  998,  988
 111,  999,  962,  856,  857
 112, 1000, 1001, 1002, 1003
 113,  987, 1004,  757, 1005
 114, 1006,  990, 1007, 1001
 115, 1008, 1006,  990, 1007
 116, 1009, 1007, 1010, 1011
 117, 1001, 1012, 1013, 1014
 118, 1015, 1014, 1016, 1001
 119, 1011, 1001, 1012, 1013
 120, 1001, 1011, 1016, 1017
 121,  905, 1018,  127,  128
 122, 1016, 1001, 1012, 1011
 123, 1011, 1007, 1010, 1017
 124, 1001, 1019, 1007, 1017
 125, 1020, 1021, 1022, 1023
 126, 1020,  977, 1024, 1025
 127, 1020, 1022, 1021, 1026
 128,  492,  897, 1027,  896
 129, 1028, 1029, 1030, 1031
 130,  289, 1032, 1033, 1028
 131, 1028, 1034, 1035,  237
 132,   47, 1036,   46, 1028
 133, 1028, 1037, 1030, 1038
 134,  850,  889, 1039,  810
 135, 1028, 1037, 1038, 1036
 136, 1040, 1041, 1042, 1043
 137, 1043, 1044,  829, 1045
 138, 1043, 1046, 1040, 1047
 139, 1043, 1044,  834,  829
 140, 1048,  293, 1049,   72
 141, 1043, 1046,  834, 1050
 142,  979, 1051,  980, 1052
 143, 1027,  897,  979,  896
 144,  979, 1052,  980, 1053
 145,  978, 1027,  897,  979
 146,  979, 1054, 1053,  978
 147, 1055, 1056, 1057, 1058
 148, 1055,  548, 1059,  916
 149,  918, 1060, 1061, 1055
 150, 1062,  918, 1060, 1061
 151,  553,  548, 1059, 1055
 152, 1055, 1059,  553, 1063
 153, 1055, 1061, 1057, 1060
 154,  974,  804,  976,  803
 155,  972,  974,  976, 1064
 156,  974,  906, 1065,  982
 157,  972,  906,  974,  982
 158,  982,  798, 1066, 1065
 159,  798,  974, 1065,  982
 160,  974,  975,  804,  799
 161,  974,  975,  799, 1065
 162, 1067, 1068,    8, 1069
 163, 1067, 1068, 1070, 1071
 164, 1067,  773, 1071,  178
 165, 1067, 1071,  773, 1072
 166, 1067, 1072, 1068, 1071
 167, 1073, 1025, 1021, 1074
 168, 1025, 1021, 1023,  621
 169, 1025,  634, 1023,  977
 170, 1074, 1020, 1075, 1024
 171, 1020, 1069, 1075,  977
 172,  647, 1024,  977,  634
 173, 1024,  977,  634, 1025
 174, 1014, 1015,  426, 1003
 175, 1014,  401, 1016,  427
 176, 1014, 1015,  400,  426
 177, 1076,  470,  471,  475
 178, 1077,   50,  315,    4
 179,   52, 1078, 1079, 1080
 180, 1014, 1016, 1001, 1012
 181, 1001, 1002, 1014, 1013
 182, 1040, 1046, 1081, 1047
 183, 1034,  210, 1082, 1035
 184, 1014,  125, 1013, 1002
 185,  365,  364, 1083,  338
 186,  851,  850,  846,  854
 187,  854,  855,  816,  821
 188,  854,  821, 1084,  855
 189,  854,  153,  845,  843
 190,  854,  843,  822,  152
 191,  854,  153,  843,  152
 192,  854,  843, 1084,  822
 193, 1043, 1044, 1050,  834
 194, 1044, 1085,  831, 1045
 195, 1044, 1042, 1086, 1085
 196, 1043, 1045,  828, 1041
 197, 1042, 1087, 1041, 1088
 198, 1043, 1044, 1042, 1050
 199, 1086, 1089, 1085, 1042
 200, 1042, 1040, 1050, 1086
 201, 1042, 1087, 1090, 1045
 202,  935,  932, 1091,  927
 203,  886, 1041, 1045, 1087
 204, 1044,  836, 1086, 1050
 205, 1044, 1050,  835,  836
 206, 1092, 1087, 1090, 1042
 207, 1093,  841, 1050, 1094
 208, 1087,  852, 1095,  843
 209, 1096, 1095,  613, 1087
 210, 1087,  611,  877,  612
 211, 1092,  611,  877, 1087
 212,  920, 1097, 1098,  194
 213,  920, 1099, 1100, 1098
 214, 1101,    3,  147,  148
 215,  920, 1100, 1102, 1098
 216,  920, 1099, 1097, 1103
 217,  983,  900,  156,  802
 218,  983, 1065,  906,  900
 219,  983,  800,  975, 1065
 220,  983,  984, 1065,  900
 221,  983,  805,  975,  800
 222,  972,  906,  983,  975
 223,  900,  984,  797,  983
 224,  805,  983, 1039,  806
 225,  850,  975, 1039,  976
 226, 1039,  850,  973,  975
 227, 1039,  850,  811,  973
 228,  975,  805,  983, 1039
 229,  877,  600,  612,  599
 230,  889, 1039,  810,  809
 231,  849,  883,  976,  889
 232,  972,  974, 1064,  982
 233,  982,  974,  803,  798
 234,  976, 1064,  803,  883
 235,  975,  804, 1039,  976
 236,  974,  975,  976,  804
 237, 1104,  457,  455, 1101
 238,  820,  855,  815,  819
 239,  885,  819,  851,  855
 240, 1092,  150, 1090,  585
 241,  855,  825, 1084, 1045
 242,  825, 1105,  855,  820
 243, 1105,  886,  885,  823
 244,   44, 1037, 1036,    3
 245, 1105, 1045,  886,  823
 246,  823, 1105,  819,  885
 247,  952,  578,  574, 1106
 248, 1106,  952, 1107,  574
 249, 1106,  952,   75,  955
 250, 1106, 1108,  952,  955
 251, 1106, 1108,  181,  580
 252, 1106,   10,  580,  181
 253, 1106,  181,    9,   10
 254, 1106,  179,  578,    9
 255,  879, 1109, 1110,  858
 256,  879,  858,  880, 1109
 257,  879,  880,  878, 1109
 258,  879,  857,  969,  963
 259,  879,  969, 1110,  968
 260,  878,  911,  867,  879
 261,   59,  305,  858,  306
 262, 1111, 1112, 1113, 1114
 263, 1115, 1112, 1113, 1111
 264, 1111,  730, 1112, 1116
 265, 1111, 1115, 1112,  735
 266, 1111, 1112,  730,  735
 267, 1111, 1116, 1112, 1114
 268,  732, 1111, 1117, 1118
 269, 1111,  731, 1118,  732
 270,  108,  107, 1091, 1119
 271, 1120, 1121,  445,  451
 272, 1121,  106,  451,  450
 273, 1121,  106,  450,    7
 274, 1121,    7,  450,  107
 275, 1121,  648, 1119,  107
 276, 1121,  450, 1122,  648
 277,  893, 1123,  685, 1124
 278, 1069,    8,  178,  161
 279, 1124,  893,  945,  944
 280,  944,  893,  679, 1124
 281,  893,  947,  678,  683
 282,  893,  945,  947,  895
 283,  893,  945,  944,  947
 284,  685, 1124,  680,  893
 285,  893, 1124,  680,  679
 286, 1125, 1126,  528, 1127
 287, 1126, 1128, 1129, 1125
 288, 1125, 1126, 1128, 1130
 289, 1128,  530,  529, 1131
 290,  524,  529,  525, 1131
 291, 1125, 1131,  523, 1132
 292, 1125, 1132, 1126, 1130
 293, 1133, 1134, 1135, 1136
 294, 1133,  719,  908,  724
 295, 1133,  908,  719,  865
 296, 1133,  866,  908,  865
 297, 1133,  864,  718,  121
 298, 1133,  122,  864,  121
 299, 1083,  887,   98,   97
 300, 1083,  337,  888,  887
 301, 1083,  931, 1137, 1138
 302, 1083,  365, 1139, 1138
 303, 1083, 1139,   98,  887
 304, 1137, 1083, 1140,  931
 305, 1083,  337,  887,   97
 306, 1011, 1113, 1141, 1013
 307,  915,  916,  919,  917
 308, 1001, 1141, 1002, 1013
 309, 1001, 1017, 1016, 1015
 310, 1011, 1016, 1142, 1012
 311,  103,  447,  367,  104
 312, 1120, 1143,  393, 1144
 313, 1143, 1144,  935, 1145
 314, 1143,  935, 1120, 1146
 315,  367,  447,  341, 1145
 316,  451, 1143,  393, 1120
 317, 1086,  832,  837,  836
 318, 1143,  104,  451,  393
 319, 1147, 1148,   77,   78
 320, 1147,  993, 1149, 1150
 321,  909,  727, 1118,  726
 322, 1147,  993, 1148, 1151
 323, 1147,   78, 1151, 1148
 324, 1147,  771, 1152, 1149
 325,  767, 1147,   78, 1151
 326,  867,  500,  496,  501
 327,  951, 1153,  871,  873
 328,  871,  951,  873,  872
 329,  872,  873,   21,  572
 330,  872, 1154,  953,   20
 331,  872,  871,  188,   21
 332,  872,  949,  572,  577
 333,  872,  577,  953,  949
 334,  909,  721,  726,  725
 335,  910,  721,  726,  909
 336,  913,  909,  866,  910
 337,  914,   86,  327,  326
 338,  909, 1114, 1155, 1136
 339,  866, 1156, 1155,  914
 340,  910,  721,  875,  722
 341, 1068, 1072,  132,  420
 342, 1068, 1157, 1072, 1158
 343, 1067,  132, 1068, 1072
 344, 1068, 1022, 1070, 1071
 345, 1068, 1022, 1023,  977
 346,  365, 1144, 1159,  932
 347,  923, 1102,  246, 1160
 348,  927,  935,  932,  939
 349,  939,  932, 1144,  935
 350, 1144,  939, 1145, 1159
 351,  932,  931,  939, 1139
 352,  950,  955,  934,  958
 353,  952,  958,   75,  955
 354,  951,  957,  573,  952
 355, 1161,  957,  573,  951
 356,  952,  951,  574,  573
 357,  573,  952,  578,  574
 358, 1106, 1107,  952, 1108
 359, 1106,  955,  181, 1108
 360, 1006,  741, 1009,  746
 361, 1006,  746, 1008,  745
 362, 1006, 1009, 1007, 1008
 363, 1006, 1008,  990,  744
 364, 1006,  741, 1115, 1009
 365, 1009, 1141, 1115, 1006
 366, 1006, 1141,  739, 1002
 367,  923,  920,  194,  193
 368, 1162, 1163, 1158, 1157
 369,  776, 1164, 1165, 1152
 370, 1152, 1166,   76,   77
 371, 1152, 1150, 1167, 1164
 372, 1152,   77, 1147, 1166
 373,  993, 1168, 1169,  995
 374,  993, 1149, 1150, 1168
 375, 1147,  993, 1150, 1148
 376,  993, 1148, 1170, 1171
 377, 1134, 1172, 1173,  429
 378, 1134, 1135, 1172,  123
 379,  970, 1174,  911,  961
 380,  970,  911,   35,  967
 381,  961,  255,  963,  970
 382,  970,  968,  229,  255
 383,  970,  961,  229, 1174
 384,  970,  228,  968,  967
 385,  970,  229,  968,  228
 386,  861,  406, 1175,  862
 387,  860,  433, 1176, 1177
 388,  860,  869, 1176,  863
 389,  860,  862,  863,  381
 390,  406,  860,  862,  861
 391,  860, 1176,  433,  407
 392,  937,  657,  936,  939
 393, 1046, 1081, 1047, 1178
 394,  840, 1093, 1050,  839
 395, 1093, 1050,  839, 1046
 396, 1043,  834, 1046,  833
 397, 1046, 1050,  839,  834
 398, 1046, 1093, 1178,  838
 399, 1043,  833, 1046, 1047
 400, 1094,  837,  842,  841
 401, 1043, 1040, 1046, 1050
 402, 1179, 1180, 1181, 1182
 403, 1179, 1183, 1052, 1184
 404, 1183, 1185, 1184, 1179
 405, 1186, 1187, 1185, 1179
 406, 1179, 1188, 1184, 1182
 407, 1179, 1180, 1182, 1052
 408,  928,  654,  929,  930
 409, 1189,  928,  659,  933
 410,  927,  929,  928,  933
 411,  928, 1189,  931,  933
 412,  933,  928,  659,  929
 413, 1190, 1030, 1191, 1192
 414, 1193, 1194, 1080, 1190
 415, 1194, 1080, 1190, 1195
 416, 1190, 1196, 1030, 1195
 417, 1190, 1196, 1029, 1030
 418, 1190, 1197, 1187, 1194
 419, 1190, 1198, 1031, 1078
 420, 1199,  216, 1200, 1201
 421, 1202,  624,  636,  623
 422, 1199, 1058,  918, 1203
 423, 1199, 1056, 1200, 1204
 424, 1097,  542, 1103, 1099
 425, 1199,  243, 1204,  242
 426, 1112, 1113, 1114, 1172
 427, 1115, 1010,  736, 1111
 428, 1112,  728, 1135,  729
 429, 1202,  623,  611,  624
 430, 1111, 1116,  731,  730
 431, 1112, 1113,  734, 1115
 432, 1112,  734, 1113,  729
 433, 1114, 1135, 1172, 1136
 434, 1114, 1111, 1141, 1113
 435, 1141, 1111, 1011, 1010
 436, 1111, 1114, 1011, 1117
 437, 1112, 1135, 1114, 1116
 438, 1140, 1083,  887,  931
 439,  887,  848,  996, 1140
 440, 1205, 1206, 1074, 1207
 441, 1140,  847,  946, 1208
 442, 1140, 1209, 1208, 1189
 443,  479, 1053, 1182, 1210
 444, 1189, 1140,  931, 1211
 445, 1140,  848,  996,  847
 446,  953, 1212, 1154,  954
 447,  917,  549, 1060,  916
 448,   20, 1212, 1154,  953
 449, 1213, 1110, 1214,  252
 450,  872, 1215,  953, 1154
 451,  953, 1216,  582, 1212
 452,  953, 1212,  582,   19
 453,  953,   20, 1212,   19
 454, 1217,  895,  894, 1218
 455, 1219, 1220, 1221,  891
 456, 1217,  895, 1218, 1222
 457,  891, 1220, 1221, 1223
 458, 1217,  895, 1222, 1223
 459,  895,  891, 1223, 1217
 460, 1224,  482,  481, 1225
 461, 1123,  891, 1221,  895
 462, 1226, 1227,  552, 1097
 463, 1097,  924, 1226, 1227
 464,  955,  290,   75,  179
 465,  542, 1103, 1226, 1097
 466, 1228,  346,  347,  373
 467,  920, 1103, 1097, 1226
 468, 1097, 1226,  542,  547
 469, 1097, 1099, 1229,  542
 470, 1097, 1229, 1098,   27
 471,   55,  938,  310, 1230
 472,  877,  600,  613,  612
 473, 1231, 1051,  284, 1232
 474, 1041,  638,  171,  637
 475, 1231, 1186,  285, 1233
 476, 1231, 1052, 1233, 1051
 477, 1179, 1186, 1231, 1233
 478, 1080,  464, 1195, 1194
 479, 1080,  469, 1194, 1181
 480, 1193, 1181,  468, 1080
 481, 1080, 1194, 1193, 1181
 482, 1080,  464, 1194,  469
 483, 1106,  574, 1107,  579
 484, 1106,  579, 1107,  580
 485, 1107,  952, 1108, 1216
 486, 1107,  951,  949,  576
 487, 1107,  581, 1216,  580
 488, 1107,  576,  949,  581
 489,  956,  293, 1234, 1048
 490,  240,  959,  266, 1235
 491,  959,  266, 1235,  956
 492,  956,  958,  291,  957
 493, 1235, 1048,  957,  956
 494, 1092,  611,  610,  598
 495, 1093,  144,  840,  145
 496,   73,  292,  957, 1048
 497, 1198,  236, 1031,  262
 498, 1190, 1197, 1191, 1236
 499, 1237, 1190, 1187, 1079
 500, 1190, 1079, 1193, 1187
 501, 1190, 1080, 1193, 1079
 502, 1198, 1078,  288, 1031
 503, 1198, 1079,  287, 1078
 504, 1198, 1078,  287,  288
 505, 1078, 1196, 1029, 1190
 506,  453, 1104, 1077, 1238
 507,  880, 1239, 1109,  858
 508, 1238, 1104, 1077, 1030
 509, 1238, 1196, 1077,   50
 510, 1238, 1196,   50,   51
 511,  458, 1238,   51, 1195
 512, 1238,   51, 1195, 1196
 513, 1239, 1240,  858,  880
 514,  867,  878,  880,  500
 515,  867,  857,  494,  499
 516,  867,  880,  879,  857
 517,  880,  857,  498,  858
 518,  880, 1240,  858,  503
 519, 1049, 1241, 1056, 1048
 520, 1241, 1153, 1048, 1161
 521, 1241,  559, 1063, 1057
 522, 1241,  564, 1153, 1161
 523, 1241,  565, 1153,  564
 524, 1241, 1153,  565, 1057
 525, 1241, 1057,  564,  559
 526, 1076,  470, 1182, 1181
 527, 1076,  475, 1182,  470
 528, 1076, 1188, 1182,  476
 529, 1197, 1242,  471, 1076
 530, 1242, 1194,  471, 1076
 531,  466, 1242, 1194,  471
 532, 1239,  506,  510,  505
 533, 1191, 1197, 1194, 1242
 534, 1076,  472, 1188,  471
 535, 1076, 1187, 1188, 1197
 536,  993, 1168, 1243, 1149
 537, 1150, 1071, 1072, 1244
 538, 1150, 1162, 1148, 1171
 539, 1152, 1150, 1149, 1167
 540, 1147, 1150, 1166, 1148
 541,  772, 1152,   77, 1147
 542, 1150, 1168, 1244, 1245
 543, 1205, 1246, 1074, 1073
 544, 1093,  840,  841,  145
 545, 1247,  111,  440,  441
 546, 1150, 1167, 1244, 1149
 547,  986,  791, 1205,  985
 548, 1205, 1248,  790,  986
 549, 1246,  782,  787,  786
 550,  791,  787, 1205,  792
 551,  787,  792,  159, 1205
 552, 1205,  786, 1246,  787
 553,  935, 1119, 1091, 1120
 554,  935, 1122, 1119, 1120
 555,  935, 1145,  936, 1146
 556, 1206, 1207,  985, 1249
 557, 1008,  746, 1005,  751
 558, 1250, 1249, 1251, 1206
 559, 1206, 1074, 1207, 1251
 560, 1205, 1073, 1206,  985
 561, 1206, 1250,  606, 1252
 562, 1247,  441,  414,  415
 563, 1022, 1253, 1070, 1164
 564, 1020, 1253, 1022, 1026
 565, 1020, 1254, 1074, 1246
 566, 1020, 1074, 1248, 1246
 567, 1022, 1157, 1023, 1255
 568, 1068, 1023, 1022, 1157
 569,  890,  893,  683,  894
 570,  947,  894,  114,  683
 571,  947, 1256,  945,  948
 572,  947,  895,  945, 1257
 573,  944,  947,  945,  948
 574, 1056, 1058, 1258, 1259
 575,  911,  967,  502,   35
 576, 1056, 1153, 1258,  871
 577, 1056, 1235, 1153,  871
 578,  851,  815,  819,  814
 579, 1056, 1153, 1235, 1048
 580, 1056, 1234, 1235, 1200
 581, 1056, 1234, 1200, 1204
 582,   46, 1260,  583,   45
 583, 1045, 1105,  886,  855
 584,  843,  855, 1084, 1087
 585,  892, 1261,  688,  693
 586, 1087,  852,  886, 1096
 587,  852, 1096,  884,  886
 588,  882,  846,  844, 1095
 589, 1095,  882, 1262,  844
 590,  135,  621, 1023,  136
 591,  844,  882, 1262,  849
 592,  846,  849,  844,  845
 593,  852,  851,  855,  885
 594,  872, 1215,  871,  951
 595,  952,  954,  949,  950
 596,  951,  873,  872,  572
 597, 1215,  951, 1161, 1153
 598,  872, 1215, 1263,  871
 599, 1215, 1263,  959, 1154
 600, 1215,  871,  951, 1153
 601, 1093, 1104,  145, 1101
 602, 1264,  457, 1192, 1104
 603, 1238, 1104, 1030, 1192
 604, 1081, 1040, 1265, 1094
 605, 1081, 1033, 1038, 1260
 606, 1046, 1094, 1081, 1093
 607, 1040, 1260, 1266, 1081
 608, 1007,  747, 1267,   82
 609, 1081, 1040, 1260, 1265
 610, 1081, 1038, 1032, 1077
 611, 1077, 1081, 1093, 1178
 612, 1046, 1093, 1081, 1178
 613, 1025,  608,  621,  620
 614, 1081, 1266, 1040, 1047
 615,  854,  822, 1084,  821
 616, 1045, 1105,  855,  825
 617, 1090,  826, 1085, 1045
 618,  826, 1084, 1090,  827
 619,  854,  855, 1084,  843
 620, 1084, 1087, 1090,  843
 621,  846,  882,  849,  852
 622,  846,  852,  843, 1095
 623,  902,  972,  983,  973
 624,  883,  889,  813,  808
 625,  972,  849,  976,  975
 626,  877,  587,  600,  599
 627,  883,  640,  884,  882
 628,  883,  882,  641,  640
 629,  849,  976,  975,  850
 630,  853,  851,  852,  885
 631,  883, 1064,  641,  882
 632, 1021, 1025, 1023, 1020
 633, 1020, 1268, 1253, 1254
 634, 1025, 1252, 1073,  607
 635, 1205, 1206, 1207,  985
 636, 1074, 1251, 1024, 1207
 637, 1074, 1269, 1207, 1075
 638, 1074, 1251, 1252, 1024
 639, 1020, 1270, 1075, 1069
 640, 1271, 1272,  372,  989
 641,  372,  989, 1228, 1271
 642, 1273,  371,  398,  397
 643, 1274, 1272,  370, 1171
 644,  372,  371,  398, 1273
 645, 1272,  989, 1170, 1171
 646, 1205, 1073,  159, 1246
 647, 1248, 1020, 1268, 1270
 648, 1246, 1254, 1073,  160
 649, 1254,  781, 1253,  782
 650, 1270, 1074, 1248, 1020
 651, 1268,  781, 1253, 1254
 652, 1074, 1269, 1270, 1248
 653, 1207, 1251, 1024, 1275
 654, 1207, 1249, 1066,  986
 655, 1275,  645, 1251, 1024
 656, 1207, 1269, 1275, 1075
 657, 1275, 1251,  645,  644
 658, 1207, 1066, 1275, 1269
 659, 1275,  644,  982, 1276
 660, 1251, 1249, 1275, 1207
 661, 1275, 1066, 1249, 1276
 662, 1275,  982, 1066, 1276
 663,  168,  883,  640,  884
 664,  976, 1039,  889,  809
 665,  889,  810,  850,  815
 666,  850,  976, 1039,  889
 667,  853,  818,  886,  169
 668,  889,  815,  850,  851
 669, 1210,  478, 1180,  479
 670, 1277, 1278, 1279, 1280
 671,  889,  851,  885,  814
 672, 1096, 1095,  626,  613
 673, 1096,  638,  886, 1088
 674,  627, 1096,  639,  882
 675,  884,  882,  640,  639
 676, 1096,  882,  852,  884
 677, 1096,  627, 1095,  882
 678, 1179, 1076, 1188, 1182
 679, 1096,  886,  638,  639
 680, 1134, 1135,  123,  122
 681, 1136, 1135,  724, 1116
 682, 1133, 1135,  724, 1136
 683, 1135, 1172,  123,  728
 684, 1113, 1172, 1112,  728
 685, 1172, 1112,  728, 1135
 686, 1135, 1116,  729,  724
 687, 1050, 1094, 1040, 1046
 688, 1040, 1281, 1282, 1260
 689, 1216,  581,  182,  580
 690, 1260, 1040, 1266, 1282
 691, 1283, 1284,  334,  335
 692, 1202, 1281, 1282, 1040
 693,  903,  971,  603,  907
 694,  903,  882,  971,  981
 695,  971,  981,  628,  629
 696,  971,  981,  629,  907
 697,  971,  603,  907,  616
 698,  903, 1262,  844,  602
 699,  603,  899,  590,  904
 700, 1285,  618,  617,  605
 701,  924,  193,  923,  219
 702, 1096,  612,  613,  625
 703,  907,  906,  903,  981
 704,  906,  974,  975,  972
 705,  807,  902,  156,  983
 706,  972,  982, 1064,  981
 707,  906, 1276, 1249,  982
 708,  900, 1249,  906,  901
 709,  906,  901,  899,  900
 710, 1249,  982, 1065,  906
 711, 1066, 1249,  982, 1065
 712,  984, 1249, 1065,  900
 713, 1249, 1065,  900,  906
 714, 1065,  906,  974,  975
 715, 1030, 1038, 1077, 1029
 716, 1104, 1038, 1030, 1037
 717, 1282, 1260,  609, 1266
 718, 1281, 1260,  596, 1282
 719,  322, 1286, 1007,   82
 720, 1282,  609, 1260,  596
 721, 1287,   34,  201,   33
 722, 1176,  407,  434,  433
 723, 1282, 1281,  610,  597
 724, 1219, 1220, 1288,  702
 725, 1219, 1220,  702,  697
 726, 1219, 1221, 1220,  697
 727, 1220, 1217,  891, 1219
 728, 1219,  700, 1289, 1290
 729, 1291, 1292,   90,   89
 730, 1291,  874,  863, 1292
 731, 1291,  863,  355,  356
 732, 1291,  862,  329,  355
 733, 1293, 1294,  382,  863
 734, 1291,  863, 1293, 1292
 735, 1288, 1291, 1293, 1292
 736, 1250,  619,  618,  606
 737,  863, 1294,  382,  356
 738,  935, 1119, 1295,  930
 739, 1121, 1119, 1120, 1091
 740,  923,  926,  245,  246
 741, 1114, 1135, 1136, 1116
 742,  927, 1119,  930,  929
 743, 1290,  117, 1296, 1297
 744,  927,  933, 1091,  929
 745,  447,  367,  104, 1143
 746, 1119,  108,  929, 1091
 747,  651,  936,  448, 1295
 748, 1298,  515,  514,  510
 749, 1295,  930,  649,  650
 750,  449, 1295,  649,  140
 751, 1176,  408,  381,  382
 752, 1119, 1295,  649, 1122
 753, 1295, 1122,  452,  449
 754,  935,  930, 1295,  936
 755, 1295, 1146,  452, 1122
 756,  920,  917, 1103, 1226
 757,  539, 1103, 1129, 1100
 758, 1177, 1299,  708,  703
 759,  814,  885,  889,  813
 760, 1100,  538,  919, 1300
 761,  920, 1103,  917,  919
 762,  920, 1098, 1102,  923
 763, 1100, 1301, 1127, 1300
 764, 1100, 1301, 1102, 1098
 765,  859,  866,  865,  868
 766,  864, 1175,  866,  859
 767, 1299,  869,  870,  868
 768,  869,  876, 1292,  874
 769, 1141, 1013,  738, 1002
 770,  903, 1262,  849,  844
 771, 1001, 1014, 1003, 1015
 772, 1115, 1113,  739, 1141
 773, 1178,  635,  173,    4
 774,  740, 1006,  741, 1115
 775, 1006, 1141, 1115,  739
 776,  997, 1302, 1284,  387
 777,  912, 1302, 1284,  997
 778, 1302,  945,  912, 1303
 779, 1302,  895, 1283, 1222
 780, 1302, 1256,  945, 1257
 781, 1204, 1055, 1304, 1199
 782, 1199, 1056, 1058, 1201
 783, 1061, 1058, 1305, 1227
 784, 1055, 1059, 1304,  918
 785, 1055, 1199,  918, 1304
 786, 1058, 1227,  918, 1203
 787, 1305, 1227,  557, 1061
 788, 1058, 1259, 1305, 1258
 789, 1061, 1058, 1227,  918
 790,  992,  995,  759, 1243
 791,  988,  753,  905,  754
 792, 1240,  508,  503,  504
 793,  992,  987,  991,  755
 794,  988,  990,  905,  998
 795,  992,  758,  754,  759
 796, 1306,  960, 1098, 1160
 797,  246, 1160,  220,  923
 798,  983,  902,  156,  900
 799, 1307,  384,  357,  358
 800, 1306,  923, 1098,  194
 801, 1306, 1160,  220,  221
 802,  989,  990, 1308,  987
 803,  990, 1007, 1005, 1008
 804,  990, 1308, 1007, 1286
 805, 1272,  345,  371,  344
 806,  988,  905,  990,  987
 807,  990,  987,  749, 1008
 808,  749,  990,  905,  987
 809, 1001,  990, 1000, 1006
 810, 1217, 1309, 1223, 1222
 811,  893, 1124,  895, 1123
 812,  893,  895,  947,  894
 813,  945, 1124, 1310,  895
 814, 1302,  895, 1222, 1257
 815, 1302, 1283,  895, 1303
 816, 1302,  895, 1257,  945
 817, 1141,  739, 1002,  738
 818,  845,  589,  588,  154
 819, 1013, 1113,  738,  733
 820, 1013,  733, 1172, 1113
 821, 1013,  427,  125, 1014
 822, 1013, 1172,  124, 1012
 823, 1311, 1307,  383, 1294
 824,  408, 1312,  435, 1311
 825,  984,  900,  797,  901
 826, 1311, 1307,  409,  383
 827, 1311, 1176,  408, 1312
 828,  876, 1313, 1292,  711
 829, 1313,  869,  868,  876
 830,  876,  716,  875,  868
 831,  876,  874,   88,   89
 832,  712,  876,   89, 1292
 833,  876,   89, 1292,  874
 834, 1020, 1025, 1024, 1074
 835, 1270,  784, 1248, 1269
 836, 1020, 1268, 1270, 1070
 837, 1270, 1269,  783,  784
 838, 1074, 1075, 1270, 1269
 839, 1270, 1268,  784,  779
 840, 1270, 1070, 1268,  779
 841, 1038, 1077, 1081, 1093
 842, 1104, 1030, 1192, 1264
 843, 1104, 1030, 1264, 1037
 844, 1038, 1029, 1028, 1032
 845, 1028, 1036, 1038, 1033
 846,  947, 1256,  948,  113
 847, 1256,  414, 1247,  440
 848, 1264, 1191, 1030, 1192
 849, 1302,  945, 1256,  997
 850, 1256, 1247,  945,  948
 851, 1256,  997, 1247,  414
 852,  997,  996,  888,  945
 853,  944,  947,  948,  678
 854,  947, 1257,  439,  438
 855,  944,  847,  945, 1124
 856, 1215,  951,  957, 1161
 857,  950,  959, 1215, 1235
 858,  950,  953, 1215, 1154
 859,  569,  951,  574,  570
 860,  570, 1161,  569,  951
 861,   74,  952,   75,  573
 862,  952,  951, 1107,  574
 863, 1179, 1076, 1187, 1188
 864, 1186, 1079,  286, 1237
 865, 1237, 1187, 1185, 1186
 866, 1186, 1187, 1181, 1193
 867,  880,  505,  504,  500
 868, 1192,  465,  461,  466
 869, 1186, 1079, 1193,  312
 870,  628,  616,  971,  629
 871, 1142,  402,  428, 1016
 872, 1016, 1012,  427,  428
 873, 1016, 1314,  375, 1017
 874, 1011, 1314, 1016, 1017
 875, 1016, 1142, 1012,  428
 876, 1014,  427, 1016, 1012
 877, 1162, 1170, 1148, 1171
 878, 1162,  369, 1163, 1157
 879, 1162, 1171, 1158, 1163
 880, 1162, 1166,  317, 1315
 881, 1150, 1162, 1171, 1158
 882, 1162, 1315, 1157, 1166
 883,  867,  495, 1027,  496
 884,  978,  492,  897, 1027
 885,  867,  494, 1027,  495
 886,  494, 1027,  490,  999
 887,  467, 1242,  471, 1197
 888,  999, 1027,  490, 1054
 889,  979,  962, 1027,  896
 890,   17,  934,  290,  264
 891,  934,   16,  264,   17
 892,  910,  908,  875,  721
 893,   16,   15,  184,  934
 894,  934,  958,  264,  265
 895,  934,  290,  958,  955
 896,  950,  954,  934,  955
 897,  934,  264,  958,  290
 898, 1001, 1019, 1015, 1003
 899,  641,  882,  981,  628
 900, 1007,  322, 1267, 1017
 901, 1007, 1001, 1011, 1009
 902, 1007, 1008, 1009,  746
 903,  747,  746, 1005, 1007
 904,  990, 1007, 1019, 1286
 905,  990,  744, 1000, 1006
 906, 1007, 1019, 1286, 1017
 907, 1001, 1007, 1006, 1009
 908, 1301, 1160,  960, 1316
 909, 1301, 1317, 1098, 1128
 910, 1301, 1126, 1127, 1300
 911, 1301, 1126, 1316, 1130
 912, 1214, 1318,  225, 1319
 913, 1214, 1320, 1319, 1278
 914, 1214, 1320, 1321, 1240
 915, 1214, 1321, 1322, 1323
 916, 1216,   13,  582,  183
 917, 1107, 1216, 1108,  580
 918, 1216,  182,   12,   13
 919, 1216, 1108,  580,  182
 920, 1216,  582,   12,  581
 921, 1109, 1240, 1239, 1298
 922,  879, 1109,  878,  967
 923, 1109, 1240, 1323,  858
 924, 1109, 1318, 1287, 1110
 925, 1109,  967, 1287,  878
 926, 1320, 1240,   61, 1321
 927, 1277, 1278, 1319, 1320
 928, 1320, 1324, 1325, 1298
 929, 1320,  508, 1240, 1298
 930, 1320, 1326, 1279, 1321
 931, 1320,   62, 1326, 1321
 932, 1326, 1325,  513, 1320
 933,  518, 1326, 1325,  513
 934, 1216,  183, 1108,  182
 935, 1216,  952, 1108,  954
 936, 1212,  184,   14,  186
 937, 1212,    2,  186,   14
 938, 1212,  954,  184,  212
 939, 1212,   19,  186,    2
 940,  187,   20, 1212, 1154
 941, 1212,  954,  212, 1154
 942, 1212,  187, 1154,  186
 943, 1324, 1298, 1327, 1239
 944, 1324, 1327,  517,  512
 945,  511, 1324,  512, 1239
 946, 1324, 1328,  517, 1327
 947, 1324,  512, 1239, 1327
 948, 1320, 1324, 1328, 1325
 949, 1324, 1298,  515, 1325
 950, 1318, 1213,  200, 1287
 951, 1214, 1318, 1213,  226
 952, 1109, 1287, 1318, 1327
 953, 1214, 1110, 1109, 1323
 954, 1318, 1110, 1213, 1287
 955,  952,  949, 1107,  951
 956,  949,  953, 1215,  950
 957,  958,  957,   74,  291
 958,  956,  265,  958,  959
 959,  956,  959,  266,  265
 960,  934,  959,  265,  239
 961,  934,  954,  212,  184
 962,  956,  957,  291,  292
 963, 1280,  198,  943, 1277
 964,  224,  943,  942, 1280
 965,  983,  807,  902,  973
 966, 1280,  942,  224,  250
 967, 1280, 1278, 1319, 1277
 968, 1279,  942,  941, 1280
 969,  922, 1279,  940,  941
 970, 1280, 1279,  250, 1278
 971,  366,  393, 1143, 1144
 972, 1133, 1329, 1134, 1136
 973, 1145, 1146,  101,  936
 974, 1145,  447,  341, 1146
 975,  340,  100, 1159, 1145
 976, 1146, 1143, 1145,  447
 977, 1027,  911,  496,  497
 978, 1027,  492,  896,  911
 979,  867, 1027,  999,  962
 980,  867, 1027,  911,  496
 981, 1311, 1297, 1307, 1330
 982, 1311,  382, 1176, 1293
 983, 1293, 1311, 1294, 1330
 984, 1311, 1307, 1331,  409
 985, 1307, 1297, 1331, 1330
 986, 1307, 1331,  409,  410
 987, 1311,  382, 1293, 1294
 988, 1297,  409,  435, 1311
 989, 1053,  483, 1054, 1332
 990,  484,  483, 1054, 1053
 991, 1210, 1332, 1053, 1230
 992,  983,  802,  156,  807
 993, 1210, 1180, 1230, 1052
 994, 1182, 1210, 1052, 1180
 995, 1210,  479, 1180, 1182
 996,  227, 1287,  201,  200
 997, 1224,  980, 1052, 1053
 998, 1250,  632,  631,  619
 999, 1053,  481,  485,  480
1000, 1224,  980,   39, 1184
1001, 1182, 1225, 1184, 1224
1002,  481, 1224, 1225, 1182
1003,  486,  481,  485, 1053
1004, 1266,  622,  609,  610
1005, 1224,  978,  980, 1053
1006, 1224,  978,  486,  487
1007, 1249,  984,  986,  985
1008, 1249, 1251, 1276, 1250
1009, 1249, 1285, 1250, 1276
1010, 1272, 1171, 1274, 1273
1011, 1249,  982, 1276, 1066
1012, 1279, 1321,  303,  277
1013, 1100, 1300,  533,  538
1014, 1300, 1102,  299,  298
1015, 1126, 1300,  299,   66
1016, 1300,  921, 1102,  298
1017, 1300, 1127,  533,   66
1018, 1058, 1258, 1305, 1201
1019,  190, 1258, 1200, 1201
1020, 1200,  871, 1056, 1258
1021, 1259, 1057, 1333, 1056
1022, 1258, 1201,  190,   23
1023, 1258, 1200,  871,  189
1024,  873, 1333, 1258,  567
1025,  873, 1153,  871, 1258
1026, 1179, 1181, 1180,  938
1027, 1179, 1180, 1052,  938
1028, 1210, 1053, 1052, 1230
1029, 1180,  474, 1182,  479
1030, 1180, 1182,  474, 1181
1031, 1180,  478, 1230,   55
1032,  893, 1123,  684,  685
1033, 1124, 1123,  685,  881
1034,  971,  616,  615,  603
1035,  675,  674, 1124,  847
1036,  895, 1124, 1310,  881
1037,  893,  947,  683,  894
1038,  863,  859,  860,  869
1039,  866,  908,  865,  868
1040,  910,  914,  875,  866
1041,  909, 1136,  866,  908
1042,  862,  861,  859, 1175
1043,  864, 1329,  866, 1175
1044,  922,  301,  300,  274
1045, 1132,  922,   64,  300
1046, 1280,  943,  941, 1277
1047, 1075,  162,  163,  646
1048, 1320, 1326, 1325,  941
1049, 1326,  518, 1132,   63
1050, 1140,  931, 1211, 1334
1051, 1189,  933, 1211,  931
1052, 1209, 1189,  931, 1335
1053,  927, 1091,  935, 1119
1054,  932,  933,  931, 1138
1055,  928,  937,  931, 1335
1056,  927,  933,  928,  931
1057,   31, 1277,   30,  198
1058, 1214, 1109, 1298, 1240
1059, 1223,   93,   94,  334
1060, 1214,  226, 1213,  252
1061, 1318, 1327,   33,   32
1062, 1318, 1287,   33, 1327
1063, 1214, 1109, 1327, 1298
1064, 1214, 1318, 1319, 1327
1065, 1328, 1320,  941, 1277
1066, 1277, 1336,  522,  527
1067,  961,  979,  965,  966
1068, 1179, 1052, 1231,  938
1069, 1053, 1230, 1332, 1232
1070, 1179, 1184, 1052, 1182
1071, 1231, 1052, 1230,  938
1072, 1232, 1052, 1231, 1051
1073,  980, 1183, 1052, 1051
1074, 1224, 1053, 1052, 1182
1075,  935, 1144, 1120, 1091
1076,  928, 1189,  665, 1335
1077, 1143, 1120,  935, 1144
1078, 1146,  341,  101,  102
1079, 1143, 1146, 1120,  447
1080, 1146,  446,  102,  101
1081, 1146, 1120,  447,  452
1082,  573,  957,   74,  952
1083,  934,  959,  239, 1154
1084,  950, 1215,  959, 1154
1085,  955,  185,  954,  180
1086,  955,  181, 1108,  185
1087,  958,   75,  955,  290
1088, 1086,  837, 1094,  841
1089, 1044, 1086, 1042, 1050
1090, 1092, 1040, 1202, 1088
1091, 1085,  149, 1092, 1089
1092, 1044,  831, 1086,  836
1093,  837, 1089, 1085, 1086
1094,  445, 1120,  419, 1091
1095, 1121, 1120, 1122,  450
1096,  448,  652,  446, 1146
1097,  935, 1146, 1295, 1122
1098, 1144, 1120,  419,  393
1099, 1144,  366, 1145, 1143
1100, 1120,  452, 1122,  450
1101, 1337, 1004, 1308,   80
1102, 1221,  895,  881, 1123
1103, 1123, 1221,  685,  881
1104,  891, 1123,  690,  689
1105,  881, 1124,  680,  685
1106,  895,  891, 1221, 1223
1107, 1164, 1071, 1022, 1150
1108, 1150, 1171, 1245, 1158
1109,  371, 1274, 1272,  370
1110, 1274, 1171, 1169, 1273
1111, 1241, 1049, 1056, 1057
1112, 1273, 1169,  993, 1171
1113,  993,  991,  992,  988
1114, 1128,  536,  532,  537
1115, 1274, 1171, 1245, 1169
1116, 1162, 1163,  369,  370
1117,  319, 1170,  345, 1271
1118, 1178,    4,  838,  143
1119, 1271, 1286,  321, 1308
1120,  989, 1272,  372, 1273
1121, 1170,  345, 1271, 1272
1122, 1271, 1286, 1228,  347
1123, 1271,  998, 1286, 1308
1124, 1271,  998,  989, 1228
1125, 1003,  425,  126,  127
1126, 1252,  620,  633,  632
1127, 1059,  916,  918, 1055
1128,  925, 1203, 1199,  918
1129,  973,  155,  812,  807
1130,  918,  925, 1304, 1199
1131,  915,  918, 1338,  916
1132, 1059,  918, 1338, 1304
1133,  982,  643, 1276,  644
1134,  906,  982,  981, 1276
1135,  972,  849,  883,  976
1136, 1275,  164,  982,  644
1137,  164,  165,  793, 1066
1138,  982,  981,  643, 1064
1139,  950,  956,  959, 1235
1140,  934,  955,  180,  290
1141,  953,  582, 1216,  949
1142,  952,  957,   74,  958
1143,  924,  923,  925,  219
1144,  954,  949, 1216,  952
1145,  955,  954,  185, 1108
1146, 1227, 1062, 1061,  918
1147, 1259, 1061,  555, 1057
1148, 1227, 1062, 1226,  552
1149,  889,  851,  814,  815
1150,  850,  816,  851,  815
1151,  983,  975, 1039,  973
1152,  873, 1333,  571,  951
1153,  856,  962,  963,  857
1154,  857,  962,  963,  879
1155,  962,  856,  965,  999
1156,  963,  857,  969,  856
1157,  963,  970,  911,  961
1158,  969,  964,  307,  281
1159,  969,  964,  965,  307
1160,  886, 1041,  638,  170
1161,  878,  505,  500,  501
1162,  626, 1096,  627, 1095
1163, 1250,  618,  619,  631
1164,  579, 1106,   10,  580
1165, 1096,  884,  886,  639
1166,  882, 1096,  639,  884
1167, 1330, 1297, 1296, 1293
1168, 1217, 1309, 1330, 1220
1169,  994,  129,  423,  128
1170, 1331, 1309, 1330, 1261
1171, 1219, 1220, 1330, 1288
1172, 1339, 1330, 1309, 1220
1173,  896,   37,  205,  204
1174,  927,  928,  930,  937
1175,  928,  659,  929,  654
1176,  933,  108,  443, 1091
1177,  927, 1119,  935,  930
1178,  928,  930,  655,  654
1179,  927, 1119,  929, 1091
1180,  659,  933,  658, 1189
1181, 1218,  895, 1257, 1222
1182,   92, 1223,  697, 1220
1183, 1223, 1217,  891, 1220
1184, 1024,  163,  645,  646
1185, 1223, 1220, 1221,  697
1186, 1223,  333, 1283,  359
1187, 1223, 1283,  333,  334
1188, 1223, 1283,  334,   94
1189,  895, 1222, 1223, 1283
1190, 1098, 1229,   28,   27
1191,  968,  229,  255,  228
1192, 1223,  359, 1222, 1309
1193,  881, 1223,   94, 1283
1194, 1326,  303, 1321,   62
1195,  482, 1184, 1225, 1224
1196, 1258, 1333,  873, 1153
1197, 1224, 1052, 1184, 1182
1198, 1179, 1185, 1184, 1187
1199,  907,  616,  603,  604
1200,  206, 1184,  980, 1183
1201, 1200,  241, 1235,  215
1202, 1185, 1233, 1179, 1183
1203,  632, 1024, 1252, 1251
1204,  959,  266,  239,  240
1205, 1296,  704, 1289, 1313
1206, 1296, 1289,  699, 1290
1207, 1023,  368, 1157,  394
1208, 1023,  342, 1255, 1157
1209, 1255,  137,  136, 1023
1210, 1023,  977,  634,  134
1211, 1068,  394, 1023, 1157
1212, 1025,  621, 1023,  634
1213, 1025, 1023, 1020,  977
1214, 1066,  164,  163,  788
1215,  903,  972,  906,  902
1216,  854,  850,  845,  817
1217,  976,  883,  808,  889
1218,  804,  809,  805, 1039
1219,  975, 1065,  800,  799
1220, 1033,   48,  289,  263
1221,  983, 1065,  801,  800
1222, 1064,  974,  803,  982
1223,  803,  883,  808,  976
1224,  849,  889,  976,  850
1225,  984, 1065,  795,  800
1226,  984,  801, 1065,  800
1227,  983,  984,  797,  801
1228,  797,  983,  802,  900
1229,  984,  985,  901,  797
1230,  985,  791, 1205,  792
1231,  984,  985,  797,  792
1232,  942,  276,  250, 1279
1233, 1214, 1318, 1110, 1213
1234, 1214, 1240, 1321, 1323
1235, 1321, 1323,   61,  304
1236, 1214, 1322, 1321, 1278
1237,  620,  633,  621, 1025
1238, 1320, 1324, 1327, 1328
1239, 1071, 1244,  768, 1072
1240, 1150, 1022, 1164, 1255
1241, 1168, 1244,  764, 1149
1242, 1071,  769, 1244, 1167
1243, 1020, 1070, 1270, 1069
1244, 1069, 1020, 1022,  977
1245, 1025, 1073, 1021,  608
1246, 1067,  178, 1069,    8
1247,  133, 1069, 1068,  977
1248, 1270, 1069, 1070,  778
1249, 1069,  178, 1070,  778
1250,  977, 1069, 1075,  647
1251, 1069,  977,  133,  647
1252, 1125,  523, 1131,  524
1253, 1103,  545,  541,  546
1254,  540, 1099,  536, 1129
1255, 1129,  530,  529, 1128
1256, 1100, 1127, 1301, 1129
1257, 1301, 1129, 1128, 1099
1258, 1100, 1129, 1301, 1099
1259, 1125, 1126, 1127, 1129
1260, 1129,  531,  535,  530
1261, 1129, 1128, 1099,  536
1262, 1095,  601,  614,  613
1263, 1193, 1187, 1181, 1194
1264, 1197, 1236,   42, 1191
1265, 1175,  861,  859,  864
1266,  914,  866, 1175,  862
1267,  860,  862,  381,  380
1268,  914,  353,  862, 1175
1269, 1056, 1058, 1259, 1057
1270, 1057, 1333, 1056, 1153
1271, 1259,  555, 1061,  556
1272,  565, 1057, 1333,  560
1273, 1057, 1333,  560, 1259
1274, 1062,  556, 1061,  555
1275, 1199, 1058, 1203, 1201
1276, 1259, 1258,  562, 1305
1277, 1259, 1061, 1305,  557
1278, 1044,  829, 1045,  830
1279, 1044,  830, 1045,  831
1280, 1089, 1040, 1042, 1086
1281, 1092, 1040, 1042, 1089
1282, 1042, 1089, 1085, 1092
1283, 1251,  644,  631,  632
1284,  904,  589,  155,  590
1285,  993,  995, 1169,  994
1286, 1274, 1245,  422, 1169
1287, 1168,  763, 1245, 1169
1288, 1168,  768, 1245,  763
1289, 1245,  421, 1072, 1158
1290, 1302, 1256,  413,  997
1291, 1222,  360, 1283, 1284
1292, 1222,  385, 1218, 1309
1293,  877,  586,  598,  585
1294, 1222,  359, 1283,  360
1295, 1222, 1218,  412, 1257
1296, 1104,  143,  144,  453
1297,  898,  966,  896,  231
1298,  385, 1218,  412, 1222
1299,  909, 1114, 1136, 1116
1300,   81,   80,  321, 1308
1301,  568, 1048,  957, 1161
1302, 1048, 1161,  568,  563
1303,  956,  293,  292,  266
1304, 1224,   39,  980,   38
1305,  957, 1235, 1215, 1048
1306, 1234, 1048,  293, 1049
1307, 1241, 1048, 1049,  563
1308,  997,  415,  388,  389
1309, 1283,  335,   94, 1303
1310, 1217, 1222, 1218, 1309
1311,  334, 1283,  335,   94
1312, 1302, 1283, 1303, 1284
1313, 1217, 1290, 1330, 1261
1314,  985,  901,  797,  157
1315,  985,  158,  901,  157
1316, 1252,  632,  619,  620
1317,  792,  984,  985,  791
1318,  985,  158, 1206,  901
1319,  985, 1073,  158,  159
1320, 1206, 1252,  606,  607
1321, 1206, 1252,  607, 1073
1322,  977,  647,  134,  133
1323, 1207, 1205,  986, 1074
1324, 1248, 1205, 1246, 1074
1325, 1199, 1304, 1204,  243
1326, 1204,   70,  294,  295
1327, 1234, 1204,  241, 1200
1328, 1199, 1200, 1056, 1201
1329, 1199, 1204, 1200,  242
1330, 1234, 1204, 1049,  294
1331, 1209,  670, 1208,  665
1332, 1140,  946,  847,  996
1333, 1287,  200,   33,  201
1334, 1208,  669,  847,  946
1335,  670,  847,  848, 1208
1336,  668, 1208, 1189,  946
1337, 1282,  597,  610,  609
1338, 1208,  946,  668,  669
1339, 1209, 1189,  665, 1208
1340,  988,  992,  754,  987
1341, 1004,  991,  757,  762
1342,  987,  757,  991,  756
1343,  993, 1151,  991,  989
1344,  989,  987, 1004,  991
1345,  987,  756,  991,  755
1346,  633,  621, 1025,  634
1347, 1040, 1094, 1086, 1089
1348, 1081, 1038, 1094, 1265
1349, 1101,  148, 1094, 1265
1350, 1094, 1265,  148, 1089
1351, 1086, 1094,  837, 1089
1352, 1094,  149,  842,  837
1353,  992,  991, 1243,  760
1354, 1168,  764,  995, 1243
1355,  988, 1018,  905,  994
1356,  758,  988,  753,  994
1357,  758,  995,  992,  988
1358,  992, 1243,  759,  760
1359, 1255, 1026,    5,  137
1360, 1022,  137, 1021, 1026
1361, 1166, 1165, 1255, 1164
1362, 1022, 1255,  137, 1026
1363, 1255, 1157,  342, 1315
1364, 1255, 1157, 1315, 1166
1365, 1063,   71,   70,  553
1366, 1067, 1069,  178, 1070
1367, 1070, 1020, 1022, 1069
1368, 1020, 1268, 1070, 1253
1369,  910,  722,  726,  721
1370, 1340,   41,  208,   40
1371, 1270, 1070,  779,  778
1372, 1070,  779,  176, 1268
1373, 1070, 1268,  176, 1253
1374, 1308, 1337,  320, 1271
1375,  890,  894,  683,  688
1376,  890,  893,  684,  683
1377, 1217, 1330, 1309, 1261
1378,  890, 1123,  891,  689
1379,  894, 1217, 1261,  892
1380,  115, 1261,  688,  894
1381, 1261,  688,  894,  892
1382,  869, 1296, 1312, 1293
1383, 1296,  699, 1289,  704
1384, 1289, 1290,  700,  699
1385, 1289, 1313,  706, 1292
1386,  706, 1288,  702, 1289
1387,  869, 1292, 1289, 1293
1388, 1217, 1290, 1219, 1330
1389, 1219, 1289, 1330, 1290
1390,  971,  882, 1262,  628
1391, 1262,  844,  602,  601
1392, 1262,  601, 1095,  844
1393, 1262,  882,  627,  628
1394, 1262, 1095,  627,  882
1395,  571,  873,  572,  567
1396,  993, 1168,  995, 1243
1397,  988,  905,  987,  754
1398,  993, 1169, 1168, 1245
1399, 1285, 1250,  605,  901
1400,  899,  604, 1285,  907
1401, 1285,  630, 1276,  907
1402,  877,  599,  598,  586
1403, 1024, 1207, 1075, 1074
1404, 1276, 1251, 1249, 1275
1405,  647,  977, 1024, 1075
1406, 1025, 1074, 1252, 1024
1407, 1205, 1206, 1073, 1074
1408, 1025, 1021,  621,  608
1409, 1025,  633, 1024, 1252
1410, 1024, 1075,  646,  647
1411, 1250,  619, 1252,  632
1412, 1250,  606, 1252,  619
1413, 1285,  604,  901,  605
1414, 1285, 1250, 1276,  631
1415, 1206, 1073, 1074, 1252
1416, 1251, 1276,  631,  644
1417, 1207,  985, 1249,  986
1418, 1275,  163, 1269, 1066
1419, 1206,  901,  605, 1250
1420, 1249, 1250, 1285,  901
1421, 1142, 1173,  402,  403
1422, 1314, 1142, 1341, 1011
1423, 1142,  350, 1314, 1341
1424, 1142,  376, 1314,  350
1425, 1342, 1173, 1142,  403
1426, 1114, 1011, 1117, 1341
1427, 1342, 1155, 1142, 1173
1428, 1329, 1342, 1173, 1155
1429,  911,  867,  879,  962
1430,  867,  880,  499,  500
1431,  880,  503,  858,  498
1432,  880,  878, 1239,  505
1433,  878, 1239,  505,  506
1434,  878, 1239,  506,  507
1435,  867,  878,  501,  911
1436, 1117, 1341,  324,  325
1437, 1114, 1173, 1172, 1012
1438, 1111,  737, 1010,  736
1439, 1117, 1341,  325,   85
1440, 1011, 1117, 1314, 1010
1441, 1117, 1314, 1010,  324
1442, 1114, 1142, 1155, 1173
1443, 1131, 1130, 1128, 1343
1444, 1343, 1317, 1130, 1128
1445, 1116, 1136,  908,  724
1446, 1128, 1317,  532, 1343
1447,  536,  531,  535, 1129
1448, 1129,  534, 1127,  529
1449, 1131, 1343,  530,  525
1450,  920, 1103, 1100, 1099
1451, 1068,  134, 1023,  394
1452,    8,  133, 1069, 1068
1453, 1068, 1158,  394, 1157
1454, 1245,  131, 1072,  421
1455, 1072,  420, 1158,  421
1456,  977, 1069, 1068, 1022
1457, 1067,  178, 1071, 1070
1458,  879,  968, 1110,  967
1459,  867,  911,  501,  496
1460,   59,  306,  858,  856
1461, 1109, 1110, 1287,  967
1462,  879,  967,  878,  911
1463,  962,  867, 1027,  911
1464,  857,  999,  493,  856
1465,  856,  858,  857,  969
1466,  858,   59,  856,  498
1467,  857,  493,  999,  494
1468,  867,  857,  999,  494
1469,  815,  816,  851,  855
1470,  305,  858,  306,  969
1471,  969,  964,  281,  255
1472, 1213,  968,  967, 1110
1473,  968,  254, 1110,  253
1474,  969, 1110,  279,  305
1475,  879, 1109,  967, 1110
1476, 1173,  402,  403,  429
1477, 1049,   70,  294, 1204
1478, 1038, 1101, 1094, 1265
1479, 1316,  274, 1344,  248
1480, 1046, 1093, 1050, 1094
1481, 1266, 1260, 1033, 1081
1482, 1328,  516,  517,  521
1483, 1104, 1038, 1101, 1093
1484, 1101,    3, 1036, 1037
1485, 1104,  457, 1101, 1037
1486, 1075,  162,  161,  778
1487,  231,  980,  966, 1051
1488, 1179, 1231, 1052, 1233
1489, 1183, 1233, 1051,  258
1490,  963,  961,  962,  965
1491,  844,  845,  588,  587
1492, 1179, 1052, 1183, 1233
1493,  979, 1052, 1232, 1051
1494,  122, 1329,  430, 1134
1495,  908,  725, 1116,  724
1496, 1202, 1088,  624,  611
1497,  611, 1088, 1092, 1202
1498, 1342, 1156,  352, 1155
1499, 1088, 1041, 1042, 1040
1500,  637, 1047, 1041, 1088
1501, 1040, 1266, 1202, 1047
1502, 1202,  610, 1281, 1092
1503, 1331, 1261,  436,  437
1504, 1050,  835,  839,  834
1505, 1331, 1218,  385, 1309
1506, 1218,  438, 1257,  894
1507, 1218, 1257,  438,  412
1508, 1307,  358, 1339, 1309
1509,  892,  895,  894, 1217
1510, 1331, 1309,  385,  384
1511, 1134, 1172, 1135, 1136
1512, 1112,  729, 1113,  728
1513, 1112,  729, 1135, 1116
1514, 1134, 1329, 1173, 1136
1515, 1172, 1113,  733,  728
1516, 1013,  124, 1172,  733
1517, 1020, 1026, 1254, 1253
1518, 1108,  185,  181,  182
1519, 1020, 1074, 1075, 1270
1520, 1345,  197,  196,   29
1521, 1205, 1207,  986,  985
1522, 1268,  784,  780, 1248
1523, 1270, 1268, 1248,  784
1524, 1270, 1075,  778,  783
1525, 1268, 1248,  780,  781
1526, 1268,  175,  780,  176
1527, 1238, 1195, 1030, 1196
1528, 1131, 1132,  518,  523
1529,   52,   51, 1078, 1195
1530, 1035, 1082, 1031, 1030
1531, 1162,  343, 1315,  317
1532, 1080, 1078, 1079, 1190
1533, 1195, 1194,  464,  465
1534, 1192, 1194, 1195,  465
1535, 1194, 1191, 1242, 1192
1536, 1238,  459, 1195,  458
1537, 1004,  991,  762, 1151
1538,   63,  922, 1132, 1326
1539, 1168,  995,  763, 1169
1540,  905,  753,  994,  128
1541,  993,  989,  994, 1273
1542,  988,  905, 1018,  998
1543, 1273,  989, 1228,  372
1544,  993, 1170, 1151,  989
1545, 1075,  162,  646,  647
1546, 1170,   78,  319,  318
1547, 1272,  370, 1171,  344
1548, 1282, 1266,  609,  610
1549,  149, 1089,  584, 1092
1550, 1032,   49,  622,  635
1551, 1260, 1036,   45,   46
1552, 1260, 1036,   46,   47
1553, 1282, 1281, 1202,  610
1554, 1040, 1202, 1281, 1092
1555, 1087,  877, 1090,  843
1556, 1100,  539,  919,  538
1557, 1125,  529, 1127,  528
1558,  919, 1300,   67,  921
1559,  919,   67, 1300,  538
1560,  919,  921,   68, 1338
1561,  919,  921,   67,   68
1562, 1126, 1344,  300,  299
1563,  540,  539, 1103, 1129
1564, 1328,  521, 1336,  520
1565,  529, 1128, 1125, 1129
1566, 1336,  521,  526,  525
1567, 1336, 1343,  526,  527
1568, 1047,  636,  173,  635
1569, 1179, 1184, 1188, 1187
1570, 1180, 1052,  938, 1230
1571, 1182,  480,  479,  475
1572, 1188, 1182,  476, 1225
1573, 1076, 1188,  476,  471
1574,  853,  813,  885,  818
1575, 1202, 1047,  636,  637
1576,  877, 1092, 1087, 1090
1577, 1087, 1088,  886, 1041
1578,  612, 1088, 1087,  611
1579, 1088, 1041,  637,  638
1580, 1087,  852, 1096, 1095
1581,  937,  661,  660,  656
1582,  954,  180,  185,  184
1583,  979,  980, 1051,  966
1584,  964,  963,  255,  969
1585, 1260,   46,  596,   47
1586,  978,  897,  492,  487
1587,  979,  978, 1027, 1054
1588, 1212,  183,   14,  184
1589, 1331,  384,  385,  411
1590,  832,  151, 1090,  150
1591,  276,  940,  942,  249
1592, 1027,  490,  978,  491
1593, 1224,  897,  487,   38
1594, 1224,  487,  486,  482
1595, 1097, 1227,  552,   26
1596, 1053,  485, 1054,  484
1597,  979,  962,  965,  999
1598, 1277,  198,  943, 1345
1599, 1188,  476,  477, 1225
1600,  880,  504,  499,  500
1601, 1145,  341,  367,  340
1602,  979,  999, 1027,  962
1603, 1238,  458,  453,  454
1604, 1017,  322,  349,  348
1605, 1010,  737,   84,  742
1606, 1186,  285, 1233,  286
1607,  480,  479, 1053, 1182
1608, 1190, 1197, 1194, 1191
1609, 1192,  466, 1194,  465
1610,  966,  230,  257,  256
1611, 1194, 1181,  469,  470
1612, 1080, 1193,   53,  468
1613, 1190, 1082, 1198, 1236
1614, 1228,  424,  398,  425
1615, 1000,  748,  743,  744
1616, 1216,  954, 1108,  183
1617, 1107,  949, 1216,  581
1618,  182,  580,  181, 1108
1619, 1096,  639,  638,  626
1620, 1278,  224,  251,  250
1621, 1106,   75,  952,  578
1622,  905,  994, 1018,  128
1623, 1106,  580, 1107, 1108
1624, 1212,   19,   20,  187
1625,  940, 1279,  942,  941
1626, 1198, 1237,  235,  261
1627, 1160,  960,  222,  221
1628, 1215,  950,  951,  949
1629,  950,  952,  958,  957
1630,  189,  873,   21,  871
1631, 1258, 1201,   23, 1305
1632, 1212,  186, 1154,  212
1633,  934,  954, 1154,  212
1634,  997,  389,  388,  362
1635,  952,  955, 1108,  954
1636, 1338,  270,  271,  297
1637, 1140, 1247,  111,  946
1638, 1062, 1227, 1226,  918
1639, 1049, 1055, 1204, 1056
1640, 1338,  916,   69,   68
1641, 1059, 1304,  296,  295
1642, 1338,  926,  271,  925
1643,  958,  290,  264,  291
1644,  980,   38,   39,  206
1645,  915,  921,  919, 1338
1646, 1035,   43,  211,  210
1647,  956, 1048, 1234, 1235
1648,  915, 1338,  925,  926
1649,  915,  921, 1338,  926
1650,  969,  280,  254,  281
1651, 1338,  925,  270, 1304
1652, 1131, 1336,  520, 1325
1653, 1214, 1323, 1322,  252
1654,  918, 1338, 1304,  925
1655, 1025,  608,  620,  607
1656, 1073,  595,  594,  160
1657, 1059,  553, 1063,   70
1658, 1133,  724, 1135,  723
1659, 1170,  345,  318,  319
1660,  149, 1089, 1094,  148
1661, 1274,  370,  371,  397
1662, 1332,   57,  483,  488
1663,  917, 1062,  551, 1226
1664,  864, 1329,  430,  122
1665, 1062, 1060,  550,  555
1666, 1060, 1063,  554, 1057
1667, 1114, 1136, 1173, 1155
1668, 1188,  472,  477,  476
1669, 1017, 1001, 1011, 1007
1670, 1117,  324, 1010,   84
1671, 1192,  465, 1195,  460
1672, 1314,  323, 1010,  324
1673, 1011, 1114, 1012, 1142
1674,  994, 1169,  423,  129
1675, 1313, 1292,  711,  706
1676, 1314, 1017, 1010,  323
1677, 1016, 1017,  375, 1015
1678, 1011, 1114, 1141, 1113
1679,  860, 1176,  869, 1177
1680, 1296, 1313, 1299,  704
1681, 1313,  709, 1299,  704
1682, 1313,  709,  868, 1299
1683,  876,  868, 1313,  711
1684, 1289, 1292,  706, 1288
1685, 1109, 1327, 1298, 1239
1686, 1109,  858, 1323, 1110
1687,  963,  962,  856,  965
1688, 1162,  370,  369,  343
1689, 1240,  858,  503,   60
1690, 1240, 1323,  858,   60
1691, 1189,  933,  658, 1211
1692,  442, 1334,  441,  110
1693, 1335,  665,  660,  661
1694, 1334,  441,  110, 1211
1695,  883,  641,  167,  168
1696, 1277, 1328,  522, 1336
1697, 1211,  668,  111,  663
1698,  253, 1110,  252,  279
1699, 1140,  111, 1247,  441
1700, 1189,  946, 1211,  668
1701, 1107,  575,  576,  580
1702,  934,  180,  184,   16
1703, 1280, 1278,  250,  224
1704, 1140, 1211,  441, 1334
1705,  928,  930,  937,  655
1706,  290,  179,   18,   75
1707,  959, 1154,  213,  239
1708, 1295,  139,  651,  650
1709, 1295, 1122,  449,  649
1710, 1295,  936,  930,  651
1711, 1324, 1298,  510,  515
1712,  937,  930,  936,  656
1713,  935, 1119, 1122, 1295
1714, 1239,  511,  507,  512
1715,  937,  930,  656,  655
1716,  883, 1064,  803,  167
1717, 1302, 1284,  387,  386
1718,  845,  849,  903,  973
1719, 1302,  412,  386,  413
1720,  200, 1213,  227, 1287
1721,  903,  602,  904,  603
1722,  899,  907,  903,  603
1723,  904,  973,  155,  154
1724,  902,  904,  155,  590
1725, 1224,  481, 1053, 1182
1726,  904,  899,  590,  902
1727,  904,  845,  973,  154
1728,  107, 1091, 1119, 1121
1729, 1051,  257,  258,  284
1730, 1038, 1265, 1260, 1036
1731,  233, 1185,  260,  234
1732, 1121, 1091,  445,  107
1733,  927,  939,  937,  936
1734,  371, 1273, 1274,  397
1735, 1121, 1119, 1122, 1120
1736,  967,   34,   35,  202
1737,  142,  648,  449,  450
1738, 1209,  666,  671,  670
1739,  967,  228,  201,  202
1740, 1295,  448,  139,  140
1741,  648,  449,  450, 1122
1742, 1119,  929,  108,  653
1743,  935, 1120, 1146, 1122
1744,  880, 1109, 1239,  878
1745, 1295, 1146,  936,  448
1746,  652,  138,  446,    6
1747, 1295,  452, 1146,  448
1748, 1247,  389, 1137,  415
1749,  943,  941, 1130,  940
1750, 1208,  665,  670,  669
1751,  969, 1110,  305,  858
1752, 1224,   39,  482, 1184
1753,  897,  980, 1224,  978
1754, 1053,  978, 1054,  485
1755,  225, 1319,  224, 1278
1756, 1214, 1318,  226,  225
1757, 1182,  476,  481,  480
1758,  196, 1345,  960,  943
1759, 1185, 1186, 1233, 1237
1760,  697,  701, 1219,  696
1761, 1345,  960,  943, 1316
1762, 1280,  943,  198,  224
1763, 1319,  224, 1278, 1280
1764, 1008,  745,  750,  749
1765, 1028, 1034,  237,  263
1766,  933, 1334, 1138,  417
1767, 1138,  364, 1083,  365
1768,  931, 1137, 1138, 1334
1769, 1140, 1137,  931, 1334
1770, 1126,  299, 1300, 1344
1771,  938,   53,  311,  312
1772, 1080,  468,  463,  464
1773,  932, 1138, 1139,  365
1774,  871, 1263,  188, 1200
1775, 1209,  931, 1139, 1335
1776, 1209, 1139,  667, 1335
1777,  338,  365, 1139, 1083
1778,  672, 1209,  887,  667
1779,  848,  888,   96,   97
1780, 1209,  848,  671,  672
1781,  670,  671,  848,  847
1782, 1235,  214,  959, 1263
1783,  578,   75,    1,  179
1784,  848,  888,  887,  996
1785,  943,  223,  197,  224
1786,  848,  887,   97,  672
1787, 1088,  612,  625,  624
1788,  493,  498,  857,  856
1789, 1051, 1231,  284, 1233
1790, 1230, 1232, 1052, 1231
1791, 1277, 1319,  198,   31
1792,  181,  580,   11,   10
1793, 1305,   24,   23,  562
1794, 1186, 1079,  312,  286
1795,  980, 1183,  232,  206
1796, 1233, 1231,  284,  285
1797,   18,   75,  179,    1
1798,  290,  180,   18,  179
1799, 1179, 1186, 1187, 1181
1800, 1179, 1181, 1076, 1182
1801, 1183,  232,  259,  258
1802, 1200, 1201,  216,  190
1803,  944,  948,  945,  946
1804, 1106,    9,  181,  179
1805, 1302,  945,  997,  912
1806, 1284, 1283, 1303,  335
1807,  881,  895, 1303, 1310
1808, 1204,  295,  268,  269
1809, 1256,  997,  945, 1247
1810,  945,  912, 1303, 1310
1811, 1048,  292,   72,   73
1812, 1303,  912,  335,   95
1813,  881, 1303,   95, 1310
1814, 1132,   65,  523,  528
1815,  905, 1000,  127, 1003
1816,   11,  182,  580,  181
1817,  578,    9,  179,    1
1818, 1000, 1003, 1002,  126
1819, 1006, 1000, 1002,  744
1820,  998, 1003,  990,  905
1821, 1248,  789, 1269,  784
1822, 1066,  799,  798,  794
1823, 1246, 1248,  781,  786
1824, 1212,  184,  954,  183
1825, 1270, 1269, 1075,  783
1826,  986, 1074, 1269, 1207
1827, 1248, 1074, 1269,  986
1828,  952,  578,   75,  573
1829, 1083,  363, 1137,  996
1830,  957,  568,   74,   73
1831,  931, 1083,  887, 1139
1832, 1216,  183,  182,   13
1833, 1140,  415, 1247, 1137
1834,  212,   14,  184,  186
1835, 1137, 1334,  416, 1138
1836, 1154,  187,  213,  186
1837, 1202,  624,  637,  636
1838,  949,  582,  581,  577
1839,   44,   43, 1035, 1264
1840, 1030, 1264, 1037, 1035
1841,  933,  109,  658,  110
1842,  455,  460,  456,  457
1843,   19,  183,   13,    2
1844, 1104, 1264,  457, 1037
1845, 1264, 1035,   44, 1037
1846, 1082, 1264, 1191, 1030
1847, 1108,  183,  185,  182
1848, 1085,  150,  149,  837
1849, 1190, 1198, 1078, 1079
1850, 1080, 1193,   52,   53
1851,  457,  460,  456,  461
1852, 1191,  462,  461, 1192
1853,  143,  453, 1104, 1077
1854, 1279, 1277,  941, 1320
1855, 1190, 1192, 1191, 1194
1856, 1104, 1038, 1093, 1077
1857, 1238, 1030, 1195, 1192
1858, 1238,  453, 1104,  454
1859, 1104,  143, 1093,  144
1860,  955,  180,  179,  185
1861, 1154,  213,  212,  186
1862, 1238, 1192,  459,  454
1863, 1312,  435, 1297,  117
1864,  433, 1177,  434, 1176
1865, 1177,  434, 1176, 1312
1866, 1296, 1177,  118,  703
1867,   15,  238,  934,   16
1868, 1296,  118, 1312,  117
1869, 1263,  214,  187,  188
1870,  869, 1177, 1296, 1299
1871, 1154,  212,  213,  239
1872, 1311, 1293, 1312, 1297
1873, 1212,  212,  184,  186
1874, 1311, 1176, 1312, 1293
1875, 1204, 1304,  269,  243
1876,  958,   74,   75,  290
1877, 1056, 1234, 1204, 1049
1878, 1263, 1200,  871, 1235
1879, 1056, 1258, 1153, 1333
1880,   22, 1258,  873,  189
1881,  188, 1200,  189,  871
1882, 1199,  242, 1200,  216
1883, 1055, 1199, 1058,  918
1884,  886,  823,  170,  818
1885, 1234, 1200,  241, 1235
1886, 1216,  582,   13,   12
1887,  182,  581,   12,   11
1888, 1212,    2,   14,  183
1889,  872,  188, 1263,  187
1890,  953,  582,  949,  577
1891, 1004, 1271, 1308,  989
1892, 1286,  348, 1017, 1019
1893, 1286, 1017,  348,  322
1894, 1286, 1308,   81,  321
1895, 1271, 1308,  321,  320
1896, 1212,   19,    2,  183
1897, 1272,  371, 1273, 1274
1898, 1272, 1170,  344, 1171
1899, 1204,  269, 1304,  295
1900, 1214, 1319,  225, 1278
1901, 1299,  708,  703,  704
1902, 1272,  344, 1170,  345
1903, 1274, 1171,  370, 1163
1904, 1274,  395,  422, 1158
1905, 1158, 1163, 1274,  395
1906, 1338,  926,  297,  271
1907,  981, 1276,  630,  907
1908, 1056, 1234, 1049, 1048
1909,  957,   73,  291,  292
1910,  850,  975,  849,  973
1911,  905,  749,  754,  753
1912,  903,  904,  602,  844
1913,  853,  884,  852,  882
1914,  981,  641, 1064,  882
1915, 1024,  647,  646,  634
1916,  981, 1064,  641,  642
1917,  872,   20,  953,  577
1918, 1048,   73,  563,  568
1919,  981,  629,  907,  630
1920,  971,  616,  907,  629
1921, 1259, 1061,  557,  556
1922, 1096,  613,  626,  625
1923, 1298, 1325,  513,  514
1924, 1320, 1324, 1298, 1327
1925, 1320, 1298,  513,  508
1926,  292,  957, 1048,  956
1927, 1203,  191,  218,  217
1928, 1201, 1203,  217,  190
1929, 1240,  504, 1239,  509
1930, 1203,  190,  191,  217
1931, 1240,  504,  880, 1239
1932, 1235, 1200,  871, 1056
1933, 1320, 1321, 1279, 1278
1934, 1240, 1321, 1323,   61
1935, 1258,  190,  189,   22
1936,  979,  962,  896,  961
1937, 1203,   23,   24,  191
1938,  867,  962,  999,  857
1939,  954,  183,  184,  185
1940,  924, 1203,  192,  218
1941,  212,   15,  184,   14
1942,  965,  961,  962,  979
1943, 1088,  638,  637,  625
1944, 1200,  215,  242,  241
1945,  963,  911,  970,  967
1946, 1027,  978,  490, 1054
1947,  963,  965,  969,  964
1948, 1115,  740,  735,  736
1949,  880,  498,  857,  499
1950, 1009,  747,  746,  742
1951, 1083,  996, 1140,  887
1952, 1224,  980, 1184, 1052
1953,  950, 1235, 1215,  957
1954, 1140, 1334,  441,  415
1955,  550,  917,  546,  545
1956,  933, 1334,  417,  443
1957, 1231,  284,  285,  311
1958, 1235,  215,  241,  214
1959, 1334, 1138,  417,  416
1960,   38,  980, 1224,  897
1961, 1209, 1189, 1140,  931
1962, 1182,  480,  475,  476
1963, 1200,  215,  189,  216
1964, 1203,  218,  191,  192
1965,  482, 1184,   40,  477
1966,  978,  897,  487, 1224
1967, 1154,  239,  934,  212
1968,  927,  939,  932,  931
1969,  938,  310, 1230, 1231
1970, 1320,   61, 1240,  508
1971, 1224,  486,  481,  482
1972,  932,  417,  933, 1138
1973,  794,  799,  795, 1065
1974,  927,  936,  937,  930
1975, 1183,  233,  206,  207
1976,  936,  939,  657,  100
1977,  100,  936, 1145,  101
1978,  896,   37,  897,   38
1979, 1099, 1229,  542,  541
1980,  193,  920,  194, 1097
1981, 1008,  746,  751,  750
1982, 1210, 1230,  478,  483
1983,  930,  651,  936,  656
1984,  923,  193,  194,  220
1985, 1119, 1122,  649,  648
1986,  937,  936,  657,  656
1987, 1286,  998, 1228, 1019
1988, 1007, 1286,   81,   82
1989, 1053, 1232, 1052, 1230
1990, 1129,  540,  535,  536
1991,   39,  206, 1184,  980
1992,  979,  898,  897,  980
1993, 1053,  480,  484,  479
1994, 1271,  319,  320,  346
1995,   27,   28,  542, 1229
1996, 1224,  487,  482,   39
1997, 1142, 1341,  351,  350
1998, 1272, 1170,  989, 1271
1999, 1188, 1340,   40,   41
2000, 1017,  374, 1015, 1019
2001, 1007,   81, 1308,  752
2002, 1117,  732,   85,  737
2003, 1325,  514,  518,  513
2004, 1112,  735, 1115,  734
2005, 1116,  729,  724,  725
2006, 1017, 1010,  323, 1267
2007, 1073,  593,  158,  159
2008,  386, 1284, 1222, 1302
2009, 1338,  296,  297,   68
2010, 1102,  273,  299,  272
2011, 1307, 1339, 1330, 1309
2012,  944,  948,  673,  678
2013,  389, 1247,  996,  997
2014, 1317,  196,  960,  195
2015,  196,  195,  222,  960
2016, 1131, 1325, 1326,  941
2017,  997,  912,  362,  361
2018, 1109, 1239, 1287, 1327
2019, 1048,   73,   72,  563
2020, 1284,  997,  361,  912
2021,  945,  996,  847,  946
2022, 1073,  159,  594,  593
2023, 1317,  960, 1345, 1316
2024, 1134, 1133,  122, 1329
2025, 1119,  929,  654,  930
2026,  927,  931,  937,  939
2027,  939,  100,  936, 1145
2028, 1119,  930,  654,  649
2029, 1320, 1321,   61,   62
2030, 1120, 1091, 1144,  419
2031, 1091, 1144,  419,  418
2032, 1232, 1332,   57,   56
2033,  932, 1144, 1091,  417
2034,  940,  222,  249,  248
2035, 1091, 1144,  418,  417
2036,  932,  391, 1144,  417
2037,  935,  939, 1145, 1144
2038, 1051,  283,  257,  284
2039, 1316, 1344, 1160,  248
2040,  928,  937, 1335,  660
2041, 1320,  508,   62,   61
2042, 1030, 1190, 1031, 1029
2043, 1028,  263, 1031, 1034
2044, 1082, 1031, 1030, 1190
2045, 1028, 1035,  211,  237
2046,  878,  967,  507,  502
2047, 1278,  251, 1322,  277
2048,   43, 1035, 1264, 1082
2049, 1339,  332,  331,   91
2050,  858,   60,  498,  503
2051, 1034, 1082,  210,  236
2052, 1240,  509,  508,  504
2053, 1035,  210, 1082,   43
2054, 1223,  333,   92,   93
2055,  964,  965,  308, 1232
2056,  964,  961,  256,  255
2057,  963,  961,  964,  255
2058,  969,  306,  307,  856
2059,  969,  306,  279,  280
2060,  964,  965,  307,  308
2061,  959,  240,  213,  214
2062, 1215,  959, 1263, 1235
2063,  950,  959,  934, 1154
2064,  934,  180,  955,  954
2065,  950,  956, 1235,  957
2066, 1110,  279,  253,  280
2067,  968,  227,  967,  228
2068,  869, 1296, 1293, 1289
2069, 1235,  956,  266, 1234
2070,  239,  934,  212,  238
2071, 1100, 1300,  919,  921
2072,  999, 1054,  489,  488
2073, 1097,  193,  924,   26
2074, 1298,  509,  514,  513
2075, 1102, 1160,  247,  246
2076,  481, 1224, 1053,  486
2077,  920, 1098, 1097, 1099
2078,  923, 1102,  926,  246
2079, 1102, 1344,  299,  273
2080, 1278,  251,  224,  225
2081, 1102,  247, 1344,  273
2082,  867,  496,  500,  495
2083, 1277, 1328, 1319,   32
2084, 1027,  978,  492,  491
2085, 1228, 1003, 1019,  998
2086, 1271, 1228, 1286,  998
2087,  989, 1273, 1228,  998
2088, 1280, 1277,  941, 1279
2089, 1321,  278,  304,  277
2090,  225, 1214, 1322,  252
2091, 1189,  669,  668,  664
2092, 1228, 1019,  399,  373
2093, 1140,  996, 1247,  946
2094, 1189, 1211,  663,  668
2095,  964,  282,  281,  255
2096,   64,   65, 1132,  300
2097,  970,  203,  202,   35
2098, 1228, 1019,  373,  347
2099, 1280, 1319,  224,  198
2100, 1001, 1013, 1011, 1141
2101, 1014,  126, 1003,  426
2102,  990, 1003,  998, 1019
2103, 1015,  425, 1003, 1019
2104,  970,   36,  203,   35
2105, 1014,  125, 1002,  126
2106,  922,  301,  274,  275
2107, 1277,   30,  527,   31
2108,  943,  942,  940,  223
2109, 1015, 1019,  400,  399
2110, 1283,  334, 1284,  360
2111, 1017,  375, 1015,  374
2112, 1015, 1019,  374,  400
2113, 1003,  990, 1000, 1001
2114,  197,   30, 1345,  198
2115, 1010, 1115,  741, 1009
2116,  844,  600,  588,  601
2117, 1014,  400, 1015,  401
2118,  963,  911,  879,  962
2119,  217, 1201,  216, 1199
2120, 1203, 1201,   23,  190
2121, 1203, 1305,   24,   23
2122,  250,  942, 1279, 1280
2123, 1055, 1063, 1060, 1057
2124, 1227,  556,  552,  557
2125,  942,  223,  224,  250
2126, 1224, 1053,  486,  978
2127,  924, 1203,  218,  925
2128, 1055, 1058, 1057, 1061
2129, 1259, 1057,  555,  560
2130, 1203, 1199,  217,  925
2131, 1315,  316,  317,  343
2132,  868,  709,  865, 1299
2133, 1296, 1290,  699,  698
2134,  869, 1313,  868, 1299
2135,  868,  714,  908,  865
2136,  207, 1185,  234,  208
2137, 1157, 1315,  343,  342
2138,  875,  866,  868,  908
2139,  859,  868,  865,  870
2140,  876,  717,  875,  716
2141,  859,  875,  876,  874
2142, 1020, 1074, 1254, 1021
2143, 1164, 1167,  776, 1253
2144,   76, 1166, 1315,  317
2145, 1020, 1022,  977, 1023
2146, 1246, 1073,  159,  160
2147, 1246, 1205,  787,  159
2148, 1254,  595, 1021, 1073
2149, 1254,  595, 1073,  160
2150, 1255,  316, 1315,  342
2151,  342,  343,  316, 1315
2152, 1246, 1254,  160,  782
2153,  947,  113,  948,  678
2154,  946, 1208, 1189, 1140
2155, 1217,  895,  891,  892
2156,  946,  112,  111,  668
2157,  669,  847,  946,  674
2158, 1218,  411,  412,  438
2159,  899,  902,  906,  900
2160, 1328,  517,   32,  522
2161,   31,  522, 1277,   32
2162, 1280, 1277, 1319,  198
2163,  966,  283, 1051, 1232
2164,  901, 1249,  906, 1285
2165,  522, 1277,   32, 1328
2166,  899,  901, 1285,  604
2167,  900,  901,  591,  157
2168, 1328, 1319,   32, 1327
2169,  906,  907, 1285, 1276
2170, 1043, 1042, 1040, 1050
2171,  906, 1276,  981,  907
2172,  899, 1285,  906,  907
2173,  457, 1192, 1104,  455
2174,  536, 1099, 1229, 1128
2175, 1131,  520, 1336,  525
2176, 1301, 1316, 1344, 1160
2177, 1301, 1128, 1130, 1317
2178, 1301, 1128, 1129, 1126
2179, 1317, 1128,  537, 1229
2180, 1080,   53,   52,  463
2181, 1098, 1229, 1317,   28
2182, 1242,  471,  466,  467
2183, 1262,  614, 1095,  601
2184,  877, 1087,  612,  613
2185, 1096,  612, 1088, 1087
2186,  846, 1095,  843,  844
2187, 1040, 1042, 1088, 1092
2188, 1034,  236,  237,  263
2189, 1085, 1092,  150, 1090
2190, 1262,  627, 1095,  614
2191,  886,  170,  638,  639
2192, 1095,  600,  877,  843
2193,  889,  815,  814,  810
2194,  940,  249,  276,  275
2195, 1093, 1178,  838,  143
2196, 1101, 1094,  148,  842
2197,  211, 1037, 1036,   44
2198,  942,  940,  223,  249
2199, 1252,  620,  619,  607
2200,  907,  629,  616,  617
2201, 1104, 1077, 1030, 1038
2202, 1101, 1093, 1094,  841
2203, 1089,  148,  149,  583
2204, 1104, 1192,  454,  455
2205, 1038, 1101, 1265, 1036
2206, 1312,  117,  118,  434
2207,  842,  841,  146, 1101
2208,  941,  942,  943, 1280
2209,  180,   17,  934,  290
2210,  901,  592,  591,  157
2211,  249,  276,  250,  942
2212,  934,  954,  184,  180
2213, 1028, 1038, 1030, 1029
2214, 1056, 1234, 1048, 1235
2215, 1093,  143, 1077, 1178
2216, 1104, 1093,  145,  144
2217, 1038, 1101, 1093, 1094
2218, 1126,  922,  300,  274
2219,  985, 1073,  159, 1205
2220,  940,  275,  274,  248
2221, 1249, 1251, 1206, 1207
2222, 1206, 1074, 1251, 1252
2223, 1207, 1269,  986, 1066
2224, 1205, 1248, 1246,  786
2225,  162, 1075,  163,  783
2226, 1075,  163,  783, 1269
2227,  215, 1200,  189,  188
2228, 1275, 1075, 1269,  163
2229,  212,  238,  934,   15
2230, 1216,  582, 1212,  183
2231, 1248,  986, 1269,  789
2232, 1249,  900,  984,  901
2233, 1204,  241, 1200,  242
2234, 1200,  216,  242,  215
2235, 1216,  183, 1212,  954
2236, 1190, 1198, 1237, 1236
2237,  383,  382, 1294,  356
2238, 1190, 1197, 1236, 1187
2239, 1236, 1237,  234,  235
2240,   65, 1132,  300, 1126
2241, 1345,   29,  532,   30
2242, 1316, 1317, 1130, 1345
2243, 1301, 1316, 1126, 1344
2244,   64,   63,  922, 1132
2245, 1340,  208, 1236, 1185
2246,  922,  301,   63,   64
2247, 1236,  208,  234, 1185
2248,  940,  275,  248,  249
2249,  940,  249,  222,  223
2250, 1034,  236, 1031, 1082
2251, 1235,  240,  241,  267
2252, 1160,  248,  247,  221
2253, 1317,  537,  532,   29
2254,  209, 1082,  210,   42
2255, 1300,  921,  298,   67
2256,  923, 1098,  194,  920
2257, 1326,  941,  922, 1132
2258, 1336,  525,  520,  521
2259,  868,  711,  716,  715
2260, 1049,  293,  294,   71
2261, 1059, 1338,  916,   69
2262, 1325, 1328, 1320,  941
2263, 1079, 1198, 1237, 1190
2264,  867,  879,  962,  857
2265,  896,   37,  911,  492
2266,  896,  961,  962,  911
2267, 1324,  517, 1328,  516
2268, 1320,  513, 1326,   62
2269, 1000, 1003,  126,  127
2270, 1304,  243,  270,  269
2271,  941, 1343, 1131, 1336
2272, 1214, 1109, 1318, 1327
2273,  941, 1130, 1343, 1345
2274, 1002, 1001, 1014, 1003
2275, 1189,  669, 1208,  668
2276,  884,  640,  169,  639
2277,  887,  672,   98,   97
2278, 1014, 1002, 1003,  126
2279, 1003,  990,  905, 1000
2280,  887,  672,  667,   98
2281, 1298, 1239,  510,  509
2282,  967,   34,  202,  201
2283, 1277, 1319,   31,   32
2284,  608, 1073, 1021,  595
2285, 1228, 1003,  998, 1018
2286, 1140,  946, 1211, 1189
2287,  928,  655,  937,  660
2288, 1319,   32,  199,   31
2289, 1209,  666, 1335,  667
2290, 1321,  277, 1322,  278
2291, 1060, 1057,  554,  555
2292,  968,  253,  227,  254
2293,  925,  218,  219,  245
2294, 1110,  253,  254,  280
2295, 1063, 1049,   71,  558
2296,  223,  222,  940,  943
2297,  969,  254, 1110,  968
2298,  968,  254,  227,  228
2299, 1241, 1063, 1049, 1057
2300, 1241, 1049,  558,  563
2301,  926,  297,  271,  298
2302,   70, 1049,   71, 1063
2303,  987, 1008, 1005,  751
2304,  387,  997,  361, 1284
2305, 1284,  334,  361,  360
2306,  725,  908,  909,  721
2307, 1326, 1279, 1321,  303
2308,  335,  334,  361, 1284
2309,  270, 1338, 1304,  296
2310, 1300,   66,  533,   67
2311, 1055, 1049, 1059, 1063
2312, 1100, 1102, 1301, 1300
2313, 1049, 1057, 1055, 1056
2314,  639,  882,  640,  627
2315, 1222,  386,  385,  359
2316, 1284,  387,  360,  361
2317,  204, 1174,   37,   36
2318, 1278,  277,  250,  251
2319, 1055, 1204, 1056, 1199
2320,  943, 1316,  940, 1130
2321, 1247,  112,  946,  948
2322, 1124, 1310,  680,  675
2323,  895,  881, 1123, 1124
2324, 1342, 1341,  351, 1142
2325,  909, 1155, 1114,  913
2326, 1328,  522,  521,  517
2327,  944, 1124,  679,  674
2328, 1214,  225,  226,  252
2329, 1310,   96,  848,  888
2330,  943,  223,  196,  197
2331, 1135,  723,  728,  123
2332,  983,  975,  906, 1065
2333,  848, 1208, 1209,  670
2334, 1342,  404,  377,  378
2335, 1188, 1340, 1184,   40
2336, 1184,   39,   40,  207
2337, 1140, 1247,  415,  441
2338,  945, 1124,  847, 1310
2339, 1340,  208,  207,   40
2340, 1209,  671,  848,  670
2341,  987, 1004, 1005, 1308
2342, 1184, 1225,  477,  482
2343,  847,  669, 1208,  670
2344, 1111,  735,  730,  731
2345,  734, 1115, 1113,  739
2346, 1342,  403, 1142,  377
2347,  980,   38,  206,  205
2348, 1079,   52,   53,  312
2349,  980,  231,  205,  232
2350,  379, 1156, 1175,  353
2351,  741,  736,  740, 1115
2352, 1115,  735,  740,  739
2353, 1183,  232,  206,  233
2354, 1042, 1087, 1088, 1092
2355, 1035,   43,   44,  211
2356,  859,  860,  869,  861
2357,  860, 1177,  869,  861
2358,  869, 1176,  863, 1293
2359,  900,  157,  802,  797
2360, 1176,  381,  863,  382
2361,  739, 1006,  740, 1115
2362, 1046, 1081, 1094, 1040
2363, 1047, 1032, 1266,  635
2364, 1113,  734,  733,  729
2365, 1341, 1011, 1117, 1314
2366, 1047, 1202, 1088,  637
2367, 1114,  913, 1341, 1118
2368, 1135,  122,  723,  123
2369, 1043, 1047,  828,  833
2370,  921,  297, 1338,  926
2371, 1111,  732,  736,  731
2372, 1007, 1286, 1308,   81
2373,  915,  919,  916, 1338
2374,  921,  926, 1102,  298
2375, 1112,  729,  730,  734
2376,  915,  923,  920,  926
2377, 1198,  262,  261,  235
2378,  192, 1227,   24, 1203
2379,  917,  924, 1226,  920
2380,   42, 1236,  209, 1082
2381,  542,   28,  537, 1229
2382, 1100, 1099, 1103, 1129
2383, 1317,  537,   28, 1229
2384,  541, 1229,  537,  536
2385, 1342,  404, 1173,  403
2386,  924,  918,  917, 1226
2387,  542, 1229,  537,  541
2388,  917,  550, 1062, 1060
2389, 1022, 1071, 1164, 1070
2390, 1071, 1022, 1150, 1072
2391, 1255, 1026, 1165,    5
2392,  583,  148,   45, 1265
2393, 1150, 1072, 1022, 1157
2394, 1156, 1329,  866, 1155
2395,  919,  539,  544,  543
2396, 1150, 1164, 1071, 1167
2397, 1241, 1056, 1153, 1057
2398, 1217,  892,  891, 1290
2399, 1259, 1305,  562,  557
2400,  215, 1263, 1235, 1200
2401, 1331, 1218,  437,  411
2402,  955,  290,  179,  180
2403,  959,  239,  266,  265
2404,  934,  958,  265,  959
2405,  895,  881, 1283, 1223
2406, 1309,  385,  384,  358
2407,  359, 1309,  332,  358
2408,  872,   20,   21,  188
2409, 1220, 1339,  332, 1309
2410,  924,  219,  925,  218
2411,  890,  892,  895,  894
2412,  934,  264,   16,  238
2413, 1262,  628,  627,  615
2414, 1063, 1049, 1057, 1055
2415, 1330, 1261, 1290, 1297
2416,  934,  238,  265,  264
2417, 1339, 1330, 1220, 1288
2418,  904,  844,  845,  589
2419,  926,  272,  245,  246
2420,  333,  359, 1223,  332
2421, 1100, 1103,  919,  539
2422, 1100, 1129,  534, 1127
2423, 1301, 1316, 1317, 1130
2424,  920,  915,  917,  924
2425,   58,  856,  307,  306
2426, 1100,  534, 1129,  539
2427, 1329, 1342, 1156,  378
2428,   59,   58,  306,  856
2429, 1128, 1317,  537,  532
2430,  968,  255,  254,  228
2431,  498,   59,  856,  493
2432, 1301, 1128, 1126, 1130
2433, 1010,  323,   83,  324
2434, 1156, 1175,  378,  379
2435, 1103, 1129, 1099,  540
2436,  920,  923, 1102,  926
2437,  979, 1054, 1027,  999
2438, 1129, 1126, 1127, 1301
2439, 1329,  405, 1175,  431
2440, 1156,  352,  379,  378
2441,  864, 1175,  861,  431
2442, 1175,  406,  861,  405
2443,  380,  860,  862,  406
2444,  862, 1175,  379,  380
2445, 1320, 1277, 1328, 1319
2446,  965,  856,  307,   58
2447,  858,   59,  498,   60
2448,  859,  862,  875,  874
2449, 1102,  273,  272,  246
2450, 1344,  300,  299,  273
2451,  969,  307,  306,  280
2452,  922,  302,  301,  275
2453,  914,  875,  866,  862
2454, 1174,  203,  204,  230
2455,  961,  256,  229,  230
2456, 1053, 1182, 1210, 1052
2457,   37,  911, 1174,  896
2458, 1174,  204,  203,   36
2459, 1076,  470, 1194,  471
2460, 1180,  473, 1181,  474
2461, 1210, 1180,  478, 1230
2462, 1065,  986,  795,  794
2463, 1214, 1320, 1278, 1321
2464, 1230,   56,  309,   55
2465,  970,  203, 1174,  229
2466, 1180,   55,  473,  478
2467,  899,  907,  603,  604
2468,  229,  230,  203, 1174
2469,  938,  473,   54,  468
2470,  983,  906,  902,  900
2471,  883,  641, 1064,  167
2472, 1188,  476,  471,  472
2473,  906,  903,  981,  972
2474, 1190, 1236, 1191, 1082
2475, 1096,  626,  627,  639
2476,  425,  424,  127, 1018
2477, 1007, 1010, 1267,  742
2478,  994, 1018,  128,  424
2479,  903,  849, 1262,  882
2480,  853,  885,  889,  851
2481,  981,  643, 1064,  642
2482,  987, 1005,  756,  751
2483,  127,  424,  128, 1018
2484,  998,  990, 1308,  989
2485,  990, 1308,  987, 1005
2486,  605, 1206,  606,  593
2487, 1005, 1308,  757,  752
2488,  988,  993,  995,  992
2489, 1307, 1331,  410,  384
2490, 1042, 1085, 1090, 1092
2491,  872,  187,   20,  188
2492,  365, 1159, 1139,  932
2493, 1215, 1153, 1235,  871
2494, 1138,  417,  390,  391
2495,  493,  965,  856,  999
2496,  872, 1215,  951,  949
2497,  872, 1263,  188,  871
2498,  872, 1215, 1154, 1263
2499,  366,  365, 1144, 1159
2500, 1159,  339,  366,  365
2501,  919,   68,   67,  538
2502,  903,  981, 1064,  882
2503,  353, 1156, 1175,  914
2504,  903,  971, 1262,  602
2505, 1125, 1130, 1131, 1132
2506,  844,  845,  589,  588
2507,  964,  308,  281,  282
2508, 1339, 1220,  332,   91
2509,  849,  846,  844,  882
2510, 1323,  278,  305,  304
2511, 1316, 1301, 1317,  960
2512, 1317,  196,   28,   29
2513,  205,  898,  231,  980
2514, 1306,  195, 1098,  960
2515,  850,  846,  854,  845
2516, 1321,   61,   62,  303
2517,  903,  971,  907,  981
2518, 1287,  512,  507,   34
2519, 1306,  221,  195,  960
2520, 1226,  552, 1062,  551
2521,  221,  222,  195,  960
2522,  915,  918,  925, 1338
2523, 1340, 1184,   40,  207
2524, 1097,  924,  193,  920
2525,  541, 1103,  546,  542
2526, 1103,  541, 1099,  542
2527, 1323,  279,  278,  252
2528, 1175, 1156, 1329,  866
2529, 1250, 1206,  606,  605
2530, 1206,  594, 1073,  607
2531,  937,  661,  656,  657
2532, 1340, 1185,  207,  208
2533, 1231,  938,  310,  311
2534,  969,  280,  281,  307
2535, 1207, 1249, 1275, 1066
2536,  904,  590,  602,  589
2537, 1285, 1250,  631,  618
2538, 1015,  399,  400,  426
2539, 1251,  631, 1250,  632
2540, 1275, 1207, 1075, 1024
2541, 1073,  607,  608, 1025
2542, 1150, 1072, 1157, 1158
2543, 1155,  914,  913,  866
2544,  158, 1206,  901,  593
2545, 1195,  458,   52,   51
2546, 1031,  288,  262,  289
2547, 1035, 1031, 1082, 1034
2548, 1184,   39,  207,  206
2549, 1074, 1205,  986, 1248
2550, 1162, 1148,  318,  317
2551, 1251, 1250, 1252,  632
2552, 1275, 1251,  644, 1276
2553, 1251,  632, 1024,  645
2554,  966,  256,  283,  282
2555, 1285, 1276,  630,  631
2556,   24, 1227,  557, 1305
2557, 1206,  985, 1073,  158
2558, 1029,  288,  289,  315
2559, 1262,  615,  627,  614
2560, 1259,  561,  557,  562
2561, 1206,  901, 1249,  985
2562, 1236, 1187, 1185, 1237
2563,  562, 1305,   24,  557
2564, 1242, 1197,  467, 1191
2565, 1187, 1181, 1194, 1076
2566, 1238,  458,   51,  453
2567, 1028,  211,   46,  237
2568, 1032,   48,  622,   49
2569, 1197,   42,   41,  472
2570, 1044,  831,  835,  830
2571, 1190, 1195, 1030, 1192
2572, 1093,  839,  143,  838
2573, 1232,  309,  308,  282
2574,  938, 1181,  468, 1193
2575,  984, 1065,  986,  795
2576, 1190, 1194, 1187, 1193
2577,  904,  603,  602,  590
2578, 1186, 1193, 1181,  938
2579, 1086, 1050, 1094, 1040
2580,  799,  974, 1065,  798
2581, 1028, 1033,   47, 1036
2582, 1033, 1032,   48,  622
2583, 1032, 1266, 1033, 1081
2584, 1036, 1033,   47, 1260
2585,  956,  292,  265,  266
2586, 1258,   23,  190,   22
2587, 1131, 1130,  941, 1132
2588,  925,  244,  245,  271
2589,  677,   96,  848, 1310
2590, 1186,  311,  285,  312
2591, 1334,  441,  415,  442
2592, 1303,   95, 1310,  912
2593, 1107,  581,  580,  576
2594, 1068,  394, 1158,  420
2595, 1204,  269,  268,  242
2596, 1039,  850,  810,  811
2597,  843,  151,  152,  586
2598,  887,  931, 1209, 1140
2599,  952,  949, 1216, 1107
2600,  871,   21,  189,  188
2601,  336,  362,  363,  888
2602,  243,  925,  270,  244
2603,  994, 1273, 1169,  993
2604, 1150, 1245, 1072, 1158
2605, 1244, 1072, 1245,  768
2606, 1245, 1072,  131,  768
2607, 1158,  394, 1157,  395
2608, 1245, 1169,  130,  422
2609, 1150, 1166, 1255, 1164
2610, 1313,  710,  868,  709
2611, 1299,  865,  713,  709
2612,  870,  865,  713, 1299
2613, 1304,  243,  925,  270
2614,  843,  586,  152,  587
2615,  120,  864,  713,  870
2616,  939,  100, 1159,   99
2617, 1133,  864,  865,  718
2618, 1133,  865,  719,  718
2619, 1095,  613,  877,  600
2620, 1139,  339,  338,   98
2621,  877,  843,  600,  587
2622,  877, 1092, 1090,  585
2623, 1321, 1323,  304,  278
2624,  877,  611, 1092,  598
2625,  943,  196,  223,  222
2626,  933,  931, 1138, 1334
2627,  611, 1088, 1087, 1092
2628,  933,  109,  929,  658
2629, 1125, 1132,  523,  528
2630, 1139,  339,   99, 1159
2631,  928, 1189,  664,  665
2632,  939,  662,  657,  100
2633, 1130,  941, 1343, 1131
2634,  929,  654,  659,  658
2635,  969,  306,  305,  279
2636, 1311,  408, 1176,  382
2637,  926,  272,  271,  245
2638, 1228,  372,  399,  398
2639, 1131, 1325,  520,  519
2640, 1132,  518,  523,   64
2641, 1131,  941, 1336, 1325
2642, 1143,  447,  451,  104
2643, 1143,  367,  104,  393
2644, 1209, 1139,  887,  667
2645, 1091,  108,  443,  444
2646, 1107,  951,  576,  575
2647,  937,  662,  661,  657
2648,  326,  914,  913, 1155
2649, 1326, 1279,  303,  302
2650, 1047,  636,  637,  172
2651,  951,  576,  572,  949
2652,  874,  875,   88,  862
2653,  939,  662,  100,   99
2654,   60,  305,  858,   59
2655, 1016,  402,  401,  375
2656, 1146,  452,  447,  446
2657, 1139,  887,  667,   98
2658,  869, 1177,  870,  861
2659, 1213,  967, 1287, 1110
2660,  100,  340, 1159,   99
2661, 1296, 1177,  703, 1299
2662, 1139,  662,   99,  667
2663, 1177,  433,  870,  861
2664,  936,  657,  652,  101
2665,  922,  275,  276,  302
2666, 1177,  434,  118,  433
2667,  965,  307,   57,   58
2668, 1082, 1236,  209,  236
2669, 1079, 1080, 1193,   52
2670, 1168,  763,  995,  764
2671, 1181,  938,  468,  473
2672, 1078,  314, 1196,   51
2673, 1131, 1326,  518, 1132
2674, 1079, 1078,  313,  287
2675, 1236, 1198,  236, 1082
2676, 1078, 1029, 1196,  314
2677, 1029, 1190, 1031, 1078
2678,  898,  205,  896,   38
2679, 1320, 1328, 1327, 1319
2680,  978, 1054,  485,  490
2681, 1068,  420,  132,  133
2682,  966, 1232,  964,  282
2683,  898,  231,  980,  966
2684,  175, 1253, 1268,  781
2685,  979,  896,  966,  961
2686, 1076,  475,  471,  476
2687, 1231,  310, 1232,  284
2688,  615,  628,  616,  971
2689, 1179, 1186, 1181,  938
2690,  966,  256,  961,  230
2691, 1032, 1029, 1028,  289
2692, 1001, 1017, 1015, 1019
2693,   18,  290,   17,  180
2694,  966,  964,  256,  282
2695, 1078, 1029,  314,  288
2696, 1029, 1196,  314,  315
2697,  516, 1325,  520, 1328
2698,  477, 1184,   40, 1188
2699,  966,  257, 1051,  283
2700, 1233, 1185,  259,  233
2701,  889,  813,  809,  814
2702, 1028, 1031, 1030, 1035
2703,   51, 1078, 1195, 1196
2704, 1328,  520, 1336, 1325
2705, 1188, 1340,   41, 1197
2706, 1076, 1197, 1194, 1187
2707, 1029,  288, 1031,  289
2708, 1092,  585,  598,  597
2709,  289, 1028,  263, 1031
2710,  315, 1196, 1077, 1029
2711,  481,  477, 1225,  482
2712, 1228,  998, 1273, 1018
2713, 1188, 1225,  477, 1184
2714, 1238, 1192, 1195,  459
2715, 1181,  473,  468,  469
2716,  233, 1185,  259,  260
2717, 1043, 1044, 1045, 1042
2718, 1079,  313,  312,  286
2719, 1186, 1079, 1187, 1193
2720, 1186,  312,  938,  311
2721, 1245, 1169,  763,  130
2722,  983, 1065,  984,  801
2723, 1196,  314,  315,   50
2724, 1078,  287,  288,  314
2725, 1166,   77,  317,   76
2726, 1150, 1071, 1244, 1167
2727, 1282,  596,  597,  609
2728, 1150, 1245, 1244, 1072
2729, 1077,  315,   49,    4
2730,  995, 1169,  758,  763
2731, 1190, 1080, 1078, 1195
2732, 1244, 1149,  769,  764
2733,  958,  291,  264,  265
2734, 1071,  773, 1072,  768
2735,  995,  994,  758, 1169
2736, 1147, 1149,  993, 1243
2737,  993, 1273, 1171,  989
2738,  972, 1064,  976,  883
2739,  899,  901,  604,  591
2740, 1285,  605, 1250,  618
2741, 1204,  268, 1234,  241
2742,  971,  628, 1262,  615
2743,  956,  265,  292,  291
2744,  803,  982,  166, 1064
2745,  849,  850,  973,  845
2746,  938,  312, 1193,   53
2747,  845,  588,  153,  154
2748, 1285,  617,  907,  604
2749,  934,  239,  265,  238
2750, 1081, 1038, 1265, 1260
2751, 1322,  225,  251, 1278
2752,  951,  873,  572,  571
2753, 1081, 1038, 1093, 1094
2754, 1194,  465,  470,  469
2755, 1028, 1032, 1033, 1038
2756, 1328, 1336,  521,  522
2757, 1060,  549,  550,  554
2758, 1037, 1028,  211, 1036
2759, 1033, 1028,  263,  289
2760, 1029,  289, 1032,  315
2761,  958,  290,  291,   74
2762, 1028, 1031, 1035, 1034
2763,  190, 1201,  216,  217
2764, 1030, 1264, 1035, 1082
2765, 1307, 1294, 1339,  357
2766, 1078, 1031, 1029,  288
2767, 1204,  295,  294,  268
2768, 1060,  916,  549,  548
2769, 1338, 1304,  296, 1059
2770,  970,  228,  202,  229
2771, 1070, 1167,  775,  774
2772,  924, 1227,  192, 1203
2773, 1274, 1171, 1163, 1158
2774, 1304,  295,  269,  296
2775,  137, 1022, 1023, 1255
2776, 1022, 1164, 1026, 1253
2777,  957,   73,   74,  291
2778, 1333,  561, 1259,  562
2779,  924,  192,  193,  219
2780, 1227,  557,   25,   24
2781,   26, 1097,  547,  552
2782, 1071, 1167,  774,  769
2783, 1059,  295,  296,   69
2784,  860,  863, 1176,  381
2785, 1244, 1167,  769, 1149
2786, 1127,   65,  528,   66
2787,  192,  924,  193,   25
2788, 1067,  132, 1072,  773
2789,  919,  544,  917,  916
2790, 1067, 1070, 1068, 1069
2791,  658, 1211,  663, 1189
2792, 1059,  295,   69,   70
2793, 1139,   99,  339,   98
2794, 1067, 1068,  132,    8
2795,  878,  506,  501,  502
2796,  899,  591,  590,  156
2797, 1177,  708,  870,  119
2798,  859, 1175,  866,  862
2799,  715,  868,  714,  908
2800,  869, 1296, 1177, 1312
2801, 1330, 1296, 1289, 1293
2802, 1188, 1182, 1225, 1184
2803, 1057,  559,  554,  555
2804,  713, 1299,  708,  870
2805,  859,  875,  866,  868
2806,  868,  714,  865,  709
2807,  864,  861,  870,  120
2808, 1195,  463,  458,  459
2809, 1080,  469,  468,  464
2810, 1328,  941, 1325, 1336
2811, 1231, 1230, 1232,  310
2812,  958,  952,   75,   74
2813, 1344,  300,  273,  274
2814, 1215, 1048, 1161,  957
2815, 1191,   42,  467,   43
2816,  872,  953, 1215,  949
2817,  277,  278,  251, 1322
2818, 1323,  278, 1322,  252
2819, 1128,  532,  536,  531
2820,  864,  865,  718,  713
2821, 1040, 1265, 1094, 1089
2822, 1079,   52,  312,  313
2823, 1159,  366,  339,  340
2824, 1101,  148, 1265,    3
2825,  550, 1062,  551,  917
2826, 1277,  941, 1328, 1336
2827, 1038, 1029, 1032, 1077
2828, 1233,  285,  259,  286
2829, 1259,  560,  555,  556
2830,  609, 1266, 1260, 1033
2831, 1101, 1265, 1036,    3
2832, 1302, 1222,  412, 1257
2833, 1098,  195,   27,   28
2834, 1158,  395,  421,  394
2835, 1265,   45, 1036,    3
2836,   45, 1260,  583, 1265
2837,  970,  961,  255,  229
2838, 1265, 1036,   45, 1260
2839,  490,  999,  489,  494
2840,  845,  812,  973,  154
2841,  966,  961,  896,  230
2842, 1019,  399,  373,  400
2843, 1320,  508,  513,   62
2844, 1132,  518,   64,   63
2845,  850,  812,  845,  817
2846,  903,  845,  904,  844
2847, 1010,  323, 1267,   83
2848,  854,  851,  850,  816
2849, 1003,  126,  425,  426
2850,  846,  854,  845,  843
2851, 1323,  278,  279,  305
2852,  970,  229,  202,  203
2853,  904,  845,  154,  589
2854,  895,  881, 1303, 1283
2855,  903,  981,  972, 1064
2856, 1027,  492,  497,  496
2857,  850,  845,  812,  973
2858,  820, 1105,  855,  819
2859,  964,  282,  255,  256
2860, 1318,   32,   33,  200
2861,  855,  815,  819,  851
2862,  816,  851,  855,  854
2863,  844,  849,  903,  845
2864,  853,  849,  889,  883
2865, 1012,  124,  427,  428
2866,  851,  885,  814,  819
2867, 1022, 1255, 1026, 1164
2868, 1075,  977, 1024, 1020
2869, 1078,  287,  314,  313
2870, 1256, 1257,  413,  439
2871, 1069, 1075,  647,  161
2872, 1010,  737,  741,  736
2873, 1150, 1022, 1255, 1157
2874, 1150, 1162, 1158, 1157
2875, 1175,  405, 1329,  378
2876,  862,  328,  329,  355
2877, 1021, 1074, 1254, 1073
2878, 1020, 1022, 1253, 1070
2879,  972,  903, 1064,  883
2880,  886, 1088,  638, 1041
2881, 1088,  637,  624,  625
2882, 1210, 1230,  483, 1332
2883, 1321,  303,  304,   61
2884,  846,  852, 1095,  882
2885, 1318,  199,   32,  200
2886, 1191,   43, 1264, 1082
2887,  981,  629,  642,  641
2888,  902,  155,  973,  807
2889,  882,  981,  628,  971
2890,  948,  946,  673,  112
2891,  903,  971,  882, 1262
2892, 1325,  518, 1131, 1326
2893,  846,  852,  855,  843
2894,  971,  615, 1262,  602
2895, 1255,    5, 1165,   76
2896,  883,  903, 1064,  882
2897,   45,   46, 1036,  211
2898, 1032,  315,  289,   49
2899, 1087, 1095,  613,  877
2900,  947,  439, 1256,  113
2901, 1247,  945,  946,  996
2902,  613, 1087,  612, 1096
2903,  879,  969,  857,  858
2904, 1027,  911,  497,  492
2905, 1332, 1054,  965,  488
2906,   58,  493,  965,  856
2907, 1057,  560,  565,  564
2908, 1106,  578,  179,   75
2909, 1302,  413, 1256, 1257
2910,  965,   57, 1332,  488
2911, 1232,  965,   57, 1332
2912, 1102,  273,  246,  247
2913,  912,  335,  361, 1284
2914, 1222,  360,  386,  359
2915, 1054,  965,  488,  999
2916,  294, 1049,   71,   70
2917,  969,  307,  965,  856
2918, 1060,  549,  554,  553
2919, 1226,  917,  546,  551
2920, 1129,  529,  530,  534
2921, 1063,  553,  554,  558
2922,  924, 1227,   25,  192
2923, 1087,  855, 1084, 1045
2924, 1084, 1045,  825,  826
2925,  819, 1105,  855,  885
2926,  853,  883,  889,  813
2927,  854,  816,  850,  817
2928,  846,  855,  854,  843
2929, 1103,  540,  544,  539
2930, 1300,  298,  299,   66
2931, 1086,  841, 1050,  836
2932, 1044, 1085, 1086,  831
2933,  853,  882,  883,  884
2934, 1044, 1050,  834,  835
2935, 1343,  526,  530,  525
2936, 1085,  150, 1092,  149
2937, 1300,   67,  298,   66
2938, 1126,   65,   66,  299
2939, 1125,  528,  523,  524
2940, 1281,  584, 1092,  597
2941,  886,  884,  853,  169
2942, 1277, 1336,  527, 1343
2943,  877,  585, 1090,  586
2944, 1325,  515,  520,  519
2945,  276,  250, 1279,  277
2946, 1213,  227,  226,  200
2947,  982,  981, 1276,  643
2948, 1281,  584,  597,  596
2949, 1162, 1148,  317, 1166
2950, 1147, 1151,  766, 1243
2951, 1147,  993, 1151, 1243
2952,  850,  815,  811,  816
2953, 1131,  524,  519,  520
2954, 1162, 1170,  318, 1148
2955, 1163, 1158, 1157,  395
2956, 1147, 1149,  766,  771
2957, 1134,  429,  430,  122
2958,  548, 1060, 1055,  553
2959, 1056, 1200, 1258, 1201
2960, 1328,  516,  521,  520
2961,  268, 1234,  241,  267
2962, 1234, 1204,  294,  268
2963, 1234,  294, 1049,  293
2964, 1240,   61,  503,  508
2965, 1309,  332,  358, 1339
2966, 1063, 1057,  559,  554
2967, 1338, 1059,  916,  918
2968, 1095,  614,  627,  626
2969, 1271, 1286,  347,  321
2970,  991, 1151,  761,  762
2971, 1325,  515,  519,  514
2972, 1170, 1004,   79, 1151
2973, 1004, 1151,  762,   79
2974,  461, 1192,  466, 1242
2975, 1319,  198,  199,  225
2976, 1179, 1187, 1076, 1181
2977, 1191,   43, 1082,   42
2978,  878,  506,  505,  501
2979, 1080, 1181,  468,  469
2980, 1192, 1195,  459,  460
2981,  981,  641,  628,  629
2982, 1076,  476, 1182,  475
2983,  635, 1178, 1047, 1032
2984, 1031, 1029,  289, 1028
2985, 1033,  609, 1266,  622
2986, 1131, 1336, 1343,  525
2987, 1028, 1033,  263,   47
2988, 1006, 1001, 1002, 1000
2989,   48,  289, 1032, 1033
2990,  266, 1234,  267, 1235
2991, 1240,   61,   60,  503
2992,  890,  689,  688,  684
2993,   54,  473,  938,   55
2994,  933,  929,  108, 1091
2995, 1104,  454,  453,  144
2996, 1180,  479,  478,  474
2997, 1215, 1263,  871, 1235
2998, 1326,   62,  302,  303
2999, 1340, 1197, 1187, 1236
3000, 1092,  598,  610,  597
3001, 1318,  200,  226,  199
3002, 1316, 1160,  960,  222
3003,  943,  197,  198,  224
3004, 1345,  198,  943,  197
3005, 1283,  333,  360,  359
3006, 1170, 1337, 1271,  319
3007,  990, 1005,  987, 1008
3008, 1261, 1297,  436,  116
3009, 1211,  933,  658,  110
3010, 1223,  333,  332,   92
3011, 1308,  987, 1004,  989
3012, 1284,  360,  387,  386
3013,  989,  988,  993,  994
3014, 1317, 1345,  532, 1343
3015, 1277,  941, 1336, 1343
3016, 1126,  922,  940, 1130
3017, 1277, 1345,  941, 1343
3018, 1230,  478,  483,   56
3019, 1196,   51,  314,   50
3020, 1077,    4,  143,   50
3021,  905,  749,  753,  748
3022,  943, 1316, 1130, 1345
3023, 1301, 1098, 1099, 1128
3024, 1192,  462,  461,  457
3025, 1283,  334,  360,  333
3026, 1089,  584, 1092, 1281
3027, 1010,  324,   83,   84
3028, 1281,  583, 1265, 1089
3029,  460, 1192,  457,  455
3030, 1281, 1089,  584,  583
3031, 1202, 1266,  623,  636
3032, 1043, 1042, 1045, 1041
3033, 1317,  195,   28,  196
3034, 1230,  309,  310,   55
3035, 1126, 1344, 1316,  274
3036, 1345,  527,   30,  532
3037, 1040, 1265, 1281, 1260
3038, 1029,  315, 1032, 1077
3039,  633,  632, 1024, 1252
3040, 1281, 1092,  610,  597
3041, 1032,  635, 1178,   49
3042, 1038, 1036, 1260, 1033
3043, 1047,  635, 1266,  636
3044, 1150, 1162, 1157, 1166
3045, 1315,   76,  316, 1255
3046, 1157,  369,  342,  343
3047,  966,  231, 1051,  257
3048, 1150, 1157, 1255, 1166
3049, 1023,  136, 1255,  342
3050, 1168, 1244, 1245,  768
3051, 1238,  453,   51,   50
3052,  111, 1247,  112,  946
3053, 1170, 1148, 1151,   78
3054, 1266,  636,  635,  623
3055, 1126,  300, 1344,  274
3056, 1272, 1171, 1273,  989
3057, 1195,  465,  464,  460
3058, 1151, 1243,  761,  766
3059, 1148,  317, 1166,   77
3060, 1147, 1243,  766, 1149
3061, 1183, 1185, 1233,  233
3062,  919,  543,  916,   68
3063,  928,  660,  664,  659
3064, 1255,  136,  137,  342
3065, 1131, 1128, 1125,  529
3066, 1209,  665, 1335,  666
3067, 1006,  746,  745,  741
3068,  937,  657,  939,  662
3069, 1126, 1300,   66, 1127
3070, 1295,  650,  140,  139
3071,  994, 1169,  129,  758
3072,  993, 1171, 1170,  989
3073,  929,  933,  658,  659
3074, 1150, 1244, 1168, 1149
3075,  933,  417, 1091,  443
3076,  896,  911, 1174,  961
3077,  928, 1335,  665,  660
3078,  878,  911,  967,  502
3079,  896,  230,  204,  231
3080,  848,  677,   97,   96
3081, 1255,  316,  137,    5
3082,  864,  430, 1329,  431
3083, 1027,  962,  911,  896
3084,  991,  756,  761,  760
3085, 1270, 1069,  778, 1075
3086, 1064,  167,  642,  166
3087, 1072,  773,  132,  768
3088, 1218, 1217, 1261,  894
3089, 1148,   77,  318,  317
3090, 1162, 1170, 1171,  344
3091, 1152, 1167,  771,  776
3092,  396,  395,  422, 1274
3093, 1331, 1261, 1297,  436
3094, 1218, 1261,  437,  894
3095,  335, 1284,  912, 1303
3096, 1302, 1303,  895,  945
3097, 1286,  322,  348,  321
3098, 1324, 1298, 1239,  510
3099, 1279,  303,  302,  276
3100, 1325,  514,  519,  518
3101,  922,  300, 1132, 1126
3102, 1326,  302,   62,   63
3103,  405, 1329,  378,  404
3104, 1148,   78,  318,   77
3105, 1007, 1308, 1005,  752
3106, 1162, 1157,  343,  369
3107, 1017, 1286, 1007,  322
3108, 1271,  346,  320,  347
3109, 1004, 1271, 1170, 1337
3110, 1015, 1019,  399,  425
3111, 1000,  126, 1002,  743
3112, 1000,  749,  748,  744
3113,  862,  354,  328,  355
3114, 1271, 1228,  372,  346
3115, 1228,  425, 1003, 1018
3116, 1021,  137,  136,  608
3117,  870,  433,  119,  432
3118, 1337,  320, 1271,  319
3119, 1000, 1002,  744,  743
3120,  782, 1246, 1254,  781
3121, 1065,  799, 1066,  794
3122,  905,  128,  748,  753
3123, 1337,  319,   79,  320
3124, 1065,  794, 1066,  986
3125, 1065,  986, 1249,  984
3126, 1206, 1252, 1251, 1250
3127,  791,  986,  795,  984
3128,  900,  797,  901,  157
3129,  983,  973,  806,  807
3130,  983,  973, 1039,  806
3131, 1178,  635,    4,   49
3132, 1220,  332,   91,   92
3133, 1307, 1330, 1331, 1309
3134, 1220,   91, 1288,  702
3135, 1339, 1288, 1220,   91
3136, 1303, 1284,  912, 1302
3137,   95,  912,   96, 1310
3138, 1286,  321,   81,  322
3139,  690, 1123, 1221,  685
3140,  891,  690, 1123, 1221
3141, 1223,  895,  881, 1221
3142,  890, 1123,  689,  684
3143,  881,   95, 1303,   94
3144,  322,   82, 1267,  323
3145, 1198, 1236,  236,  235
3146, 1321,  277,  304,  303
3147, 1117,  325,  324,   84
3148, 1169, 1273,  423, 1274
3149, 1179, 1231, 1186,  938
3150, 1237,  234,  260, 1185
3151, 1236,  234, 1237, 1185
3152, 1233, 1237,  260, 1185
3153, 1240,  509, 1298,  508
3154, 1131,  525,  524,  520
3155, 1076, 1197,  472,  471
3156,  875,  721,  868,  716
3157, 1330, 1290, 1296, 1297
3158, 1314,  324,  350,  323
3159,  859,  870,  864,  861
3160,  252,  225,  251, 1322
3161,  859,  865,  864,  870
3162,  870,  861,  432,  120
3163,  933, 1211, 1334,  110
3164,  870,  868,  865, 1299
3165, 1017,  322,  323,  349
3166, 1213,  967,  968,  227
3167, 1219, 1289,  701,  702
3168,  967,  502,   35,  507
3169,  869, 1296, 1313, 1299
3170, 1177,  870,  708, 1299
3171,  827,  151, 1090,  832
3172, 1314,  375,  349,  376
3173, 1313,  869,  876, 1292
3174, 1294, 1288, 1291, 1293
3175, 1286,   82,  322,   81
3176, 1183, 1184,  207,  206
3177,  876,  717,  716,  712
3178, 1291, 1292,   89,  874
3179, 1289, 1293, 1292, 1288
3180, 1313,  868,  710,  711
3181,  876,  711, 1292,  712
3182,  860, 1177,  861,  433
3183, 1006, 1008,  744,  745
3184, 1011, 1012, 1114, 1113
3185, 1006,  744, 1002,  739
3186, 1001, 1006, 1141, 1009
3187, 1010, 1141, 1115, 1009
3188,   80, 1337,  320, 1308
3189, 1286,  321,  348,  347
3190, 1137,  416, 1334,  415
3191,  996,  389,  363, 1137
3192,  709, 1299,  708,  713
3193, 1137,  390,  416,  389
3194,  417, 1138,  932,  391
3195, 1339, 1288,  331, 1294
3196, 1228, 1018,  424,  425
3197,  876,  875,   88,  874
3198,  876,  716,  868,  711
3199,  914,  327,  354,  353
3200,  859,  874,  876,  869
3201,  859,  869,  870,  861
3202,  876,   88,  875,  717
3203,  908,  720,  868,  721
3204,  862,  875,   88,  914
3205,  862,   88,  329,  328
3206,  868,  716,  721,  720
3207, 1151,  762,  766,  761
3208,  909, 1116,  725,  726
3209, 1286, 1019,  347,  348
3210, 1256,  997,  414,  413
3211, 1256,  948,  113,  112
3212, 1011, 1009, 1141, 1010
3213, 1314, 1017,  349,  375
3214, 1023,  634,  621,  135
3215, 1012, 1013, 1113, 1011
3216, 1222,  386,  412,  385
3217,  736, 1010, 1115,  741
3218, 1173,  402,  428, 1142
3219,  876,  711,  712,  716
3220,  868,  711,  715,  710
3221, 1139,  931, 1209,  887
3222, 1147, 1152, 1150, 1149
3223, 1010, 1009,  741,  742
3224, 1007,  747, 1009,  742
3225,  870,  432,  861,  433
3226,   82,  322, 1267, 1007
3227, 1068, 1022, 1071, 1072
3228,  980, 1183, 1184, 1052
3229, 1070,  775, 1253,  176
3230, 1167, 1149,  771,  770
3231, 1152, 1164, 1167,  776
3232, 1073,  159,  160,  594
3233, 1152,  771, 1167, 1149
3234, 1020, 1254, 1026, 1021
3235,  177, 1070,  774,  178
3236, 1168,  764, 1244,  768
3237, 1167, 1149,  770,  769
3238,  114,  947,  438,  894
3239,  986,  795,  794,  790
3240, 1218,  894,  437,  438
3241, 1223,  881,  687, 1221
3242,  891,  890,  895, 1123
3243,  947,  895, 1257,  894
3244,  881, 1303, 1283,   94
3245, 1296,  117,  698,  118
3246, 1310,  895, 1303,  945
3247, 1222, 1309,  359,  385
3248, 1302,  412, 1222,  386
3249,  360,  386, 1284, 1222
3250,  945,  997,  996, 1247
3251,  915,  924,  925,  918
3252, 1098,  923, 1160, 1102
3253,  923,  926,  925,  245
3254,  920, 1100,  921, 1102
3255,  915,  923,  926,  925
3256,  872, 1154,   20,  187
3257,  214,  215, 1263, 1235
3258, 1289,  704,  699,  700
3259, 1288,  331,   90,   91
3260, 1234,  267, 1235,  241
3261, 1289,  705,  700,  701
3262,  956, 1048,  292,  293
3263,  696,  701, 1219,  700
3264,  897,  898,   38,  980
3265,  874,  862,   88,  329
3266,  861,  405,  432,  431
3267, 1307, 1339,  358,  357
3268,  896,  966,  898,  979
3269,  966,  964,  961,  256
3270,  284, 1233,  258, 1051
3271, 1232,  283,  284,  310
3272,  961,  896,  230, 1174
3273,  966, 1232,  282,  283
3274, 1310,  682,  681,  677
3275, 1024,  646,  645,  633
3276, 1269,  788,  789,  793
3277, 1341, 1155, 1342,  352
3278, 1296,  703,  699,  704
3279, 1342, 1142,  351,  377
3280, 1142, 1155, 1342, 1341
3281, 1341,  326,   85,  913
3282, 1183, 1233,  259,  233
3283, 1155, 1156,  352,  326
3284, 1117, 1118,   85,  732
3285, 1341,   85, 1118,  913
3286, 1221, 1223,  692,  687
3287, 1017,  348,  349,  375
3288, 1117, 1341,   85, 1118
3289, 1261,  116,  436,  115
3290,  737,  732, 1111, 1117
3291,  922,  940,  276,  275
3292, 1277, 1345, 1343,  527
3293, 1233, 1237,  286,  260
3294, 1345,  532, 1343,  527
3295,  894,  114,  115,  437
3296,  948,  678,  113,  673
3297,  943, 1277, 1345,  941
3298,  827,  826, 1085, 1090
3299, 1131,  529,  525,  530
3300,  950, 1154,  934,  954
3301, 1002,  743,  738,  739
3302, 1013,  733,  738,  125
3303,  222,  940,  943, 1316
3304,   95, 1310,  682,  881
3305,   95,   96,  682, 1310
3306, 1113,  734,  739,  738
3307, 1002,  126,  738,  743
3308,  223,  224,  943,  942
3309, 1059,   70,   69,  548
3310, 1083, 1140,  996, 1137
3311, 1257,  439,  438,  412
3312, 1140, 1137, 1247,  996
3313,  931, 1139, 1335,  939
3314, 1139,  939,   99,  662
3315, 1183, 1233,  258,  259
3316,  984,  796,  791,  792
3317, 1103,  544,  540,  545
3318, 1083, 1137,  363,  364
3319, 1160,  220,  247,  246
3320,  363,  337,  888, 1083
3321, 1139,  667, 1335,  662
3322,  848, 1209, 1140,  887
3323,  339,  365, 1159, 1139
3324, 1209,  670,  665,  666
3325, 1275,  164,  644,  645
3326, 1137, 1138,  390,  364
3327, 1321, 1278, 1322,  277
3328, 1026,  595,    5,  137
3329, 1214, 1318, 1109, 1110
3330, 1110, 1214,  252, 1323
3331, 1209,  671,  667,  672
3332, 1214, 1320, 1240, 1298
3333, 1320, 1298, 1325,  513
3334,  944,  679,  893,  678
3335, 1183, 1233, 1052, 1051
3336, 1323,  305,  858,   60
3337, 1240, 1323,   60,   61
3338,  250, 1279,  277, 1278
3339, 1058, 1305, 1203, 1201
3340,  455, 1101,  145, 1104
3341,  916, 1060, 1055,  548
3342, 1241, 1056, 1048, 1153
3343, 1153, 1057, 1333,  565
3344,  892,  891,  890,  895
3345, 1241, 1063,  558, 1049
3346, 1241,  564, 1057,  565
3347, 1190, 1031, 1198, 1082
3348, 1198, 1237, 1236,  235
3349, 1335,  662,  666,  661
3350, 1079, 1193,   53,   52
3351,  933,  931, 1334, 1211
3352, 1079, 1193,  312,   53
3353, 1164, 1152, 1166, 1165
3354, 1037,   44,  457,    3
3355, 1190, 1191, 1030, 1082
3356,  147,  455,  146,  456
3357,  912,  362,  335,  336
3358, 1237, 1186, 1079, 1187
3359, 1186,  938,  312, 1193
3360, 1023,  342,  368,  136
3361, 1211,  111,  441,  110
3362,  236, 1031, 1082, 1198
3363,  677,  676, 1310,  848
3364, 1051,  232,  980, 1183
3365,  994,  995,  758,  988
3366, 1001, 1006, 1002, 1141
3367,  997,  387,  414,  413
3368,  929,  653,  109,  108
3369, 1083,   97,   98,  338
3370,  990,  998, 1286, 1019
3371, 1279, 1321,  277, 1278
3372,  102,  447,  341,  103
3373,  987,  749, 1008,  750
3374,  988,  758,  754,  992
3375,  994,  424, 1273, 1018
3376, 1015,  426, 1003,  425
3377,  905,  749,  987,  754
3378, 1000,  749,  990,  905
3379,  988,  994,  998, 1018
3380,  994, 1169, 1273,  423
3381,  887, 1083,  996,  888
3382, 1217, 1218, 1261, 1309
3383, 1145,  366, 1159,  340
3384, 1174,  230,  204,  896
3385, 1214, 1320, 1327, 1319
3386, 1091,  444,  445,  107
3387,  848,  676,  671,  672
3388,  947, 1256,  439, 1257
3389, 1159,  932, 1144,  939
3390,  996,  847,  848,  945
3391, 1310,  945,  888,  848
3392, 1123,  684,  685,  689
3393,  652,  101,    6,  446
3394,  978,  490,  485,  486
3395,  881,  682,  681, 1310
3396, 1271,  347, 1228,  346
3397,  362,  996,  363,  888
3398,  937, 1335,  661,  662
3399, 1144,  418,  391,  392
3400,  912,   96, 1310,  888
3401,  189,  190, 1258, 1200
3402, 1241,  558, 1063,  559
3403, 1048,   72, 1049,  563
3404, 1235,  240,  214,  241
3405,  237,  210, 1035,  211
3406, 1258,  562, 1305,   23
3407, 1069,  161,  647,  133
3408,  911,   36,  497,   37
3409,  556, 1061, 1227, 1062
3410, 1255,  316,    5,   76
3411,  966,  230,  231,  257
3412, 1055, 1049, 1204, 1059
3413, 1199, 1203,  217, 1201
3414, 1285,  605,  617,  604
3415,  892, 1290, 1261,  693
3416,  900,  156,  802,  157
3417, 1068,  977,  134,  133
3418, 1268,  176,  780,  779
3419, 1147,   77, 1148, 1166
3420, 1271,  319,  346,  345
3421, 1058, 1061, 1259, 1057
3422, 1162,  343,  344,  370
3423, 1199,  217,  925,  243
3424, 1203,  191,  190,   23
3425, 1199,  925, 1304,  243
3426, 1203,   24,  192,  191
3427, 1172, 1173,  428, 1012
3428, 1172, 1012,  428,  124
3429, 1111, 1141, 1115, 1010
3430, 1016, 1142,  402,  376
3431, 1302,  387,  997,  413
3432,  428, 1142, 1012, 1173
3433, 1233,  259, 1185,  260
3434, 1170,  318,  345,  344
3435, 1329, 1133,  122,  864
3436, 1005,  752,  757,  756
3437, 1134, 1329,  430, 1173
3438, 1329, 1173, 1342,  404
3439, 1170,   79, 1337,  319
3440, 1019,  374,  347,  348
3441, 1117,   85,   84,  737
3442, 1001,  990, 1007, 1019
3443, 1173,  430,  403,  404
3444, 1271,  320,  321,  347
3445, 1228,  399, 1019,  425
3446, 1272,  372,  371,  345
3447, 1342,  377,  351,  378
3448,  917, 1060,  549,  550
3449,  888,  336,  912,   96
3450,  948, 1247,  945,  946
3451, 1274, 1163,  370,  396
3452, 1287, 1239,  878,  507
3453, 1016,  428,  401,  402
3454, 1236,  209,  236,  235
3455,  966,  979,  965, 1232
3456, 1331,  384,  411,  410
3457, 1341,  351,  325,  352
3458, 1311,  409,  435,  408
3459,  910,  875,   87,  722
3460,  867, 1027,  494,  999
3461, 1062,  555, 1061, 1060
3462, 1016,  375,  376,  402
3463,  916, 1060,  917,  918
3464,  969, 1110,  280,  279
3465, 1287,  507,  967,   34
3466, 1287,  967,  201,   34
3467,  970,  967,  202,  228
3468,  754,  988,  753,  758
3469,  969,  254,  968,  255
3470,  330,  357, 1294,  356
3471,  913,   85,   86,  326
3472,  970,   35,  911,   36
3473,  951,  575,  570,  571
3474,  994, 1273,  998, 1018
3475, 1163,  370,  396,  369
3476,  336,   96,  888,  337
3477,  944,  946,  847,  674
3478,  997,  387,  388,  414
3479,  912,  336,  335,   95
3480, 1291,  356,  355,  329
3481,  564, 1153, 1161,  565
3482,  912,  335,  362,  361
3483, 1292,  706,  707,  711
3484,  947,  438,  894, 1257
3485,  979,  999,  965, 1054
3486,  909,  908,  725, 1116
3487,  411,  385, 1218,  412
3488,  987,  750,  751,  755
3489,  330,  331, 1294,  357
3490,  427, 1012, 1013,  124
3491, 1337,   79, 1004,   80
3492,  512, 1287, 1239, 1327
3493, 1154,  954,  950,  953
3494,   99,  340, 1159,  339
3495, 1287, 1327,  512,   33
3496, 1144,  935,  932, 1091
3497, 1048,   72,  292,  293
3498, 1144,  392,  365,  366
3499, 1122,  449,  649,  648
3500,  914,   87,   88,  328
3501, 1318,   33, 1287,  200
3502, 1279,  940,  942,  276
3503, 1127, 1129,  529, 1125
3504,  956,  291,  958,  265
3505, 1279,  277,  303,  276
3506, 1278, 1214, 1322,  225
3507, 1309, 1220, 1223,  332
3508, 1318,   32, 1319, 1327
3509, 1139,  365,  338,  339
3510, 1261,  116,  115,  688
3511, 1214, 1109, 1240, 1323
3512, 1188,  472,   41,  477
3513, 1102,  926,  246,  272
3514,  473,  938,   55, 1180
3515, 1306,  194,  195,  221
3516, 1330, 1293, 1288, 1294
3517, 1217, 1261,  892, 1290
3518, 1188, 1340, 1187, 1184
3519,  551, 1062,  556,  552
3520, 1145,  101,  341,  100
3521,  367,  393, 1143,  366
3522,  872,   21,   20,  577
3523, 1184,   39,  482,   40
3524, 1118,   86,  732,  727
3525,  997,  388,  361,  362
3526, 1134, 1172,  429,  123
3527, 1329, 1133,  866, 1136
3528, 1011, 1314, 1017, 1010
3529, 1237,  260,  234,  261
3530,  991,  761, 1151, 1243
3531, 1340, 1197,   42,   41
3532, 1264,  462,  457,   44
3533,  341,  447,  367,  103
3534, 1231,  311,  310,  284
3535, 1114, 1341, 1155, 1142
3536, 1256,  112,  113,  439
3537, 1111, 1011, 1114, 1141
3538, 1307,  357,  383, 1294
3539, 1010,  742,   84,   83
3540,  928,  931, 1189, 1335
3541,   85,   86,  732, 1118
3542,  947,  945, 1256, 1257
3543, 1186, 1233, 1237,  286
3544,  469, 1181,  474,  470
3545, 1180, 1230,  938,   55
3546, 1045, 1087, 1090, 1084
3547, 1087,  855,  852,  843
3548, 1183,  258, 1051,  232
3549, 1145,  340,  100,  341
3550, 1202,  636, 1047, 1266
3551, 1087,  852,  855,  886
3552,  100, 1159, 1145,  939
3553,  821,  855,  825, 1084
3554, 1095,  844,  601,  600
3555, 1209,  671,  666,  667
3556,  843, 1090,  827,  151
3557,  447, 1143, 1145,  367
3558,  259,  285, 1233,  258
3559,  843,  586, 1090,  151
3560,  446,  102,  101,    6
3561,  877,  843,  586, 1090
3562,  967,  201,  228,  227
3563,   36,  970, 1174,  911
3564, 1213, 1110,  252,  253
3565, 1213,  968,  253,  227
3566, 1146,  447,  102,  446
3567, 1146, 1122, 1120,  452
3568, 1025, 1252,  620,  633
3569, 1074, 1025, 1021, 1020
3570, 1272,  344,  371,  370
3571, 1023,  135,  134,  634
3572, 1062,  556,  552, 1227
3573,  595,  607,  608, 1073
3574, 1157,  369,  368,  342
3575,  992,  759,  754,  755
3576, 1329,  431,  430,  404
3577, 1250,  618,  605,  606
3578, 1068,  977, 1023,  134
3579, 1023,  394,  134,  135
3580, 1023,  136,  368,  135
3581, 1149,  770,  766,  771
3582, 1021,  595, 1026,  137
3583, 1025, 1252,  607,  620
3584, 1252,  619,  606,  607
3585, 1021, 1022, 1023,  137
3586, 1105, 1045,  823,  824
3587, 1162, 1171,  370,  344
3588, 1162,  317,  318,  344
3589, 1039,  973,  811,  806
3590,  853,  884,  168,  169
3591, 1046, 1093,  838,  839
3592, 1041, 1047, 1040, 1088
3593, 1101,  457,  455,  147
3594, 1147,  772,  771,  767
3595, 1138, 1139, 1083,  931
3596, 1007, 1010, 1017, 1267
3597, 1265, 1089,  583,  148
3598, 1253,  782,  781,  174
3599, 1259,  556,  557,  561
3600, 1035, 1037, 1028,  211
3601, 1260, 1265, 1281,  583
3602, 1036,   44,   45,  211
3603, 1142,  350,  377,  376
3604, 1162,  318, 1170,  344
3605,  869, 1292,  863,  874
3606,  862,  863, 1291,  874
3607,  869, 1177, 1299,  870
3608,  925,  243,  217,  244
3609,  862,  863,  381,  355
3610,  356, 1291,  863, 1294
3611, 1294, 1291,  863, 1293
3612, 1217, 1219, 1290,  891
3613, 1339, 1330, 1288, 1294
3614, 1330, 1293, 1289, 1288
3615,  987, 1008,  751,  750
3616, 1228,  373,  399,  372
3617, 1291,  874,   89,  329
3618, 1274,  397,  396,  370
3619,  781, 1246, 1254, 1268
3620, 1254, 1026, 1021,  595
3621, 1254,  782, 1026,  160
3622, 1206,  158, 1073,  593
3623, 1254,  160, 1026,  595
3624,  919,  916,  543,  544
3625, 1320, 1278, 1279, 1277
3626, 1056, 1058, 1201, 1258
3627,  676,  675,  847,  671
3628, 1059,  295, 1204, 1304
3629,  919,  916, 1338,   68
3630, 1246,  160,  159,  787
3631,  985,  158,  797,  792
3632, 1059,  916,  548,   69
3633, 1314,  323,  350,  349
3634, 1026,  595,  160,    5
3635, 1276,  631,  643,  630
3636, 1075,  647,  161,  162
3637, 1170,   78, 1151,   79
3638, 1228,  398, 1273,  372
3639, 1341,  324,  351,  350
3640, 1285,  631,  630,  618
3641, 1170, 1148,   78,  318
3642, 1329, 1342,  378,  404
3643, 1333, 1258,  567,  562
3644, 1026,  782, 1253,  174
3645, 1019,  373,  374,  400
3646, 1026, 1253, 1165,  174
3647, 1286, 1228,  347, 1019
3648, 1165, 1152, 1166,   76
3649, 1140, 1208, 1209,  848
3650, 1118, 1116,  726,  731
3651, 1023, 1157,  368,  342
3652,  946,  669,  673,  668
3653, 1189,  668,  663,  664
3654, 1255, 1166, 1315,   76
3655,  870,  119,  120,  432
3656, 1071, 1070,  774, 1167
3657, 1074, 1246, 1254, 1073
3658,  451, 1120,  419,  445
3659,  749,  744, 1000,  990
3660, 1020, 1246, 1268, 1254
3661, 1143,  366, 1145,  367
3662, 1246, 1020, 1268, 1248
3663,  981,  630,  642,  629
3664, 1091,  418,  419,  445
3665, 1177,  119,  118,  703
3666, 1011, 1142, 1341, 1114
3667, 1314, 1017,  323,  349
3668, 1156,  353,  379,  352
3669, 1016, 1314,  376,  375
3670, 1007,  752, 1005,  747
3671,  862,  353,  354,  380
3672, 1001, 1141, 1011, 1009
3673, 1342,  377,  404,  403
3674,  356, 1294,  383,  357
3675, 1113, 1012, 1114, 1172
3676, 1114, 1117, 1118, 1341
3677, 1111, 1118,  731, 1116
3678, 1175,  380,  406,  379
3679, 1176,  408,  407,  381
3680,  927,  932, 1091,  933
3681, 1013,  738, 1002,  125
3682,  124,  427,  125, 1013
3683, 1333, 1259,  561,  560
3684, 1144,  419,  392,  393
3685,  951, 1161,  569,  573
3686, 1153, 1048, 1161, 1215
3687, 1048, 1235, 1215, 1153
3688, 1055, 1199, 1056, 1058
3689,  957,  568, 1161,  573
3690,  433,  860,  406,  861
3691,  233, 1185,  234,  207
3692, 1234,  956,  266,  293
3693, 1340, 1236,  208,  209
3694,  901,  158,  593,  592
3695, 1340, 1184, 1185, 1187
3696,   73,  568, 1048,  957
3697, 1076, 1197, 1188,  472
3698, 1340, 1236,  209,   42
3699, 1198,  262,  235,  236
3700, 1197,  472,  467,   42
3701,  954,  185, 1108,  183
3702, 1059, 1338,   69,  296
3703, 1126, 1132,  922, 1130
3704,   25,  192, 1227,   24
3705, 1061, 1057, 1060,  555
3706,  926,  271,  925,  245
3707, 1302, 1222, 1283, 1284
3708,  924,  918, 1203,  925
3709,  921,   68, 1338,  297
3710, 1301, 1098, 1160, 1102
3711, 1103,  919,  539,  544
3712, 1049,   72,  293,   71
3713, 1234,  294,  267,  268
3714, 1144,  417,  391,  418
3715,  923,  245,  925,  219
3716,  924,  915,  917,  918
3717, 1103,  546,  542, 1226
3718,  920,  921,  926, 1102
3719, 1059, 1055, 1304, 1204
3720, 1083,   98, 1139,  338
3721, 1211,  663,  111,  110
3722, 1338,  925,  271,  270
3723, 1137,  364,  390,  363
3724, 1220,  702,  697,   92
3725,  918, 1227, 1226,  924
3726, 1259,  561,  560,  556
3727,  336,  337,  888,  363
3728, 1079,  286, 1237,  287
3729, 1228, 1018, 1273,  424
3730, 1334,  443,  416,  417
3731, 1317, 1345,   29,  532
3732, 1117, 1341, 1314,  324
3733,  994,  423,  424,  128
3734, 1001, 1003,  990, 1019
3735, 1062,  555,  551,  556
3736, 1317, 1128, 1229, 1098
3737,  786, 1205,  790,  791
3738, 1345, 1343, 1317, 1130
3739,  196, 1317,  960, 1345
3740,  935,  936, 1145,  939
3741, 1093,  144,  143,  839
3742, 1195,   52,  458,  463
3743, 1116,  725,  730,  729
3744, 1004,  991, 1151,  989
3745,  863,  382,  355,  356
3746, 1137,  389,  363,  390
3747,  874,  862,  329, 1291
3748,  854,  817,  153,  822
3749,  910,  726,  722,  727
3750,  991, 1243,  760,  761
3751, 1004, 1308,   80,  757
3752, 1147,  766, 1151,  767
3753, 1138,  364,  391,  390
3754,  894, 1218,  895, 1257
3755, 1168,  764, 1243, 1149
3756, 1004,  757, 1005, 1308
3757, 1243,  991,  992,  993
3758, 1145,  101, 1146,  341
3759, 1243,  766, 1149,  765
3760, 1243,  765, 1149,  764
3761,  922,  302,   63,  301
3762,  528, 1132, 1126, 1125
3763,   94,  881,  687, 1223
3764, 1083,  364,  363,  337
3765, 1326,  922,  302,   63
3766,  844,  588,  600,  587
3767, 1345,   30,  197,   29
3768, 1137, 1247,  996,  389
3769,  908,  715,  719,  714
3770, 1289,  706, 1313,  705
3771, 1138,  364,  365,  391
3772, 1312,  118, 1177,  434
3773,  900,  156,  157,  591
3774, 1240, 1298,  509, 1239
3775, 1298, 1325,  514,  515
3776, 1091,  444,  107,  108
3777, 1248,  986,  789,  790
3778,  985,  159,  158,  792
3779,  593,  901,  605, 1206
3780,  880,  505, 1239,  504
3781,  503,  504,  880, 1240
3782, 1109, 1239, 1240,  858
3783, 1285,  630,  617,  618
3784,  994, 1273,  424,  423
3785, 1245,  422,  130,  421
3786, 1013,  125,  124,  733
3787,  507,  512, 1287, 1239
3788, 1068,  420,  134,  394
3789, 1109,  878, 1287, 1239
3790, 1014,  401,  427,  400
3791, 1142,  403,  376,  377
3792, 1044,  830,  834,  829
3793, 1324, 1239,  511,  510
3794,  878,  911,  502,  501
3795,  880,  500,  878,  505
3796,  991,  755,  756,  760
3797,  864,  121,  713,  718
3798, 1287,  878,  967,  507
3799,  833, 1178,  838, 1046
3800, 1142,  376,  403,  402
3801,  849,  889,  850,  851
3802, 1043,  828, 1047, 1041
3803, 1043,  828, 1045,  829
3804, 1086, 1050,  841, 1094
3805, 1044, 1042, 1085, 1045
3806, 1307, 1339, 1294, 1330
3807, 1281, 1092, 1089, 1040
3808,  443,  933, 1334,  109
3809, 1085, 1045,  826,  831
3810, 1000,  743,  127,  126
3811,  997,  388,  387,  361
3812,  149,  584,  150, 1092
3813,  882,  628,  641,  640
3814, 1290, 1297,  116,  117
3815, 1097,  924, 1227,   26
3816, 1142,  350,  351,  377
3817,  738, 1141, 1113, 1013
3818,  914, 1156, 1155,  326
3819,  910,   86,  914,  913
3820, 1219,  695,  891, 1221
3821,  909, 1114, 1118,  913
3822, 1114, 1173, 1136, 1172
3823,   86,  914,  913,  326
3824,  325, 1341,  326,   85
3825, 1214, 1320, 1298, 1327
3826, 1307,  357,  384,  383
3827, 1323, 1110,  858,  305
3828,  879,  969,  858, 1110
3829,  942,  249,  223,  250
3830, 1318, 1319,   32,  199
3831, 1319,  198,   31,  199
3832, 1324,  516, 1325,  515
3833, 1328,  517, 1327,   32
3834, 1228,  425,  398,  399
3835, 1327,   33,  517,  512
3836, 1219, 1290,  891,  695
3837, 1126,  940,  274, 1316
3838, 1261,  116, 1290, 1297
3839,  914,  327,  328,  354
3840,  698, 1290,  117, 1296
3841, 1289, 1313,  704,  705
3842, 1296,  704, 1299,  703
3843, 1219, 1288, 1330, 1289
3844, 1217, 1330, 1219, 1220
3845,  891,  695, 1290,  694
3846,  890,  893, 1123,  684
3847, 1008,  744,  745,  749
3848, 1217, 1223, 1309, 1220
3849,  332, 1220, 1223,   92
3850, 1245,  131,  421,  130
3851,  893,  895, 1124,  945
3852, 1015,  426,  425,  399
3853, 1172,  123,  428,  429
3854, 1329, 1173,  404,  430
3855, 1223, 1221,  692,  697
3856,  987, 1005,  757,  756
3857,  744, 1008,  990,  749
3858, 1015,  374,  375,  401
3859, 1307, 1331,  384, 1309
3860,  891,  694,  892,  689
3861,  462, 1264, 1192, 1191
3862, 1242, 1192,  466, 1194
3863,  892,  689,  694,  693
3864,  483, 1053,  479, 1210
3865,  481, 1053, 1182,  480
3866,  860,  407,  406,  380
3867,  979, 1053, 1232, 1052
3868,  902,  904,  973,  155
3869, 1332, 1054,  488,  483
3870, 1060,  917,  918, 1062
3871, 1055,  916,  918, 1060
3872,  969,  255,  281,  254
3873, 1230, 1332,   56,  483
3874,  964,  282, 1232,  308
3875, 1188,  472, 1197,   41
3876,  869, 1176, 1293, 1312
3877, 1172, 1013, 1113, 1012
3878, 1188,   41,   40,  477
3879, 1136,  866,  908, 1133
3880, 1198,  262, 1031,  288
3881, 1065,  798, 1066,  799
3882,  904,  844,  589,  602
3883,  974,  976, 1064,  803
3884,  894,  688,  115,  683
3885,  912,  336,   95,   96
3886,  974,  799,  804,  803
3887,  922, 1126,  940,  274
3888, 1066, 1065,  986, 1249
3889, 1285,  901,  899,  906
3890, 1275, 1066,  982,  164
3891,  945,  847,  848, 1310
3892,  981,  643,  642,  630
3893, 1323,   60,  304,  305
3894, 1056, 1333, 1259, 1258
3895, 1058, 1259, 1061, 1305
3896, 1241, 1161, 1048,  563
3897, 1230, 1232,  309,   56
3898, 1139,  939, 1159,   99
3899,  932, 1091,  933,  417
3900, 1120,  450,  451,  452
3901,  484,  483, 1053,  479
3902, 1097,   27, 1098,  194
3903, 1256,  440,  439,  413
3904, 1091,  445,  444,  418
3905, 1100, 1300, 1127,  533
3906,  888, 1083,  996,  363
3907, 1120,  447,  452,  451
3908, 1334,  442,  415,  416
3909, 1200,  189,  190,  216
3910,  432,  861,  431,  120
3911, 1256,  112, 1247,  948
3912,  365,  391, 1144,  932
3913, 1145,  366, 1144, 1159
3914,  440, 1256,  112, 1247
3915,  932, 1139,  939, 1159
3916,  391, 1138,  932,  365
3917, 1111, 1011, 1010, 1117
3918, 1112, 1114, 1135, 1172
3919, 1111, 1118, 1114, 1117
3920, 1256,  440,  413,  414
3921,   65,  528, 1132, 1126
3922, 1333,  565,  560,  561
3923, 1091,  417,  418,  444
3924, 1019,  347,  374,  373
3925, 1117, 1010,  737,   84
3926, 1101,  457,    3, 1037
3927,  938,   54,   55,  310
3928,  451,  104,  105,  393
3929, 1111,  736,  735,  731
3930, 1299,  704,  709,  708
3931, 1113, 1111, 1141, 1115
3932, 1111, 1114, 1118, 1116
3933,  865,  709,  714,  713
3934, 1112, 1116,  730,  729
3935,  739,  738, 1141, 1113
3936,  862,  406, 1175,  380
3937, 1289,  701,  706,  705
3938, 1134, 1173,  430,  429
3939, 1172, 1173,  429,  428
3940, 1114, 1012, 1142, 1173
3941,  932,  931, 1139, 1138
3942,  905,  127, 1000,  748
3943,   50,  315, 1196, 1077
3944,  854,  821,  817,  822
3945, 1091,  417,  444,  443
3946, 1080,  463, 1195,  464
3947, 1104, 1038, 1037, 1101
3948,  652,  936, 1146,  448
3949, 1238,   50, 1077,  453
3950, 1078, 1080,   52, 1195
3951, 1079,  313, 1078,   52
3952,  308, 1232,  965,   57
3953, 1121,  648,  107,  450
3954,  231,  232,  980, 1051
3955, 1051,  257,  231,  258
3956,  979,  965, 1232, 1332
3957, 1047,  833,  172,  828
3958, 1054,  999,  489,  490
3959, 1332, 1210, 1053,  483
3960,  896,  231,  205,  898
3961,  105,  451,  419,  106
3962, 1169,  129,  758,  130
3963, 1329, 1155, 1136,  866
3964, 1068,  133,  134,  420
3965,  908,  724,  720,  725
3966, 1068, 1022, 1072, 1157
3967, 1112,  734,  730,  735
3968,  727,  913, 1118,   86
3969, 1147, 1152, 1166, 1150
3970, 1041, 1045, 1087, 1042
3971, 1047, 1041,  171,  637
3972,  886, 1045, 1041,  823
3973,  993, 1245, 1171, 1169
3974, 1287, 1213,  227,  967
3975,  868,  710,  715,  714
3976,  149,  837, 1089, 1085
3977, 1228, 1019, 1003,  425
3978, 1049,   72,   71,  558
3979, 1030, 1196, 1029, 1077
3980, 1319,  198,  225,  224
3981, 1228, 1273,  398,  424
3982, 1318,  225,  199,  226
3983, 1006,  745,  744,  740
3984,  853,  886,  885,  852
3985, 1087, 1096,  886, 1088
3986,  852,  884,  853,  886
3987, 1202, 1092,  611,  610
3988, 1202, 1088,  637,  624
3989,  886,  852,  855,  885
3990, 1088, 1040, 1202, 1047
3991, 1015,  400,  374,  401
3992, 1172,  728,  733,  124
3993,  877, 1092,  585,  598
3994, 1016,  428,  427,  401
3995, 1081, 1032, 1266, 1047
3996,  625, 1096,  612, 1088
3997,  905, 1018, 1003,  127
3998,  905,  998, 1003, 1018
3999,  987,  754,  750,  755
4000,  905, 1000,  749,  748
4001, 1170,  989, 1004, 1151
4002,  970,  967,   35,  202
4003, 1247,  440,  111,  112
4004, 1098, 1160,  960, 1301
4005,  945, 1310,  888,  912
4006, 1016, 1314, 1142,  376
4007, 1017,  374, 1019,  348
4008, 1014, 1015, 1016,  401
4009, 1139,  662, 1335,  939
4010, 1128, 1229, 1098, 1099
4011, 1296,  117, 1312, 1297
4012, 1231,  311, 1186,  938
4013,  864,  121,  120,  713
4014, 1016,  401, 1015,  375
4015, 1071, 1070, 1167, 1164
4016,  781,  175,  780, 1268
4017,  779, 1268,  784,  780
4018, 1068, 1072,  420, 1158
4019, 1206, 1073,  594,  593
4020,  864,  122,  430,  121
4021, 1336,  526, 1343,  525
4022,  862,  380,  354,  381
4023, 1343,  531,  526,  527
4024,  946,  673,  669,  674
4025, 1025,  634, 1024,  633
4026,  922, 1130,  941,  940
4027, 1270,  779,  784,  783
4028, 1177,  118,  119,  433
4029, 1022, 1069, 1068, 1070
4030,  914,   87,  875,   88
4031, 1070, 1167, 1253,  775
4032, 1254, 1026,  782, 1253
4033, 1275,  163,  645, 1024
4034, 1269, 1066,  793,  794
4035, 1157,  394,  368,  395
4036, 1269, 1066,  163,  788
4037, 1205,  986,  790,  791
4038,  163, 1075, 1024, 1275
4039,  979,  965, 1332, 1054
4040, 1213,  968, 1110,  253
4041,  963,  967,  970,  968
4042,  231,  966,  896,  230
4043, 1230, 1232,   56, 1332
4044,  966,  898,  979,  980
4045, 1253, 1165,  174,  175
4046,  961,  229,  256,  255
4047,  961, 1174,  230,  229
4048,  925,  218,  245,  244
4049, 1069, 1075,  161,  778
4050,  991,  762,  761,  757
4051, 1150, 1148, 1162, 1166
4052, 1163,  395, 1157,  369
4053, 1152,  777,   77,   76
4054, 1271, 1308,  989,  998
4055,  860,  380,  381,  407
4056, 1274,  423,  396,  397
4057, 1138,  417,  416,  390
4058,  674, 1124,  847,  944
4059,  994,  129,  128,  753
4060, 1162, 1171, 1163,  370
4061,  989, 1004, 1271, 1170
4062, 1169,  129,  422,  423
4063, 1128,  531, 1343,  532
4064, 1316,  248, 1160,  222
4065, 1344, 1160,  248,  247
4066, 1339,  331,  358,  357
4067,  920,  919, 1100, 1103
4068, 1102, 1160, 1344,  247
4069,  947,  113,  438,  439
4070,  848,  672, 1209,  887
4071, 1102,  926,  272,  298
4072,  587,  843,  600,  844
4073, 1300, 1102, 1344,  299
4074, 1208,  669, 1189,  665
4075,  891,  690,  695,  694
4076, 1288,   90,  331,  330
4077, 1339,  331, 1288,   91
4078, 1292,  712,  711,  707
4079, 1169,  422,  129,  130
4080,  881, 1124, 1310,  680
4081,  901,  604,  592,  605
4082,  886,  170,  639,  169
4083, 1245,  130,  763,  131
4084, 1261,  437,  115,  436
4085, 1331, 1218,  411,  385
4086, 1307,  383,  384,  410
4087, 1331,  410,  436,  409
4088,  869, 1176, 1312, 1177
4089,  434,  408, 1312,  435
4090, 1295,  930,  650,  651
4091,   76, 1165, 1255, 1166
4092, 1163,  369,  396,  395
4093, 1083,   97,  338,  337
4094, 1223,  334,  333,   93
4095, 1261,  693,  116,  688
4096, 1158,  422,  421,  395
4097, 1190, 1195, 1078, 1196
4098, 1188, 1340, 1197, 1187
4099, 1243,  764,  759,  760
4100, 1233,  260,  286,  259
4101, 1069,  778,  161,  178
4102, 1085, 1086,  832,  837
4103, 1077, 1178,    4,   49
4104, 1031,  289,  262,  263
4105, 1198,  287, 1079, 1237
4106, 1104, 1077, 1093,  143
4107, 1077, 1178,  143,    4
4108,  145, 1101,  841, 1093
4109, 1032, 1266,  635,  622
4110,  147, 1101,  457,    3
4111, 1170, 1004, 1337,   79
4112,  669, 1189,  665,  664
4113,  984,  791,  796,  795
4114, 1032,   49, 1077,  315
4115,  393,  451,  419,  105
4116, 1236, 1190, 1187, 1237
4117,  845,  154,  817,  812
4118, 1083,  338,  364,  337
4119,  515,  516, 1325,  520
4120,  622, 1032, 1266, 1033
4121, 1238, 1104, 1192,  454
4122, 1035,   44, 1037,  211
4123, 1245,  421, 1158,  422
4124, 1264,  457, 1037,   44
4125,  950,  952,  957,  951
4126,  914,  326,  327,  353
4127,  950, 1215,  951,  957
4128, 1095, 1096,  882,  852
4129, 1158,  420,  394,  421
4130, 1161,  564,  569,  568
4131, 1306,  960, 1160,  221
4132, 1072,  131,  132,  420
4133, 1160,  220,  923, 1306
4134, 1306, 1098,  195,  194
4135, 1344,  247,  274,  273
4136, 1021,  136,  621,  608
4137, 1070, 1167, 1164, 1253
4138, 1152,  776,  777, 1165
4139, 1098,   28, 1317,  195
4140,   87,   86,  327,  914
4141,  943,  960,  222, 1316
4142,  994,  758,  129,  753
4143,  993, 1151, 1170, 1148
4144, 1160,  248,  221,  222
4145, 1301, 1126, 1300, 1344
4146,  943, 1345,  197,  196
4147, 1317, 1345,  196,   29
4148, 1341,  351,  324,  325
4149, 1344,  274,  247,  248
4150, 1028, 1035, 1030, 1037
4151,  840, 1093,  841, 1050
4152, 1271,  345,  372, 1272
4153, 1047, 1178,  635,  173
4154, 1135,  724,  728,  723
4155, 1007,  746, 1009,  747
4156,   46, 1036,  211, 1028
4157, 1192, 1191, 1242,  461
4158, 1303,   95,  335,   94
4159, 1238, 1030, 1077, 1196
4160, 1047, 1041,  828,  171
4161, 1006,  739,  740,  744
4162,  385,  358, 1309,  359
4163, 1117,   84,   85,  325
4164, 1178, 1047,  833,  173
4165, 1081, 1077, 1032, 1178
4166,   97,  888,   96,  337
4167, 1333, 1259, 1258,  562
4168,  901,  604,  591,  592
4169,  874,   89,  329,   88
4170,  870,  119,  708,  120
4171, 1126, 1127,   66,   65
4172, 1053,  480,  485,  484
4173, 1126,  528, 1127,   65
4174,  529, 1125, 1131,  524
4175, 1277, 1345,  527,   30
4176,  859,  862,  874,  863
4177,  864,  713,  870,  865
4178, 1147,  772, 1152,  771
4179, 1164, 1026, 1253, 1165
4180,  925,  217,  218,  244
4181, 1167,  776, 1253,  775
4182, 1255,  342,  137,  316
4183,  352,  353,  326, 1156
4184, 1162,  343, 1157, 1315
4185, 1177,  119,  703,  708
4186,  317,   76,  316, 1315
4187, 1243,  761,  765,  760
4188,  860, 1176,  407,  381
4189, 1183,  233,  259,  232
4190, 1209, 1189, 1335,  665
4191, 1312,  117,  434,  435
4192,  848,  677,  672,   97
4193, 1311,  409,  408,  382
4194, 1086,  841,  836,  837
4195,  869, 1289, 1292, 1313
4196, 1033,   47,  609,   48
4197,  862,  354,  355,  381
4198, 1176,  407,  408,  434
4199,  697, 1219,  701,  702
4200,  943, 1130,  941, 1345
4201,  848,  676,  672,  677
4202,  359, 1223,  332, 1309
4203,  285, 1233,  258,  284
4204, 1261,  894,  115,  437
4205, 1089,  584,  583,  149
4206, 1290,  693,  117,  116
4207, 1050,  836,  841,  840
4208, 1140, 1211,  946,  111
4209, 1247,  441,  440,  414
4210, 1211,  668,  946,  111
4211,  914,  354,  862,  353
4212,  685,  681,  881,  686
4213, 1034,  237,  210, 1035
4214,  914,   87,  328,  327
4215,  236,  263, 1031,  262
4216, 1045, 1041,  823,  828
4217, 1047,  173,  636,  172
4218, 1202,  623, 1266,  610
4219, 1131, 1128,  530, 1343
4220,  891,  690,  694,  689
4221,  353,  326, 1156,  914
4222, 1041,  828,  171,  823
4223,  676, 1310,  848,  847
4224, 1050,  835,  840,  839
4225,  893,  683,  678,  679
4226,  237,  236, 1034,  210
4227, 1050,  840,  835,  836
4228, 1086,  836,  831,  832
4229, 1206,  607,  606,  594
4230, 1043, 1047, 1040, 1041
4231, 1034,  236,  263, 1031
4232,  982,  165,  644,  164
4233,  947,  113,  114,  438
4234, 1046,  838,  833,  834
4235,  922, 1279,  276,  940
4236, 1326,  922, 1279,  302
4237,  928,  659,  654,  655
4238,  280,  969,  254, 1110
4239, 1208,  847,  848, 1140
4240, 1088,  624,  611,  612
4241, 1335,  666,  662,  667
4242, 1097,   26,   27,  194
4243,  929,  658,  109,  653
4244, 1085,  832, 1086,  831
4245,  110,  109,  442, 1334
4246, 1119,  653,  108,  648
4247, 1178,  173,  838,    4
4248, 1044,  835,  834,  830
4249, 1143, 1120,  451,  447
4250,  922,  941, 1130, 1132
4251,  923,  220,  219,  193
4252, 1046, 1047,  833, 1178
4253, 1213,  253,  226,  227
4254, 1160,  221,  247,  220
4255, 1189,  659,  663,  658
4256, 1226,  547,  551,  546
4257, 1042, 1085, 1045, 1090
4258, 1119,  653,  648,  649
4259, 1046,  834,  839,  838
4260,  557, 1061, 1227,  556
4261, 1122,  452,  449,  450
4262,  150,  832, 1085, 1090
4263,  922,  274,  940,  275
4264,  949,  577,  576,  572
4265,  933,  929,  109,  108
4266, 1103,  917,  544,  545
4267, 1047,  173,  172,  833
4268, 1045,  831,  830,  826
4269, 1305, 1203, 1227, 1058
4270, 1183, 1184, 1185,  207
4271, 1227,  552,   26,   25
4272, 1047,  637,  171,  172
4273,  853,  168,  883,  813
4274,  922, 1279,  302,  276
4275, 1043,  833,  828,  829
4276, 1340,   41,  209,  208
4277, 1085,  827,  831,  826
4278, 1047,  171,  828,  172
4279,  106,  451,  419,  445
4280, 1121,  107,  445,    7
4281,  993, 1245, 1150, 1171
4282, 1239,  504,  505,  509
4283,  843,  152,  827,  822
4284, 1302,  413, 1257,  412
4285, 1227,   25,  557,  552
4286,  651,  138,  139,  448
4287,  686,  681,  881,  682
4288, 1221,  881,  687,  686
4289, 1121,    7,  445,  106
4290,  652,  138,  651,  448
4291, 1063, 1059,   70, 1049
4292, 1334,  109,  442,  443
4293,  935,  936, 1295, 1146
4294, 1119,  648,  108,  107
4295, 1045,  829,  828,  824
4296, 1041,  171,  638,  170
4297, 1311, 1294, 1330, 1307
4298, 1146,  341,  102,  447
4299, 1146,  652,  446,  101
4300, 1145,  366,  340,  367
4301,  930,  650,  651,  655
4302,  928, 1189,  659,  664
4303,  929,  658,  653,  654
4304,  824,  823, 1105,  819
4305,   24, 1305, 1203, 1227
4306,  652,  651,  936,  448
4307, 1045,  828,  823,  824
4308, 1041,  171,  170,  823
4309, 1334,  442,  416,  443
4310, 1091, 1121,  445, 1120
4311, 1316,  248,  940,  274
4312, 1298,  508,  509,  513
4313,  862,  380,  379,  353
4314,  881,  687,  686,  682
4315, 1055, 1060, 1063,  553
4316, 1084,  843, 1090,  827
4317, 1295,  449,  448,  140
4318, 1038, 1101, 1036, 1037
4319,  884,  168,  169,  640
4320,  687, 1223,  692,   94
4321,  649,  648,  449,  141
4322,  853,  818,  169,  813
4323, 1175,  353,  862,  379
4324,  820,  821,  855,  825
4325, 1295,  448,  449,  452
4326, 1043,  829,  834,  833
4327,  648,  450,  142,  107
4328, 1146,  448,  452,  446
4329,  142,  107,  450,    7
4330,  649,  141,  449,  140
4331,  861,  406,  432,  405
4332,  843,  151,  827,  152
4333,  914,  862,  354,  328
4334,  888,  887,   97,  848
4335,  855,  886, 1045, 1087
4336, 1121,  445,  451,  106
4337, 1133, 1135,  122,  723
4338,  462, 1191,   43, 1264
4339, 1121,  451, 1120,  450
4340,  886,  169,  818,  170
4341, 1084,  826,  822,  827
4342,  101,  936, 1146,  652
4343,  930,  655,  651,  656
4344,  885,  823,  818,  819
4345, 1269,  789,  986,  794
4346, 1133,  121,  718,  122
4347, 1295,  448,  651,  139
4348,  652,  448,  446,  138
4349,  875,  910,  866,  908
4350, 1329, 1136, 1155, 1173
4351, 1084,  821,  826,  825
4352, 1090,  150,  151,  585
4353, 1175,  379,  405,  378
4354, 1045,  830,  829,  825
4355, 1119,  654,  929,  653
4356, 1105,  820,  824,  819
4357, 1105,  820,  825,  824
4358, 1032, 1178, 1047, 1081
4359, 1096,  638,  625,  626
4360,  648,  141,  142,  449
4361,  937,  939,  931, 1335
4362, 1202,  610,  611,  623
4363,  850,  973,  812,  811
4364,  854,  152,  822,  153
4365, 1104,  454,  144,  145
4366,  910,  909,  727,  913
4367, 1181,  469,  474,  473
4368,  908,  715,  868,  720
4369,   90, 1291, 1288, 1292
4370, 1079,  313,  286,  287
4371, 1143, 1145,  935, 1146
4372, 1033,  263,   47,   48
4373, 1230,   56,   55,  478
4374, 1111,  735,  736, 1115
4375,  853,  169,  168,  813
4376,  914,  862,  328,   88
4377,  570,  571, 1333,  951
4378,  885,  818,  813,  814
4379, 1329, 1156, 1342, 1155
4380, 1180,  474,  478,  473
4381,  979,  966, 1051, 1232
4382,  854,  817,  845,  153
4383, 1194,  466,  470,  465
4384, 1077,  453,   50,  143
4385, 1244,  764,  769,  768
4386,  889,  809,  813,  808
4387, 1316,  222,  940,  248
4388,  979, 1232, 1053, 1332
4389,  909, 1114, 1116, 1118
4390, 1140,  441, 1211,  111
4391,  850,  816,  811,  812
4392,  973,  154,  812,  155
4393, 1273,  423,  397,  424
4394,  855,  815,  816,  820
4395, 1318, 1319,  199,  225
4396,  973,  811,  807,  812
4397, 1323, 1110,  305,  279
4398,  854,  817,  821,  816
4399,  804, 1039,  976,  809
4400,   26, 1227,   25,  924
4401, 1032, 1077,   49, 1178
4402,  809,  805, 1039,  810
4403,  889,  810,  814,  809
4404,  864, 1329, 1175,  431
4405, 1101, 1094,  842,  841
4406,  883,  808,  813,  168
4407,   94,   95,  687,  881
4408, 1195,  460,  464,  459
4409, 1039,  805,  806,  810
4410,  455, 1101,  147,  146
4411, 1028,   47,  237,   46
4412, 1266,  635,  622,  623
4413,  147,  457,  455,  456
4414,  881,  686, 1221,  685
4415,  850,  812,  817,  816
4416, 1337,   80,  320,   79
4417, 1310,  681,  676,  677
4418,  677,   96, 1310,  682
4419,  153,  843,  587,  845
4420, 1226,  542,  547,  546
4421, 1306,  221,  220,  194
4422, 1329,  404,  405,  431
4423, 1262,  601,  602,  614
4424,  976,  804,  809,  808
4425,  320, 1308,  321,   80
4426, 1084,  843,  827,  822
4427,  145,  146, 1101,  455
4428,  982,  166,  165,  798
4429,  921,   67,  297,  298
4430, 1329, 1156, 1175,  378
4431,  975,  804,  800,  805
4432,  804,  975, 1039,  805
4433,  981,  630, 1276,  643
4434,  983,  802,  806,  801
4435,  236, 1082,  210,  209
4436, 1192,  460,  461,  465
4437,   86,  910,  914,   87
4438,  917,  549,  544,  545
4439, 1311, 1312,  435, 1297
4440, 1304,  296,  269,  270
4441, 1064,  166,  642,  643
4442,  899,  591,  604,  603
4443,  863,  355,  382,  381
4444,  882,  640,  627,  628
4445,  167,  883,  808,  803
4446, 1064,  166,  803,  167
4447,  798,  982,  166,  803
4448, 1100, 1301, 1098, 1099
4449,  971,  603,  615,  602
4450,  991,  756,  757,  761
4451,  407,  433,  860,  406
4452, 1204,  242,  268,  241
4453, 1238,  454,  459,  458
4454,   70, 1059, 1204, 1049
4455, 1055,  918, 1058, 1061
4456, 1192,  460,  459,  455
4457,  983,  805,  801,  806
4458,  906, 1285, 1249, 1276
4459, 1176,  863, 1293,  382
4460, 1274, 1169,  422,  423
4461, 1331, 1261, 1330, 1297
4462, 1264,   43,  462,   44
4463,  461, 1192,  457,  460
4464, 1170,   78,   79,  319
4465, 1175,  861,  431,  405
4466,  983,  802,  807,  806
4467, 1262,  614,  602,  615
4468, 1269,  793, 1066,  788
4469, 1221, 1219,  695,  696
4470,  976,  804,  808,  803
4471,  984,  800,  795,  796
4472, 1296,  118,  698,  703
4473,  983,  800,  801,  805
4474, 1314,  376,  349,  350
4475, 1311, 1330, 1293, 1297
4476,  798,  982, 1066,  165
4477,  975,  804,  799,  800
4478, 1339,  331,  332,  358
4479, 1261,  693, 1290,  116
4480,  950,  956,  958,  959
4481,  883,  808,  168,  167
4482,  894,  438,  114,  437
4483, 1066,  794,  798,  793
4484,  993, 1243,  991, 1151
4485, 1273,  397,  398,  424
4486, 1257,  439,  412,  413
4487,  938,  468,   54,   53
4488,  477,  476,  481, 1225
4489,  109,  933, 1334,  110
4490,  885,  819,  818,  814
4491,  984,  797,  801,  796
4492,  468, 1193,   53,  938
4493, 1224,   38,  487,   39
4494,  799,  795, 1065,  800
4495, 1232,  310,  309,  283
4496,  979, 1332, 1053, 1054
4497,  904,  154,  155,  589
4498, 1054,  484,  488,  483
4499,  980,  232,  205,  206
4500,  155,  807,  902,  156
4501, 1269, 1066,  794,  986
4502, 1285,  907,  617,  630
4503, 1070,  778,  178,  177
4504,  899,  603,  590,  591
4505, 1066,  793,  164,  788
4506,  174,   76, 1165,    5
4507, 1195,  459,  464,  463
4508, 1276,  643,  631,  644
4509, 1269,  783,  788,  163
4510, 1024,  633,  634,  646
4511,  436,  409,  435, 1297
4512,  792,  159, 1205,  985
4513, 1182,  470,  475,  474
4514,  414,  415,  388,  997
4515,  888,  997,  362,  996
4516, 1194,  470,  466,  471
4517,  979,  980,  978, 1053
4518, 1181,  474,  470, 1182
4519,  984,  792,  797,  796
4520, 1324,  516,  515,  511
4521,  974,  803,  798,  799
4522, 1311, 1331, 1297,  409
4523, 1253, 1165,  175,  776
4524, 1248,  790,  789,  785
4525,  890,  893,  895, 1123
4526,  175,  777,  776, 1165
4527, 1248,  786, 1205,  790
4528, 1331,  437, 1218, 1261
4529,  909, 1136,  908, 1116
4530,  471, 1197,  472,  467
4531, 1126, 1316, 1130,  940
4532, 1313,  704,  705,  709
4533, 1313,  705,  706,  710
4534,  146, 1101,  147,  842
4535, 1289,  705,  704,  700
4536, 1114, 1155, 1341,  913
4537, 1269,  789,  788,  784
4538,  844,  601,  589,  602
4539, 1191,  462,   43,  467
4540, 1155, 1341,  326,  352
4541, 1232,  308,   56,   57
4542, 1313,  705,  710,  709
4543, 1269,  788,  783,  784
4544,  777,  174,   76, 1165
4545, 1096, 1088,  625,  638
4546, 1182,  475,  479,  474
4547,  984,  800,  796,  801
4548, 1133,  723,  718,  719
4549,  987, 1004,  991,  757
4550,  883,  168,  640,  641
4551, 1246,  160,  787,  782
4552, 1206, 1249,  901, 1250
4553,  986,  794,  789,  790
4554, 1005,  751,  746,  747
4555, 1248,  785,  780,  781
4556, 1248,  786,  785,  781
4557,  911,  501,  496,  497
4558, 1023,  137,  136, 1021
4559,  999,  965,  488,  493
4560, 1270,  783,  778,  779
4561, 1075,  783,  162,  778
4562, 1121, 1122, 1119,  648
4563, 1340, 1197, 1236,   42
4564, 1155,  326, 1341,  913
4565, 1007,  752,   82,   81
4566, 1111, 1117, 1010,  737
4567, 1021,  137,  608,  595
4568, 1026,    5,  160,  782
4569, 1340, 1184,  207, 1185
4570, 1008,  745,  746,  750
4571, 1248,  790,  785,  786
4572,  697, 1223,   93,  692
4573, 1314, 1011, 1016, 1142
4574, 1248,  780,  785,  784
4575, 1275,  645,  163,  164
4576, 1231,  285, 1186,  311
4577, 1206,  606,  593,  594
4578, 1107,  575,  579,  574
4579, 1218,  438,  437,  411
4580, 1023,  394,  135,  368
4581, 1307,  410,  409,  383
4582, 1269,  794,  793,  789
4583,  646, 1075, 1024,  163
4584, 1064,  167,  641,  642
4585, 1248,  784,  785,  789
4586,  176, 1253, 1268,  175
4587, 1053,  486,  978,  485
4588, 1287,   34,   33,  512
4589,  204,  231,  205,  896
4590, 1253,  175,  174,  781
4591, 1246,  782,  786,  781
4592, 1113,  738,  733,  734
4593,  980,   38,  205,  898
4594, 1226,  547,  552,  551
4595, 1097, 1099, 1098, 1229
4596,  175, 1165,  174,  777
4597, 1014,  427,  426,  400
4598,  907,  630,  629,  617
4599, 1302,  386,  387,  413
4600,  978,  486,  487,  491
4601,  691, 1221,  695,  696
4602,  914, 1156, 1175,  866
4603, 1111,  737,  736,  732
4604, 1173,  402,  429,  428
4605, 1070,  778,  177,  779
4606,  594,  595, 1073,  607
4607, 1067,  178,    8,  773
4608, 1205,  786,  787,  791
4609, 1290,  699,  695,  700
4610,   93,   92, 1223,  697
4611, 1152,   76, 1165,  777
4612,  949,  872,  572,  951
4613, 1070,  774,  775,  177
4614, 1219,  700, 1290,  695
4615, 1199,  216,  217,  243
4616, 1203, 1201, 1305,   23
4617, 1152,  776,  771,  772
4618, 1167,  775,  771,  776
4619, 1296,  703,  698,  699
4620, 1232,  282,  283,  309
4621, 1321, 1323,  278, 1322
4622,  993, 1171, 1150, 1148
4623, 1253,  176,  775,  776
4624, 1221,  690,  691,  695
4625, 1071,  178,  773,  774
4626, 1067,  773,    8,  132
4627, 1167,  774,  770,  775
4628, 1152,  777,  776,  772
4629, 1007,  742, 1267,  747
4630,  747, 1267,   83,  742
4631,  177, 1070,  779,  176
4632, 1313,  706,  711,  710
4633, 1070,  176,  177,  775
4634, 1054,  488,  484,  489
4635, 1054,  485,  490,  489
4636, 1066,  165,  793,  798
4637,  995,  759,  763,  758
4638, 1010,   83, 1267,  742
4639, 1027,  495,  490,  491
4640,  965,  493,   58,  488
4641, 1072,  421,  131,  420
4642, 1068,  132,    8,  133
4643,  457, 1264, 1192,  462
4644,  999,  493,  488,  489
4645,  999,  489,  494,  493
4646, 1149,  770,  769,  765
4647,  395, 1163, 1274,  396
4648, 1147,   78,   77,  772
4649, 1017,  322, 1267,  323
4650, 1027,  490,  495,  494
4651, 1147,  771,  766,  767
4652,  967,   34,  507,   35
4653, 1070,  774,  178, 1071
4654,  925,  271,  270,  244
4655, 1027,  492,  496,  491
4656, 1007,  747,   82,  752
4657,  346, 1271,  345,  372
4658, 1071,  773,  769,  774
4659, 1157,  369,  395,  368
4660, 1149,  764,  765,  769
4661, 1071,  769,  773,  768
4662, 1167,  775,  770,  771
4663, 1126,   65,  299,  300
4664,  493,  856,   58,   59
4665,  920, 1097,  924, 1226
4666, 1027,  496,  495,  491
4667,   82,  747, 1267,   83
4668, 1273,  989,  994,  998
4669,  965,  856,  963,  969
4670, 1245,  131,  763,  768
4671,  870,  708,  713,  120
4672,  911,   35,  502,   36
4673,  857,  494,  499,  498
4674, 1051,  284, 1232,  283
4675,  857,  494,  498,  493
4676,  409, 1331, 1297,  436
4677, 1324,  515,  510,  511
4678, 1151,   79,   78,  767
4679, 1152,  772,   77,  777
4680, 1004,   80,   79,  762
4681,  911,  497,  502,  501
4682,  880,  498,  499,  503
4683, 1239,  510,  506,  511
4684,  992,  754,  987,  755
4685, 1267,   82,   83,  323
4686, 1243,  764,  760,  765
4687, 1168,  768,  763,  764
4688,  330,   90, 1291, 1288
4689, 1072,  131,  768,  132
4690, 1025, 1074, 1073, 1252
4691,  621, 1023,  136, 1021
4692, 1162,  343,  317,  344
4693, 1147,  767,   78,  772
4694, 1275, 1066,  164,  163
4695,  850,  810,  811,  815
4696, 1213,  252,  226,  253
4697,  995, 1243,  764,  759
4698,  995,  759,  764,  763
4699,  759,  995,  992,  758
4700, 1298,  514,  509,  510
4701, 1152, 1150, 1164, 1166
4702,  992,  760,  759,  755
4703,  880,  503,  499,  504
4704, 1246, 1268,  781, 1248
4705, 1274,  396,  423,  422
4706,  992,  755,  991,  760
4707,  879,  857,  880,  858
4708, 1331,  437,  436,  410
4709, 1308,  757,  752,   81
4710,  166,  982,  643, 1064
4711,  987,  750,  754,  749
4712, 1239,  509,  505,  510
4713, 1249,  984,  985,  901
4714, 1151,  762,   79,  767
4715, 1005,  752,  756,  751
4716, 1318,  200, 1213,  226
4717, 1151,  767,  766,  762
4718, 1014, 1012, 1013,  427
4719,  920,  924,  193,  923
4720, 1032,   48,   49,  289
4721, 1274,  397, 1273,  423
4722, 1221,  691,  687,  692
4723,  746, 1005, 1007, 1008
4724, 1026,  174,    5,  782
4725, 1253,  176,  776,  175
4726,  878,  502,  507,  506
4727, 1029,  288,  315,  314
4728,  686, 1221,  690,  691
4729,  923,  246,  245,  219
4730, 1149,  770,  765,  766
4731,  960, 1301, 1317, 1098
4732, 1093,  144,  839,  840
4733, 1255, 1164, 1165, 1026
4734, 1239,  511,  506,  507
4735, 1308,  757,   81,   80
4736, 1007, 1010,  742, 1009
4737,  967, 1287,  201,  227
4738, 1004,  757,   80,  762
4739, 1006, 1009, 1008,  746
4740, 1009,  746,  741,  742
4741,  686,  691,  687, 1221
4742, 1131,  519,  523,  518
4743, 1087,  843, 1095,  877
4744,  692, 1223,   93,   94
4745,  886,  818,  885,  823
4746, 1002,  739,  744,  743
4747,  993, 1150, 1245, 1168
4748, 1010,  742,  741,  737
4749, 1167,  774,  769,  770
4750, 1132,   65,   64,  523
4751,  198,   30, 1345, 1277
4752, 1098, 1317,  960,  195
4753,  685,  681,  680,  881
4754,  987,  751,  756,  755
4755, 1003,  425,  127, 1018
4756, 1324,  512,  517,  516
4757,  990, 1005, 1007, 1308
4758, 1327,   33,   32,  517
4759,  908,  725,  720,  721
4760, 1337, 1004, 1271, 1308
4761, 1000,  748,  127,  743
4762, 1169,  130,  758,  763
4763, 1323,   61,  304,   60
4764, 1338,  296,  270,  297
4765, 1243,  765,  761,  766
4766, 1105,  886,  855,  885
4767,  861,  433,  432,  406
4768, 1006,  740,  741,  745
4769, 1175,  405,  379,  406
4770, 1005,  751,  747,  752
4771,  570,  565,  569, 1161
4772,  587,  845,  588,  153
4773, 1306,  220,  923,  194
4774,  293, 1234,  267,  266
4775,  734,  735, 1115,  739
4776,  240, 1235,  214,  959
4777, 1263,  187,  214,  213
4778, 1235,  266,  240,  267
4779, 1324, 1328, 1325,  516
4780, 1326,   63,   62,  513
4781,  845,  843,  587,  844
4782, 1103,  541,  545,  540
4783, 1263,  959,  213,  214
4784, 1324,  516,  511,  512
4785,  959,  240,  239,  213
4786,  306,  858,  856,  969
4787, 1263,  959, 1154,  213
4788, 1107,  574,  951,  575
4789, 1263,  213, 1154,  187
4790, 1118,  727,  732,  731
4791, 1277,   31,  527,  522
4792, 1116,  730,  726,  731
4793,  872,  187, 1263, 1154
4794,  232,  258, 1051,  231
4795, 1116,  725,  726,  730
4796, 1230, 1232,  310,  309
4797,  966,  283,  256,  257
4798,  861,  431,  120,  864
4799, 1172,  123,  728,  124
4800,  911,  497,   36,  502
4801, 1017,  348,  375,  374
4802, 1135,  724,  729,  728
4803,  896, 1174,   37,  204
4804,  352, 1341,  351, 1342
4805, 1326,  513,  518,   63
4806,  910,  727,  722,   87
4807,   86,  913, 1118,   85
4808,  389,  996,  363,  362
4809, 1251, 1250,  631, 1276
4810,  901,  605,  592,  593
4811,  909,  726, 1118, 1116
4812,  389, 1247,  997,  415
4813,  919,  543,  538,  539
4814, 1317,   29,   28,  537
4815,  530, 1128, 1129,  531
4816, 1131,  524,  523,  519
4817, 1133,  724,  723,  719
4818, 1172,  123,  124,  428
4819,  875,  717,  722,  721
4820, 1343,  532,  531,  527
4821, 1306, 1098,  923, 1160
4822, 1288,  707,  706,  702
4823,  551,  917,  546,  550
4824, 1110,  252,  279, 1323
4825, 1336,  526,  522,  527
4826,  875,  908,  868,  721
4827,  982,  644,  165,  643
4828, 1232,  309,   56,  308
4829,  908,  724,  719,  720
4830,  978,  486,  491,  490
4831, 1155,  909,  866,  913
4832, 1199,  243,  242,  216
4833,  865,  864, 1133,  866
4834,  203,   36,  970, 1174
4835, 1014,  125,  426,  427
4836,  165,  166,  982,  643
4837, 1113,  729,  733,  728
4838,  724, 1136,  908, 1133
4839, 1340,   41,   42,  209
4840,  921,   68,  297,   67
4841, 1127,  533,  528,  529
4842, 1125,  524,  529,  528
4843,  938,   54,  311,   53
4844, 1300,  538,   67,  533
4845,   36,   37,  911, 1174
4846, 1180,  938, 1181,  473
4847, 1236, 1191, 1082,   42
4848, 1282,  610, 1202, 1266
4849,  875,   87,  722,   88
4850, 1097,  542, 1229,   27
4851, 1343,  526,  531,  530
4852, 1292, 1288,   90,  707
4853,  910,  727,   87,   86
4854, 1210,  479,  483,  478
4855, 1229, 1128,  537,  536
4856, 1071,  768, 1244,  769
4857, 1128,  530, 1343,  531
4858,  295, 1059, 1204,   70
4859,  355,  863, 1291,  862
4860, 1232,  966,  964,  965
4861, 1292, 1288,  707,  706
4862,   37,   38,  492,  897
4863,  865,  718,  714,  719
4864, 1102,  298,  272,  299
4865,  896,  492,  897,   37
4866,  909, 1136, 1155,  866
4867,  908,  715,  720,  719
4868,  865,  718,  713,  714
4869,  909, 1118,  727,  913
4870,  978,  487,  492,  491
4871,  916,  543,  544,  548
4872, 1097,   26,  194,  193
4873,  869,  863, 1292, 1293
4874,  964,  281,  308,  307
4875, 1118,  731,  726,  727
4876, 1100,  539,  538,  534
4877,  876,   89,   88,  717
4878,  875,  722,  717,   88
4879,  897,  492,  487,   38
4880, 1045, 1084, 1090,  826
4881,  371, 1272, 1273,  372
4882, 1228,  373,  372,  346
4883,  886,  884,  169,  639
4884, 1296, 1312,  118, 1177
4885,  868,  720,  715,  716
4886,  921,  926,  298,  297
4887,  868,  709,  710,  714
4888, 1060,  553,  548,  549
4889,  165,  982, 1066,  164
4890, 1002,  126,  125,  738
4891,  415, 1247,  997,  414
4892, 1129,  540,  539,  535
4893,  990, 1286,  998, 1308
4894, 1127,  529,  534,  533
4895, 1342,  352, 1156,  378
4896, 1338,   68,   69,  296
4897,  919,  543,   68,  538
4898, 1083, 1138, 1137,  364
4899,  946,  668,  673,  112
4900, 1137, 1138,  416,  390
4901,  875,  717,  721,  716
4902, 1301, 1344, 1300, 1102
4903,  896,   37,   38,  205
4904, 1144,  418,  392,  419
4905,  916,  544,  549,  548
4906, 1099, 1229,  541,  536
4907, 1288,  702,   91,  707
4908, 1311,  383,  409,  382
4909, 1291,  329,  330,  356
4910,  531, 1128, 1129,  536
4911, 1177,  119,  870,  433
4912,  899,  156,  900,  591
4913, 1133,  723,  122,  718
4914, 1311, 1294,  383,  382
4915,  864,  121,  431,  120
4916,  864,  430,  431,  121
4917, 1131,  941, 1326, 1132
4918, 1274, 1245, 1158,  422
4919,  923,  220,  246,  219
4920,  392,  366, 1144,  393
4921, 1339,  357, 1294,  331
4922, 1198,  287, 1237,  261
4923, 1080,  468,   53,  463
4924, 1288,  330,  331, 1294
4925,  801,  983,  802,  797
4926,  541,  540, 1099,  536
4927, 1291, 1288, 1294,  330
4928, 1291,  330,   89,   90
4929,  844,  601,  588,  589
4930, 1129,  539,  534,  535
4931,  876,  712,   89,  717
4932, 1060, 1063,  553,  554
4933, 1326,  922,  941, 1279
4934, 1186,  286,  312,  285
4935, 1340, 1236, 1187, 1185
4936, 1097,   27,  547,  542
4937, 1220,  702,   92,   91
4938, 1291,  329,   89,  330
4939, 1301, 1102, 1160, 1344
4940, 1236,  208,  209,  235
4941, 1282, 1281,  597,  596
4942, 1237,  234,  235,  261
4943, 1092,  585,  597,  584
4944, 1219,  695,  696,  700
4945, 1290,  699,  694,  695
4946,  924,  218,  192,  219
4947, 1014,  126,  426,  125
4948, 1082,   42,   43,  210
4949, 1297,  116,  435,  436
4950,  916,  543,  548,   69
4951, 1251,  632,  645,  644
4952,  917,  916,  544,  549
4953, 1060,  554,  550,  555
4954, 1095,  626,  613,  614
4955, 1297,  116,  117,  435
4956, 1290,  698,  693,  694
4957,  886, 1041,  170,  823
4958,  924, 1227, 1203,  918
4959, 1288,   91,   90,  707
4960, 1307, 1309,  384,  358
4961, 1192,  454,  455,  459
4962,  892,  694, 1290,  693
4963, 1098,  195,  194,   27
4964, 1226,  918,  917, 1062
4965, 1237,  260,  287,  286
4966, 1179, 1186, 1233, 1185
4967,  976,  809,  889,  808
4968, 1198,  288,  261,  262
4969, 1242,  466,  462,  467
4970, 1242,  461,  462,  466
4971, 1292,  707,   90,  712
4972, 1242,  461, 1191,  462
4973,  917,  550,  549,  545
4974, 1100, 1102, 1300,  921
4975,  691, 1221,  696,  692
4976, 1059,   70,  548,  553
4977, 1290,  693,  698,  117
4978,  891,  690, 1221,  695
4979, 1062,  555,  550,  551
4980, 1290,  694,  699,  698
4981, 1291,  356,  330, 1294
4982, 1242, 1191,  467,  462
4983,  519, 1325,  518, 1131
4984, 1203,  218,  925,  217
4985,  702, 1289,  701,  706
4986, 1237,  260,  261,  287
4987, 1078,   51,  313,  314
4988, 1197, 1194, 1242, 1076
4989,   25,  924,  193,   26
4990, 1080,   52, 1195,  463
4991, 1296, 1297, 1312, 1293
4992, 1194,  469,  464,  465
4993, 1198,  261,  288,  287
4994,  552, 1097,  547, 1226
4995, 1282, 1040, 1266, 1202
4996, 1311, 1331, 1307, 1297
4997, 1081, 1032, 1038, 1033
4998, 1289, 1288,  702, 1219
4999, 1123,  689,  685,  690
5000, 1078,   51,   52,  313
5001, 1063,  558,   71,  553
5002, 1204,  243,  269,  242
5003, 1292,  712,   90,   89
5004, 1263,  214,  188,  215
5005, 1104,  145,  455,  454
5006, 1024,  633,  645,  632
5007,  690, 1221,  686,  685
5008, 1197,  467, 1191,   42
5009, 1260, 1033,   47,  609
5010, 1258,   23,   22,  567
5011,  867,  499,  495,  500
5012, 1063,  554,  559,  558
5013,  892,  689,  693,  688
5014, 1133, 1135, 1134,  122
5015, 1176, 1312,  434,  408
5016,  908,  865,  714,  719
5017, 1331,  411,  437,  410
5018, 1134,  429,  122,  123
5019, 1236,  234,  208,  235
5020, 1219,  696, 1221,  697
5021, 1234,  293,  267,  294
5022, 1314, 1341,  350,  324
5023, 1223, 1283, 1222,  359
5024, 1342,  378,  351,  352
5025, 1173,  430,  429,  403
5026,  893,  680,  685,  684
5027, 1341,  325,  326,  352
5028, 1134, 1136, 1173, 1172
5029, 1057,  559,  555,  560
5030,  896,  979,  898,  897
5031, 1100,  919,  920,  921
5032,  565, 1153, 1161,  570
5033,  864, 1329, 1133,  866
5034,  893,  684,  683,  679
5035, 1161,  568,  563,  564
5036, 1258,  562,   23,  567
5037,  869, 1296, 1289, 1313
5038, 1076, 1181, 1194,  470
5039, 1183,  233,  207, 1185
5040,  681, 1310,  680,  881
5041,  992,  993,  995, 1243
5042,  583, 1281, 1260,  596
5043, 1057,  559,  560,  564
5044, 1333,  562,  567,  566
5045,  692, 1221,  696,  697
5046,  891, 1290,  892,  694
5047, 1033,  622,   48,  609
5048,  877,  587,  599,  586
5049, 1200, 1263,  188,  215
5050, 1219,  701, 1289,  700
5051, 1256,  440,  112,  439
5052,  877,  599,  612,  611
5053, 1241,  559,  564,  563
5054, 1106,  181,  955,  179
5055, 1054,  485,  489,  484
5056,  915,  920,  917,  919
5057, 1044,  836,  835,  831
5058,  890,  688,  683,  684
5059,  893,  684,  679,  680
5060, 1084,  826,  821,  822
5061, 1124,  675,  679,  674
5062, 1333,  565,  561,  566
5063,  565,  570,  566, 1333
5064, 1153, 1333,  873,  951
5065, 1258,  873,  189,  871
5066, 1225, 1182,  476,  481
5067,  570, 1153, 1333,  565
5068,  680, 1310,  681,  676
5069,  872,  577,  572,   21
5070,  573,  951,  574,  569
5071, 1333,  570,  566,  571
5072, 1336,  522,  526,  521
5073,  571,  951,  576,  572
5074,  675,  680,  676, 1310
5075, 1085,  150,  837,  832
5076,  843,  153,  587,  152
5077,  877,  598,  599,  611
5078,  944,  678,  674,  679
5079,  947,  683,  114,  678
5080,  675, 1310,  676,  847
5081,  671,  675,  847,  670
5082, 1333,  566,  561,  562
5083, 1216,  949,  582,  581
5084, 1161,  573,  568,  569
5085,  951,  575,  571,  576
5086, 1320, 1279, 1326,  941
5087, 1127,  533,   66,  528
5088,  997,  912,  888,  362
5089,  957,  573,   74,  568
5090,  951,  570,  575,  574
5091, 1253,  776, 1164, 1165
5092,  855,  820,  816,  821
5093, 1333,  951, 1153,  570
5094, 1140, 1137, 1334,  415
5095, 1330, 1296, 1290, 1289
5096, 1274, 1171, 1158, 1245
5097,  894,  683,  115,  114
5098,  847, 1124,  675, 1310
5099, 1106,  579,   10,    9
5100,  873, 1258,   22,  567
5101,  955,  185,  179,  181
5102,  847,  675,  674,  670
5103,  566, 1333,  571,  567
5104,  567, 1333,  571,  873
5105,   22,  189,  873,   21
5106,  965,  307,  308,   57
5107,  945,  997,  912,  888
5108,  947,  113,  678,  114
5109,  965,  488,   58,   57
5110, 1100,  538,  533,  534
5111, 1241, 1161,  563,  564
5112, 1107,  580,  579,  575
5113, 1069,    8,  161,  133
5114,  790,  791,  986,  795
5115,  953,  949, 1216,  954
5116, 1090,  832, 1085,  827
5117, 1216,  581,   12,  182
5118, 1212,  582,   19,  183
5119, 1212,  186,   19,  187
5120,  953,  577,   20,  582
5121, 1103,  540, 1099,  541
5122, 1106,  579,    9,  578
5123,  934,   15,  184,  212
5124, 1103,  546,  917,  545
5125,  944,  678,  673,  674
5126, 1106,  955,   75,  179
5127, 1106,  578,  574,  579
5128,  848,  945,  888,  996
5129, 1189,  664,  663,  659
5130, 1090,  586,  585,  151
5131, 1045,  829,  824,  825
5132,  109,  933,  108,  443
5133, 1039,  806,  811,  810
5134,  581,  580,   11,  182
5135,  951, 1153,  570, 1161
5136,  393, 1120,  419,  451
5137, 1335,  666,  665,  661
5138,  907,  604,  617,  616
5139,  953,   19,  582,   20
5140,  949,  576,  577,  581
5141,  582,   13,   19,  183
5142, 1085,  832,  831,  827
5143,  843,  600,  844, 1095
5144,  973,  811,  806,  807
5145,  845,  817,  154,  153
5146, 1026,  174, 1165,    5
5147, 1028,   47,  263,  237
5148, 1101,  842,  148,  147
5149,  985,  157,  797,  158
5150,  841,  145,  146, 1101
5151, 1332,   57,   56,  483
5152, 1190, 1192, 1194, 1195
5153,  148,  149,  842, 1094
5154,  928,  660,  665,  664
5155, 1100, 1127,  534,  533
5156, 1129,  535,  534,  530
5157,  903,  973,  902,  904
5158,  148,   45, 1265,    3
5159,  930,  650,  654,  649
5160, 1124,  675,  680,  679
5161, 1331, 1218, 1309, 1261
5162, 1103,  917,  919,  544
5163, 1260,  583,  596,   46
5164, 1322,  278,  251,  252
5165,  948,  113,  112,  673
5166,  937,  656,  660,  655
5167,  936,  656,  652,  657
5168, 1139,   99,   98,  667
5169, 1103, 1226,  917,  546
5170, 1089, 1040, 1265, 1281
5171,  901,  157,  158,  592
5172,  873,  572,  567,   22
5173,  837, 1089, 1094,  149
5174, 1266,  610,  623,  622
5175, 1095,  600,  601,  613
5176,  930,  650,  655,  654
5177, 1241,  558,  559,  563
5178, 1119, 1295,  930,  649
5179, 1260,  596,  609,   47
5180,  584,  150, 1092,  585
5181, 1144,  365,  392,  391
5182, 1119,  653,  649,  654
5183,  936,  656,  651,  652
5184, 1049,  558,  563,   72
5185,  936,  100,  657,  101
5186,  916,  543,   69,   68
5187,  173, 1178,  838,  833
5188, 1281,  596,  583,  584
5189,    3,   44,   45, 1036
5190, 1097,   27,   26,  547
5191,  847,  670,  674,  669
5192, 1137,  389,  416,  415
5193, 1295,  649,  140,  650
5194, 1105, 1045,  824,  825
5195, 1125, 1131, 1130, 1128
5196,  953,  954, 1216, 1212
5197,  937, 1335,  662,  939
5198,  926,  298,  271,  272
5199, 1161,  565,  569,  564
5200,  937,  661, 1335,  660
5201, 1045,  830,  825,  826
5202,  110, 1211,  663,  658
5203,  928,  659,  655,  660
*Nset, nset=PIPE_CEL_BODY, generate
    1,  1345,     1
*Elset, elset=PIPE_CEL_BODY, generate
    1,  5203,     1
*Elset, elset=PIPE_SOLID_ALL, generate
1, 5203, 1
*Surface, type=ELEMENT, name=PIPE_SOLID_SURF
PIPE_SOLID_ALL, S1
PIPE_SOLID_ALL, S2
PIPE_SOLID_ALL, S3
PIPE_SOLID_ALL, S4
** Section: SEC_PIPE_RIGID
*Solid Section, elset=PIPE_CEL_BODY, material=MAT_PIPE_RIGID
,
*End Part
**  
** SCREENING ONLY: exact STEP import; no node scaling
*Part, name=Robot_SOLID
*Node
1, -6.3161368748, -3.40833308036, -9.27631598334
2, -8.37923479519, -3.15411988934, -9.77851884272
3, -8.67995004238, -3.5276040161, -9.84571782691
4, -6.34044618207, -3.41870348132, -9.18170045562
5, -6.36615794819, -3.45198327818, -9.09292014102
6, -6.39177790563, -3.50623837831, -9.01513460464
7, -6.41581710674, -3.57831566085, -8.9528644896
8, -6.43687848532, -3.66402625399, -8.90972868792
9, -6.45373802876, -3.75838898137, -8.88823410901
10, -6.4654159242, -3.85591981897, -8.88962992678
11, -6.47123349468, -3.95095062828, -8.91383502135
12, -6.47085264046, -4.03795855914, -8.95944269337
13, -6.46429549999, -4.11188703828, -9.02380237763
14, -6.45194314521, -4.16843960965, -9.10317374389
15, -6.43451345604, -4.20432963082, -9.19294398601
16, -6.41301937784, -4.21747131314, -9.28789600817
17, -6.38871007057, -4.20710091218, -9.38251153589
18, -6.36299830445, -4.17382111533, -9.47129185049
19, -6.33737834701, -4.1195660152, -9.54907738687
20, -6.3133391459, -4.04748873265, -9.61134750191
21, -6.29227776732, -3.96177813951, -9.65448330359
22, -6.27541822388, -3.86741541213, -9.6759778825
23, -6.26374032845, -3.76988457453, -9.67458206473
24, -6.25792275796, -3.67485376523, -9.65037697016
25, -6.25830361218, -3.58784583436, -9.60476929814
26, -6.26486075265, -3.51391735522, -9.54040961388
27, -6.27721310743, -3.45736478385, -9.46103824762
28, -6.2946427966, -3.42147476268, -9.3712680055
29, -6.41437962744, -3.39622769099, -9.30023040388
30, -6.51262238007, -3.38412230161, -9.32414482443
31, -6.61086513271, -3.37201691224, -9.34805924497
32, -6.70910800035, -3.3599115087, -9.37197369351
33, -6.80735075299, -3.34780611932, -9.39588811405
34, -6.90559350563, -3.33570072995, -9.41980253459
35, -7.00383625827, -3.32359534057, -9.44371695513
36, -7.1020790109, -3.3114899512, -9.46763137567
37, -7.20032176354, -3.29938456183, -9.49154579622
38, -7.29856451618, -3.28727917245, -9.51546021676
39, -7.39680726882, -3.27517378308, -9.5393746373
40, -7.49505002145, -3.2630683937, -9.56328905784
41, -7.59329277409, -3.25096300433, -9.58720347838
42, -7.69153552673, -3.23885761496, -9.61111789893
43, -7.78977827937, -3.22675222558, -9.63503231947
44, -7.888021032, -3.21464683621, -9.65894674001
45, -7.98626378464, -3.20254144683, -9.68286116055
46, -8.08450653728, -3.19043605746, -9.70677558109
47, -8.18274926117, -3.17833067163, -9.73068999464
48, -8.28099204255, -3.16622527871, -9.75460442218
49, -8.40354410247, -3.1644902903, -9.683903315
50, -8.42925586858, -3.19777008715, -9.5951230004
51, -8.45487582603, -3.25202518728, -9.51733746402
52, -8.47891502714, -3.32410246982, -9.45506734898
53, -8.49997640571, -3.40981306297, -9.41193154729
54, -8.51683594916, -3.50417579034, -9.39043696839
55, -8.52851384459, -3.60170662795, -9.39183278616
56, -8.53433141508, -3.69673743725, -9.41603788073
57, -8.53395056086, -3.78374536812, -9.46164555275
58, -8.52739342038, -3.85767384725, -9.52600523701
59, -8.5150410656, -3.91422641862, -9.60537660326
60, -8.49761137644, -3.9501164398, -9.69514684539
61, -8.47611729824, -3.96325812211, -9.79009886755
62, -8.45180799096, -3.95288772115, -9.88471439527
63, -8.42609622485, -3.9196079243, -9.97349470987
64, -8.4004762674, -3.86535282417, -10.0512802462
65, -8.37643706629, -3.79327554163, -10.1135503613
66, -8.35537568772, -3.70756494849, -10.156686163
67, -8.33851614427, -3.61320222111, -10.1781807419
68, -8.32683824884, -3.5156713835, -10.1767849241
69, -8.32102067835, -3.4206405742, -10.1525798295
70, -8.32140153257, -3.33363264333, -10.1069721575
71, -8.32795867305, -3.2597041642, -10.0426124733
72, -8.34031102783, -3.20315159283, -9.963241107
73, -8.35774071699, -3.16726157165, -9.87347086488
74, -8.65605721864, -3.42679331625, -9.84141858158
75, -8.60599359289, -3.33646701586, -9.83064266578
76, -8.54034889861, -3.25721687489, -9.81594012413
77, -8.46308272945, -3.19001334583, -9.79825348818
78, -6.4151629118, -3.67928463653, -9.00666209993
79, -6.43675254759, -3.77962309751, -8.96876073795
80, -6.39459002838, -3.60129051347, -9.05169716428
81, -6.44777763353, -3.95418146656, -9.01182940579
82, -6.44872259893, -4.02821806647, -9.04542444382
83, -6.35631876524, -3.51640014085, -9.16594802888
84, -6.43759995171, -4.07046778752, -9.11250400369
85, -6.4098115992, -4.12506832876, -9.25429983134
86, -6.39308463716, -4.13939998598, -9.33027044002
87, -6.37230505085, -4.11108155531, -9.40130030778
88, -6.33447570597, -4.02667273844, -9.51397949108
89, -6.31391482242, -3.94732191348, -9.55827850146
90, -6.29263889776, -3.84539592525, -9.59408750745
91, -6.28107590535, -3.66890233436, -9.55224900942
92, -6.27972415824, -3.59492518523, -9.52035516376
93, -6.2907759393, -3.55381085429, -9.45414145914
94, -6.31877385236, -3.50233683166, -9.31306736841
95, -6.33557185237, -3.48704857296, -9.23632070079
96, -6.37655935767, -3.53714443796, -9.0932984023
97, -6.44909150445, -3.87991824748, -8.96884013592
98, -6.42848144206, -4.1197989205, -9.1749349565
99, -6.35230655174, -4.09005716134, -9.47281360757
100, -6.28033537459, -3.74403763706, -9.59332438794
101, -6.30030513402, -3.50685846038, -9.39122748105
102, -6.34564870846, -3.5859156986, -9.24497016697
103, -6.31892424163, -3.6009961141, -9.36239051096
104, -6.30501235603, -3.76297125652, -9.50153308802
105, -6.42387225658, -3.96199679891, -9.11399109822
106, -6.3555781067, -4.02171154545, -9.42477745067
107, -6.39421263609, -3.69064191186, -9.09847686879
108, -6.37292872029, -3.60642764978, -9.14328431203
109, -6.38298905458, -4.04456600916, -9.32373946879
110, -6.30095088391, -3.65177958485, -9.46193320399
111, -6.42480746435, -3.85608383388, -9.05653643127
112, -6.40877179214, -4.02872789562, -9.20980429585
113, -6.33515255663, -3.93753316148, -9.46607680587
114, -6.3299842243, -3.7329254544, -9.38373716629
115, -6.3708591208, -3.70560897832, -9.20199164091
116, -6.3586221374, -3.92788132036, -9.36477577253
117, -6.39574483364, -3.91817860879, -9.20736066983
118, -6.31587265401, -3.8665777219, -9.50936313505
119, -6.41375958735, -3.75815306263, -9.05234999196
120, -6.34465247707, -3.67898821795, -9.29617573972
121, -6.35819170502, -3.77221050546, -9.28774405169
122, -6.38337571957, -3.95730910085, -9.27798189412
123, -6.33243229205, -3.84235380243, -9.42907248374
124, -6.39857049997, -3.78389608421, -9.12777925237
125, -6.37147300318, -3.87068803443, -9.28303214755
126, -6.35014067247, -3.82921182378, -9.3496723242
127, -6.38327825848, -3.82019269344, -9.20897446602
128, -6.40525466394, -3.86806960321, -9.14292837774
129, -6.39288554924, -3.4093693733, -9.39518242604
130, -6.37545586007, -3.44525939448, -9.48495266817
131, -6.36310350529, -3.50181196585, -9.56432403442
132, -6.35654636482, -3.57574044499, -9.62868371868
133, -6.3561655106, -3.66274837585, -9.6742913907
134, -6.36198308108, -3.75777918515, -9.69849648527
135, -6.37366097651, -3.85531002276, -9.69989230304
136, -6.39052051996, -3.94967275014, -9.67839772414
137, -6.41158189854, -4.03538334328, -9.63526192245
138, -6.43562109965, -4.10746062582, -9.57299180741
139, -6.46124105709, -4.16171572595, -9.49520627103
140, -6.48695282321, -4.19499552281, -9.40642595643
141, -6.51126213048, -4.20536592377, -9.31181042871
142, -6.53275620868, -4.19222424145, -9.21685840655
143, -6.55018589785, -4.15633422028, -9.12708816443
144, -6.56253825263, -4.0997816489, -9.04771679817
145, -6.5690953931, -4.02585316977, -8.98335711391
146, -6.56947624732, -3.9388452389, -8.93774944189
147, -6.56365867683, -3.8438144296, -8.91354434732
148, -6.5519807814, -3.746283592, -8.91214852956
149, -6.53512123795, -3.65192086462, -8.93364310846
150, -6.51405985938, -3.56621027148, -8.97677891015
151, -6.49002065827, -3.49413298893, -9.03904902518
152, -6.46440070083, -3.4398778888, -9.11683456156
153, -6.43868893471, -3.40659809195, -9.20561487616
154, -6.49112830187, -3.39726398393, -9.41909684658
155, -6.47369861271, -3.4331540051, -9.50886708871
156, -6.46134625793, -3.48970657648, -9.58823845497
157, -6.45478911745, -3.56363505561, -9.65259813922
158, -6.45440826323, -3.65064298648, -9.69820581125
159, -6.46022583372, -3.74567379578, -9.72241090581
160, -6.47190372915, -3.84320463338, -9.72380672358
161, -6.4887632726, -3.93756736076, -9.70231214468
162, -6.50982465117, -4.0232779539, -9.65917634299
163, -6.53386385229, -4.09535523645, -9.59690622795
164, -6.55948380973, -4.14961033658, -9.51912069158
165, -6.58519557584, -4.18289013343, -9.43034037698
166, -6.60950488312, -4.19326053439, -9.33572484925
167, -6.63099896132, -4.18011885208, -9.2407728271
168, -6.64842865048, -4.1442288309, -9.15100258497
169, -6.66078100526, -4.08767625953, -9.07163121871
170, -6.66733814574, -4.0137477804, -9.00727153446
171, -6.66771899996, -3.92673984953, -8.96166386243
172, -6.66190142947, -3.83170904023, -8.93745876787
173, -6.65022353404, -3.73417820262, -8.9360629501
174, -6.63336399059, -3.63981547524, -8.957557529
175, -6.61230261202, -3.5541048821, -9.00069333069
176, -6.58826341091, -3.48202759956, -9.06296344573
177, -6.56264345346, -3.42777249943, -9.1407489821
178, -6.53693168735, -3.39449270257, -9.2295292967
179, -6.58937105451, -3.38515859456, -9.44301126712
180, -6.57194136534, -3.42104861573, -9.53278150925
181, -6.55958901056, -3.4776011871, -9.61215287551
182, -6.55303187009, -3.55152966624, -9.67651255976
183, -6.55265101587, -3.6385375971, -9.72212023179
184, -6.55846858636, -3.73356840641, -9.74632532636
185, -6.57014648179, -3.83109924401, -9.74772114412
186, -6.58700602524, -3.92546197139, -9.72622656522
187, -6.60806740381, -4.01117256453, -9.68309076353
188, -6.63210660492, -4.08324984708, -9.6208206485
189, -6.65772656237, -4.1375049472, -9.54303511212
190, -6.68343832848, -4.17078474406, -9.45425479752
191, -6.70774763576, -4.18115514502, -9.35963926979
192, -6.72924171396, -4.1680134627, -9.26468724764
193, -6.74667140312, -4.13212344153, -9.17491700551
194, -6.7590237579, -4.07557087016, -9.09554563925
195, -6.76558089838, -4.00164239102, -9.031185955
196, -6.7659617526, -3.91463446015, -8.98557828297
197, -6.76014418211, -3.81960365085, -8.96137318841
198, -6.74846628668, -3.72207281325, -8.95997737064
199, -6.73160674323, -3.62771008587, -8.98147194954
200, -6.71054536466, -3.54199949273, -9.02460775123
201, -6.68650616354, -3.46992221018, -9.08687786627
202, -6.6608862061, -3.41566711005, -9.16466340264
203, -6.63517443999, -3.3823873132, -9.25344371724
204, -6.68761392215, -3.37305319101, -9.46692571566
205, -6.67018423299, -3.40894321219, -9.55669595779
206, -6.65783187821, -3.46549578356, -9.63606732404
207, -6.65127473773, -3.53942426269, -9.7004270083
208, -6.65089388351, -3.62643219356, -9.74603468032
209, -6.656711454, -3.72146300286, -9.77023977489
210, -6.66838934943, -3.81899384046, -9.77163559266
211, -6.68524889288, -3.91335656784, -9.75014101376
212, -6.70631027145, -3.99906716098, -9.70700521207
213, -6.73034947257, -4.07114444353, -9.64473509703
214, -6.75596943001, -4.12539954366, -9.56694956065
215, -6.78168119612, -4.15867934051, -9.47816924606
216, -6.8059905034, -4.16904974147, -9.38355371833
217, -6.8274845816, -4.15590805916, -9.28860169618
218, -6.84491427077, -4.12001803798, -9.19883145405
219, -6.85726662555, -4.06346546661, -9.11946008779
220, -6.86382376602, -3.98953698748, -9.05510040354
221, -6.86420462024, -3.90252905661, -9.00949273151
222, -6.85838704975, -3.80749824731, -8.98528763694
223, -6.84670915432, -3.7099674097, -8.98389181918
224, -6.82984961087, -3.61560468232, -9.00538639808
225, -6.8087882323, -3.52989408918, -9.04852219977
226, -6.78474903119, -3.45781680664, -9.1107923148
227, -6.75912907374, -3.40356170651, -9.18857785118
228, -6.73341730763, -3.37028190966, -9.27735816578
229, -6.78585667479, -3.36094780164, -9.4908401362
230, -6.76842698563, -3.39683782281, -9.58061037833
231, -6.75607463085, -3.45339039418, -9.65998174459
232, -6.74951749037, -3.52731887332, -9.72434142884
233, -6.74913663615, -3.61432680419, -9.76994910087
234, -6.75495420664, -3.70935761349, -9.79415419543
235, -6.76663210207, -3.80688845109, -9.7955500132
236, -6.78349164552, -3.90125117847, -9.7740554343
237, -6.80455302409, -3.98696177161, -9.73091963261
238, -6.8285922252, -4.05903905416, -9.66864951757
239, -6.85421218265, -4.11329415429, -9.5908639812
240, -6.87992394876, -4.14657395114, -9.5020836666
241, -6.90423325604, -4.1569443521, -9.40746813887
242, -6.92572733424, -4.14380266978, -9.31251611672
243, -6.9431570234, -4.10791264861, -9.22274587459
244, -6.95550937818, -4.05136007724, -9.14337450833
245, -6.96206651866, -3.9774315981, -9.07901482408
246, -6.96244737288, -3.89042366723, -9.03340715205
247, -6.95662980239, -3.79539285793, -9.00920205749
248, -6.94495190696, -3.69786202033, -9.00780623972
249, -6.92809236351, -3.60349929295, -9.02930081862
250, -6.90703098494, -3.51778869981, -9.07243662031
251, -6.88299178382, -3.44571141726, -9.13470673535
252, -6.85737182638, -3.39145631713, -9.21249227172
253, -6.83166006027, -3.35817652028, -9.30127258632
254, -6.88409942743, -3.34884241226, -9.51475455674
255, -6.86666973826, -3.38473243344, -9.60452479887
256, -6.85431738348, -3.44128500481, -9.68389616513
257, -6.84776024301, -3.51521348394, -9.74825584939
258, -6.84737938879, -3.60222141481, -9.79386352141
259, -6.85319695928, -3.69725222411, -9.81806861598
260, -6.86487485471, -3.79478306172, -9.81946443374
261, -6.88173439816, -3.8891457891, -9.79796985484
262, -6.90279577673, -3.97485638224, -9.75483405315
263, -6.92683497784, -4.04693366478, -9.69256393812
264, -6.95245493528, -4.10118876491, -9.61477840174
265, -6.9781667014, -4.13446856177, -9.52599808714
266, -7.00247600867, -4.14483896272, -9.43138255941
267, -7.02397008687, -4.13169728041, -9.33643053726
268, -7.04139977604, -4.09580725923, -9.24666029513
269, -7.05375213082, -4.03925468786, -9.16728892888
270, -7.06030927129, -3.96532620873, -9.10292924462
271, -7.06069012551, -3.87831827786, -9.0573215726
272, -7.05487255503, -3.78328746856, -9.03311647803
273, -7.0431946596, -3.68575663096, -9.03172066026
274, -7.02633511615, -3.59139390358, -9.05321523916
275, -7.00527373757, -3.50568331044, -9.09635104085
276, -6.98123453646, -3.43360602789, -9.15862115589
277, -6.95561457902, -3.37935092776, -9.23640669227
278, -6.9299028129, -3.34607113091, -9.32518700686
279, -6.98234218007, -3.33673702289, -9.53866897729
280, -6.9649124909, -3.37262704406, -9.62843921941
281, -6.95256013612, -3.42917961543, -9.70781058567
282, -6.94600299565, -3.50310809457, -9.77217026993
283, -6.94562214143, -3.59011602544, -9.81777794195
284, -6.95143971191, -3.68514683474, -9.84198303652
285, -6.96311760735, -3.78267767234, -9.84337885428
286, -6.97997715079, -3.87704039972, -9.82188427538
287, -7.00103852937, -3.96275099286, -9.7787484737
288, -7.02507773048, -4.03482827541, -9.71647835866
289, -7.05069768792, -4.08908337554, -9.63869282228
290, -7.07640945404, -4.12236317239, -9.54991250768
291, -7.10071876131, -4.13273357335, -9.45529697996
292, -7.12221283951, -4.11959189103, -9.3603449578
293, -7.13964252868, -4.08370186986, -9.27057471568
294, -7.15199488346, -4.02714929849, -9.19120334942
295, -7.15855202393, -3.95322081935, -9.12684366516
296, -7.15893287815, -3.86621288849, -9.08123599314
297, -7.15311530766, -3.77118207919, -9.05703089857
298, -7.14143741223, -3.67365124158, -9.0556350808
299, -7.12457786879, -3.5792885142, -9.07712965971
300, -7.10351649021, -3.49357792106, -9.12026546139
301, -7.0794772891, -3.42150063852, -9.18253557643
302, -7.05385733166, -3.36724553839, -9.26032111281
303, -7.02814556554, -3.33396574153, -9.34910142741
304, -7.0805849327, -3.32463163352, -9.56258339783
305, -7.06315524354, -3.36052165469, -9.65235363995
306, -7.05080288876, -3.41707422606, -9.73172500621
307, -7.04424574828, -3.4910027052, -9.79608469047
308, -7.04386489406, -3.57801063606, -9.84169236249
309, -7.04968246455, -3.67304144536, -9.86589745706
310, -7.06136035998, -3.77057228297, -9.86729327483
311, -7.07821990343, -3.86493501035, -9.84579869593
312, -7.099281282, -3.95064560349, -9.80266289424
313, -7.12332048312, -4.02272288603, -9.7403927792
314, -7.14894044056, -4.07697798616, -9.66260724282
315, -7.17465220667, -4.11025778302, -9.57382692822
316, -7.19896151395, -4.12062818398, -9.4792114005
317, -7.22045559215, -4.10748650166, -9.38425937834
318, -7.23788528132, -4.07159648049, -9.29448913622
319, -7.2502376361, -4.01504390912, -9.21511776996
320, -7.25679477657, -3.94111542998, -9.1507580857
321, -7.25717563079, -3.85410749911, -9.10515041368
322, -7.2513580603, -3.75907668981, -9.08094531911
323, -7.23968016487, -3.66154585221, -9.07954950135
324, -7.22282062142, -3.56718312483, -9.10104408025
325, -7.20175924285, -3.48147253169, -9.14417988193
326, -7.17772004174, -3.40939524914, -9.20644999697
327, -7.15210008429, -3.35514014901, -9.28423553335
328, -7.12638831818, -3.32186035216, -9.37301584795
329, -7.17882768534, -3.31252624414, -9.58649781837
330, -7.16139799618, -3.34841626532, -9.6762680605
331, -7.1490456414, -3.40496883669, -9.75563942676
332, -7.14248850092, -3.47889731582, -9.81999911101
333, -7.1421076467, -3.56590524669, -9.86560678303
334, -7.14792521719, -3.66093605599, -9.8898118776
335, -7.15960311262, -3.75846689359, -9.89120769537
336, -7.17646265607, -3.85282962097, -9.86971311647
337, -7.19752403464, -3.93854021411, -9.82657731478
338, -7.22156323575, -4.01061749666, -9.76430719974
339, -7.2471831932, -4.06487259679, -9.68652166336
340, -7.27289495931, -4.09815239364, -9.59774134877
341, -7.29720426659, -4.1085227946, -9.50312582104
342, -7.31869834479, -4.09538111229, -9.40817379889
343, -7.33612803395, -4.05949109111, -9.31840355676
344, -7.34848038873, -4.00293851974, -9.2390321905
345, -7.35503752921, -3.92901004061, -9.17467250625
346, -7.35541838343, -3.84200210974, -9.12906483422
347, -7.34960081294, -3.74697130044, -9.10485973965
348, -7.33792291751, -3.64944046283, -9.10346392189
349, -7.32106337406, -3.55507773545, -9.12495850079
350, -7.30000199549, -3.46936714231, -9.16809430248
351, -7.27596279437, -3.39728985977, -9.23036441751
352, -7.25034283693, -3.34303475964, -9.30814995389
353, -7.22463107082, -3.30975496278, -9.39693026849
354, -7.27707043798, -3.30042085477, -9.61041223891
355, -7.25964074881, -3.33631087594, -9.70018248104
356, -7.24728839403, -3.39286344731, -9.7795538473
357, -7.24073125356, -3.46679192645, -9.84391353155
358, -7.24035039934, -3.55379985732, -9.88952120358
359, -7.24616796983, -3.64883066662, -9.91372629814
360, -7.25784586526, -3.74636150422, -9.91512211591
361, -7.27470540871, -3.8407242316, -9.89362753701
362, -7.29576678728, -3.92643482474, -9.85049173532
363, -7.31980598839, -3.99851210729, -9.78822162028
364, -7.34542594583, -4.05276720742, -9.71043608391
365, -7.37113771195, -4.08604700427, -9.62165576931
366, -7.39544701922, -4.09641740523, -9.52704024158
367, -7.41694109742, -4.08327572291, -9.43208821943
368, -7.43437078659, -4.04738570174, -9.3423179773
369, -7.44672314137, -3.99083313037, -9.26294661104
370, -7.45328028184, -3.91690465123, -9.19858692679
371, -7.45366113606, -3.82989672036, -9.15297925476
372, -7.44784356558, -3.73486591106, -9.1287741602
373, -7.43616567015, -3.63733507346, -9.12737834243
374, -7.4193061267, -3.54297234608, -9.14887292133
375, -7.39824474812, -3.45726175294, -9.19200872302
376, -7.37420554701, -3.38518447039, -9.25427883806
377, -7.34858558957, -3.33092937026, -9.33206437443
378, -7.32287382345, -3.29764957341, -9.42084468903
379, -7.37531319062, -3.28831546539, -9.63432665946
380, -7.35788350145, -3.32420548657, -9.72409690158
381, -7.34553114667, -3.38075805794, -9.80346826784
382, -7.3389740062, -3.45468653707, -9.8678279521
383, -7.33859315198, -3.54169446794, -9.91343562412
384, -7.34441072246, -3.63672527724, -9.93764071869
385, -7.3560886179, -3.73425611485, -9.93903653645
386, -7.37294816134, -3.82861884223, -9.91754195755
387, -7.39400953992, -3.91432943537, -9.87440615586
388, -7.41804874103, -3.98640671791, -9.81213604083
389, -7.44366869847, -4.04066181804, -9.73435050445
390, -7.46938046459, -4.07394161489, -9.64557018985
391, -7.49368977186, -4.08431201585, -9.55095466212
392, -7.51518385006, -4.07117033354, -9.45600263997
393, -7.53261353923, -4.03528031236, -9.36623239784
394, -7.54496589401, -3.97872774099, -9.28686103159
395, -7.55152303448, -3.90479926186, -9.22250134733
396, -7.5519038887, -3.81779133099, -9.17689367531
397, -7.54608631821, -3.72276052169, -9.15268858074
398, -7.53440842278, -3.62522968409, -9.15129276297
399, -7.51754887934, -3.53086695671, -9.17278734187
400, -7.49648750076, -3.44515636357, -9.21592314356
401, -7.47244829965, -3.37307908102, -9.2781932586
402, -7.44682834221, -3.31882398089, -9.35597879498
403, -7.42111657609, -3.28554418404, -9.44475910958
404, -7.47355594326, -3.27621007602, -9.65824108
405, -7.45612625409, -3.31210009719, -9.74801132212
406, -7.44377389931, -3.36865266856, -9.82738268838
407, -7.43721675883, -3.4425811477, -9.89174237264
408, -7.43683590461, -3.52958907857, -9.93735004466
409, -7.4426534751, -3.62461988787, -9.96155513923
410, -7.45433137053, -3.72215072547, -9.96295095699
411, -7.47119091398, -3.81651345285, -9.94145637809
412, -7.49225229255, -3.90222404599, -9.89832057641
413, -7.51629149367, -3.97430132854, -9.83605046137
414, -7.54191145111, -4.02855642867, -9.75826492499
415, -7.56762321722, -4.06183622552, -9.66948461039
416, -7.5919325245, -4.07220662648, -9.57486908267
417, -7.6134266027, -4.05906494416, -9.47991706051
418, -7.63085629187, -4.02317492299, -9.39014681839
419, -7.64320864665, -3.96662235162, -9.31077545213
420, -7.64976578712, -3.89269387248, -9.24641576787
421, -7.65014664134, -3.80568594162, -9.20080809585
422, -7.64432907085, -3.71065513232, -9.17660300128
423, -7.63265117542, -3.61312429471, -9.17520718351
424, -7.61579163197, -3.51876156733, -9.19670176242
425, -7.5947302534, -3.43305097419, -9.2398375641
426, -7.57069105229, -3.36097369165, -9.30210767914
427, -7.54507109484, -3.30671859152, -9.37989321552
428, -7.51935932873, -3.27343879466, -9.46867353012
429, -7.57179869589, -3.26410468665, -9.68215550054
430, -7.55436900673, -3.29999470782, -9.77192574267
431, -7.54201665195, -3.35654727919, -9.85129710892
432, -7.53545951147, -3.43047575833, -9.91565679318
433, -7.53507865725, -3.51748368919, -9.9612644652
434, -7.54089622774, -3.61251449849, -9.98546955977
435, -7.55257412317, -3.7100453361, -9.98686537754
436, -7.56943366662, -3.80440806348, -9.96537079864
437, -7.59049504519, -3.89011865662, -9.92223499695
438, -7.6145342463, -3.96219593916, -9.85996488191
439, -7.64015420375, -4.01645103929, -9.78217934553
440, -7.66586596986, -4.04973083615, -9.69339903093
441, -7.69017527714, -4.06010123711, -9.59878350321
442, -7.71166935534, -4.04695955479, -9.50383148105
443, -7.7290990445, -4.01106953362, -9.41406123893
444, -7.74145139928, -3.95451696225, -9.33468987267
445, -7.74800853976, -3.88058848311, -9.27033018841
446, -7.74838939398, -3.79358055224, -9.22472251639
447, -7.74257182349, -3.69854974294, -9.20051742182
448, -7.73089392806, -3.60101890534, -9.19912160406
449, -7.71403438461, -3.50665617796, -9.22061618296
450, -7.69297300604, -3.42094558482, -9.26375198464
451, -7.66893380492, -3.34886830227, -9.32602209968
452, -7.64331384748, -3.29461320214, -9.40380763606
453, -7.61760208137, -3.26133340529, -9.49258795066
454, -7.67004144853, -3.25199929727, -9.70606992108
455, -7.65261175936, -3.28788931844, -9.79584016321
456, -7.64025940458, -3.34444188982, -9.87521152947
457, -7.63370226411, -3.41837036895, -9.93957121372
458, -7.63332140989, -3.50537829982, -9.98517888575
459, -7.63913898038, -3.60040910912, -10.0093839803
460, -7.65081687581, -3.69793994672, -10.0107797981
461, -7.66767641926, -3.7923026741, -9.98928521918
462, -7.68873779783, -3.87801326724, -9.94614941749
463, -7.71277699894, -3.95009054979, -9.88387930245
464, -7.73839695638, -4.00434564992, -9.80609376608
465, -7.7641087225, -4.03762544677, -9.71731345148
466, -7.78841802978, -4.04799584773, -9.62269792375
467, -7.80991210797, -4.03485416542, -9.5277459016
468, -7.82734179714, -3.99896414424, -9.43797565947
469, -7.83969415192, -3.94241157287, -9.35860429321
470, -7.84625129239, -3.86848309374, -9.29424460896
471, -7.84663214661, -3.78147516287, -9.24863693693
472, -7.84081457613, -3.68644435357, -9.22443184236
473, -7.8291366807, -3.58891351596, -9.2230360246
474, -7.81227713725, -3.49455078858, -9.2445306035
475, -7.79121575867, -3.40884019544, -9.28766640519
476, -7.76717655756, -3.3367629129, -9.34993652022
477, -7.74155660012, -3.28250781277, -9.4277220566
478, -7.715844834, -3.24922801591, -9.5165023712
479, -7.76828420117, -3.2398939079, -9.72998434162
480, -7.750854512, -3.27578392907, -9.81975458375
481, -7.73850215722, -3.33233650044, -9.89912595001
482, -7.73194501675, -3.40626497958, -9.96348563426
483, -7.73156416253, -3.49327291045, -10.0090933063
484, -7.73738173302, -3.58830371975, -10.0332984009
485, -7.74905962845, -3.68583455735, -10.0346942186
486, -7.76591917189, -3.78019728473, -10.0131996397
487, -7.78698055047, -3.86590787787, -9.97006383803
488, -7.81101975158, -3.93798516042, -9.907793723
489, -7.83663970902, -3.99224026055, -9.83000818662
490, -7.86235147514, -4.0255200574, -9.74122787202
491, -7.88666078241, -4.03589045836, -9.64661234429
492, -7.90815486061, -4.02274877604, -9.55166032214
493, -7.92558454978, -3.98685875487, -9.46189008001
494, -7.93793690456, -3.9303061835, -9.38251871375
495, -7.94449404503, -3.85637770436, -9.3181590295
496, -7.94487489925, -3.76936977349, -9.27255135747
497, -7.93905732876, -3.67433896419, -9.24834626291
498, -7.92737943333, -3.57680812659, -9.24695044514
499, -7.91051988989, -3.48244539921, -9.26844502404
500, -7.88945851131, -3.39673480607, -9.31158082573
501, -7.8654193102, -3.32465752352, -9.37385094077
502, -7.83979935276, -3.27040242339, -9.45163647714
503, -7.81408758664, -3.23712262654, -9.54041679174
504, -7.86652695381, -3.22778851852, -9.75389876217
505, -7.84909726464, -3.2636785397, -9.84366900429
506, -7.83674490986, -3.32023111107, -9.92304037055
507, -7.83018776939, -3.3941595902, -9.98740005481
508, -7.82980691517, -3.48116752107, -10.0330077268
509, -7.83562448565, -3.57619833037, -10.0572128214
510, -7.84730238108, -3.67372916798, -10.0586086392
511, -7.86416192453, -3.76809189536, -10.0371140603
512, -7.8852233031, -3.8538024885, -9.99397825857
513, -7.90926250422, -3.92587977104, -9.93170814354
514, -7.93488246166, -3.98013487117, -9.85392260716
515, -7.96059422778, -4.01341466802, -9.76514229256
516, -7.98490353505, -4.02378506898, -9.67052676484
517, -8.00639761325, -4.01064338667, -9.57557474268
518, -8.02382730242, -3.97475336549, -9.48580450055
519, -8.0361796572, -3.91820079412, -9.4064331343
520, -8.04273679767, -3.84427231499, -9.34207345004
521, -8.04311765189, -3.75726438412, -9.29646577802
522, -8.0373000814, -3.66223357482, -9.27226068345
523, -8.02562218597, -3.56470273722, -9.27086486568
524, -8.00876264252, -3.47034000984, -9.29235944458
525, -7.98770126395, -3.38462941669, -9.33549524627
526, -7.96366206284, -3.31255213415, -9.39776536131
527, -7.93804210539, -3.25829703402, -9.47555089769
528, -7.91233033928, -3.22501723717, -9.56433121229
529, -7.96476970644, -3.21568312915, -9.77781318271
530, -7.94734001728, -3.25157315032, -9.86758342483
531, -7.9349876625, -3.30812572169, -9.94695479109
532, -7.92843052202, -3.38205420083, -10.0113144753
533, -7.9280496678, -3.4690621317, -10.0569221474
534, -7.93386723829, -3.564092941, -10.0811272419
535, -7.94554513372, -3.6616237786, -10.0825230597
536, -7.96240467717, -3.75598650598, -10.0610284808
537, -7.98346605574, -3.84169709912, -10.0178926791
538, -8.00750525685, -3.91377438167, -9.95562256408
539, -8.0331252143, -3.9680294818, -9.8778370277
540, -8.05883698041, -4.00130927865, -9.7890567131
541, -8.08314628769, -4.01167967961, -9.69444118538
542, -8.10464036589, -3.99853799729, -9.59948916322
543, -8.12207005505, -3.96264797612, -9.5097189211
544, -8.13442240983, -3.90609540475, -9.43034755484
545, -8.14097955031, -3.83216692561, -9.36598787058
546, -8.14136040453, -3.74515899475, -9.32038019856
547, -8.13554283404, -3.65012818545, -9.29617510399
548, -8.12386493861, -3.55259734784, -9.29477928622
549, -8.10700539516, -3.45823462046, -9.31627386513
550, -8.08594401659, -3.37252402732, -9.35940966681
551, -8.06190481548, -3.30044674478, -9.42167978185
552, -8.03628485803, -3.24619164465, -9.49946531823
553, -8.01057309192, -3.21291184779, -9.58824563283
554, -8.06301245908, -3.20357773977, -9.80172760325
555, -8.04558276991, -3.23946776095, -9.89149784538
556, -8.03323041513, -3.29602033232, -9.97086921163
557, -8.02667327466, -3.36994881146, -10.0352288959
558, -8.02629242044, -3.45695674232, -10.0808365679
559, -8.03210999093, -3.55198755162, -10.1050416625
560, -8.04378788636, -3.64951838923, -10.1064374802
561, -8.06064742981, -3.74388111661, -10.0849429013
562, -8.08170880838, -3.82959170975, -10.0418070997
563, -8.10574800949, -3.90166899229, -9.97953698462
564, -8.13136796693, -3.95592409242, -9.90175144824
565, -8.15707973305, -3.98920388928, -9.81297113364
566, -8.18138904033, -3.99957429024, -9.71835560592
567, -8.20288311852, -3.98643260792, -9.62340358376
568, -8.22031280769, -3.95054258675, -9.53363334164
569, -8.23266516247, -3.89399001538, -9.45426197538
570, -8.23922230294, -3.82006153624, -9.38990229112
571, -8.23960315716, -3.73305360537, -9.3442946191
572, -8.23378558668, -3.63802279607, -9.32008952453
573, -8.22210769125, -3.54049195847, -9.31869370677
574, -8.2052481478, -3.44612923109, -9.34018828567
575, -8.18418676922, -3.36041863795, -9.38332408736
576, -8.16014756811, -3.2883413554, -9.44559420239
577, -8.13452761067, -3.23408625527, -9.52337973877
578, -8.10881584455, -3.20080645842, -9.61216005337
579, -8.16125518297, -3.19147235394, -9.82564201679
580, -8.1438254938, -3.22736237512, -9.91541225892
581, -8.13147313902, -3.28391494649, -9.99478362518
582, -8.12491599855, -3.35784342562, -10.0591433094
583, -8.12453514433, -3.44485135649, -10.1047509815
584, -8.13035271481, -3.53988216579, -10.128956076
585, -8.14203061024, -3.6374130034, -10.1303518938
586, -8.15889015369, -3.73177573078, -10.1088573149
587, -8.17995153227, -3.81748632392, -10.0657215132
588, -8.20399073338, -3.88956360646, -10.0034513982
589, -8.22961069082, -3.94381870659, -9.92566586179
590, -8.25532245694, -3.97709850345, -9.83688554719
591, -8.27963176421, -3.98746890441, -9.74227001946
592, -8.30112584241, -3.97432722209, -9.64731799731
593, -8.31855553158, -3.93843720092, -9.55754775518
594, -8.33090788636, -3.88188462954, -9.47817638892
595, -8.33746502683, -3.80795615041, -9.41381670467
596, -8.33784588105, -3.72094821954, -9.36820903264
597, -8.33202831056, -3.62591741024, -9.34400393808
598, -8.32035041513, -3.52838657264, -9.34260812031
599, -8.30349087168, -3.43402384526, -9.36410269921
600, -8.28242949311, -3.34831325212, -9.4072385009
601, -8.258390292, -3.27623596957, -9.46950861594
602, -8.23277033456, -3.22198086944, -9.54729415231
603, -8.20705856844, -3.18870107259, -9.63607446691
604, -8.25949796436, -3.17936696103, -9.84955644433
605, -8.24206827519, -3.2152569822, -9.93932668646
606, -8.22971592041, -3.27180955357, -10.0186980527
607, -8.22315877994, -3.34573803271, -10.083057737
608, -8.22277792572, -3.43274596357, -10.128665409
609, -8.2285954962, -3.52777677288, -10.1528705036
610, -8.24027339163, -3.62530761048, -10.1542663213
611, -8.25713293508, -3.71967033786, -10.1327717424
612, -8.27819431366, -3.805380931, -10.0896359407
613, -8.30223351477, -3.87745821355, -10.0273658257
614, -8.32785347221, -3.93171331367, -9.94958028933
615, -8.35356523833, -3.96499311053, -9.86079997473
616, -8.3778745456, -3.97536351149, -9.766184447
617, -8.3993686238, -3.96222182917, -9.67123242485
618, -8.41679831297, -3.926331808, -9.58146218272
619, -8.42915066775, -3.86977923663, -9.50209081646
620, -8.43570780822, -3.79585075749, -9.43773113221
621, -8.43608866244, -3.70884282662, -9.39212346018
622, -8.43027109195, -3.61381201732, -9.36791836562
623, -8.41859319652, -3.51628117972, -9.36652254785
624, -8.40173365307, -3.42191845234, -9.38801712675
625, -8.3806722745, -3.3362078592, -9.43115292844
626, -8.35663307339, -3.26413057665, -9.49342304348
627, -8.33101311595, -3.20987547652, -9.57120857985
628, -8.30530134983, -3.17659567967, -9.65998889445
629, -8.47059609339, -3.19584600705, -9.6574600254
630, -8.50244780225, -3.2129184323, -9.71848395948
631, -8.55432945453, -3.31089412556, -9.55659908098
632, -8.51966461522, -3.24180804171, -9.62782440065
633, -8.58765123654, -3.3162242073, -9.63719159997
634, -8.57266802455, -3.54643499493, -9.42772072823
635, -8.52814929077, -3.33893612182, -9.48004747013
636, -8.56877806088, -3.36264361522, -9.51647793263
637, -8.61289366896, -3.39892176768, -9.5675357445
638, -8.59743743136, -3.49262380401, -9.47490843073
639, -8.64703350789, -3.51618634578, -9.56192373771
640, -8.64049885116, -3.37792439846, -9.71231970989
641, -8.68165286956, -3.55400089288, -9.65330492759
642, -8.68467396895, -3.48407763425, -9.7411352267
643, -8.66361194675, -3.46393344012, -9.64377229406
644, -8.57345472385, -3.6825914232, -9.44240772503
645, -8.60919932788, -3.59767733768, -9.47637690084
646, -8.65537806875, -3.628521266, -9.57576410158
647, -8.61062694346, -3.79308630056, -9.58708150836
648, -8.60790605977, -3.72707787741, -9.51607112193
649, -8.64491463471, -3.72013702029, -9.60208091393
650, -8.51994112065, -3.93912926931, -9.79376780053
651, -8.54945726096, -3.91009463927, -9.66444066226
652, -8.58053901881, -3.86379076625, -9.62960318389
653, -8.63837877783, -3.78048651063, -9.68073655901
654, -8.57763091871, -3.88463906757, -9.73167551859
655, -8.62684724019, -3.79942444187, -9.80309079788
656, -8.69474302401, -3.59436347477, -9.74879963642
657, -8.6757004587, -3.66578952927, -9.66787271787
658, -8.65154023508, -3.7150238187, -9.86578403039
659, -8.68329214142, -3.63514364072, -9.82882838443
660, -8.67372905682, -3.70165166135, -9.76613715933
661, -8.49340028507, -3.9110861212, -9.92854373415
662, -8.59358527908, -3.79386420039, -9.91539157381
663, -8.55019003027, -3.88687101069, -9.86532520546
664, -8.48997112834, -3.78489462047, -10.0574953565
665, -8.51089736, -3.85670825107, -9.9775590806
666, -8.55191302407, -3.77006216368, -10.0014797256
667, -8.39396232332, -3.55884183735, -10.1679852998
668, -8.42709178942, -3.76850556774, -10.1115003464
669, -8.4724854618, -3.733893412, -10.0969076258
670, -8.52526345834, -3.68627416807, -10.0695645419
671, -8.44927481249, -3.6023614256, -10.139907466
672, -8.52841191648, -3.56129102747, -10.0815123749
673, -8.65712852144, -3.62603422975, -9.9144848792
674, -8.60610372102, -3.70440669575, -9.96832883297
675, -8.59023530336, -3.50702463914, -10.0125331657
676, -8.64317156637, -3.54659386979, -9.94756688349
677, -8.60176980341, -3.60645381311, -10.0061759172
678, -8.37005567342, -3.42406137046, -10.147633922
679, -8.43630422335, -3.49663361092, -10.137986874
680, -8.51467388831, -3.44974386975, -10.0677679444
681, -8.44357376476, -3.30298718279, -10.0312914129
682, -8.42341139704, -3.36927523438, -10.0951713076
683, -8.49661334352, -3.36500178511, -10.036654741
684, -8.40210128974, -3.2014051099, -9.9331556313
685, -8.42308822985, -3.24172380673, -9.97912097137
686, -8.51302836805, -3.31013641967, -9.96901551596
687, -8.47235170522, -3.22838094261, -9.89822123368
688, -8.63386592128, -3.46095848622, -9.93184173949
689, -8.56437296448, -3.40567807421, -9.9948847454
690, -8.59589775239, -3.36749648307, -9.91345904399
691, -8.57479858147, -3.28350162557, -9.72436432599
692, -8.55091424002, -3.29516441316, -9.8879705887
693, -8.43430125175, -3.68717757415, -10.1368537133
694, -8.56410008083, -3.41395766213, -9.46621390979
695, -8.46404920427, -3.18501833589, -9.71412603901
696, -8.50865659434, -3.27535197898, -9.53343330272
697, -8.5627606235, -3.49711699211, -9.42646707034
698, -8.57503559903, -3.60707787184, -9.43008033724
699, -8.57564678412, -3.75890736146, -9.48504463402
700, -8.57607106465, -3.82983312, -9.55377699394
701, -8.50723758714, -3.92786954259, -9.87064823294
702, -8.44841649981, -3.83017535348, -10.059555912
703, -8.39623503705, -3.60808519781, -10.1672098109
704, -8.38328414131, -3.49813021859, -10.1635255293
705, -8.37396821312, -3.34712028179, -10.1064934131
706, -6.70774301565, -3.99953582578, -9.42777574024
707, -6.65104013901, -3.94517358406, -9.52434096706
708, -6.76442001724, -3.86413398116, -9.4283429846
709, -6.6909993593, -3.87071414699, -9.36270438449
710, -6.48596000191, -3.93179914955, -9.38895158812
711, -6.5710675472, -3.94805190636, -9.37858683612
712, -6.48810177476, -3.84763999865, -9.41864470166
713, -6.55153893587, -3.93601312533, -9.47815424614
714, -6.60311686899, -3.86597714296, -9.44110609167
715, -6.55989884009, -3.77685290883, -9.45108068176
716, -6.48478338107, -3.8691985259, -9.49566179915
717, -6.5958904852, -3.83650588658, -9.58614378641
718, -6.68120507538, -3.84000256505, -9.51209580457
719, -8.258314562, -3.4012355091, -9.46867970904
720, -8.32284550383, -3.34148895399, -9.55148933322
721, -7.27319549079, -3.74432996164, -9.58901829737
722, -7.4059168415, -3.734370249, -9.51029788604
723, -7.34412230981, -3.84075656425, -9.54819893233
724, -7.3120766327, -3.78032378532, -9.48265094281
725, -7.14697364561, -3.58607639504, -9.77203453355
726, -7.23965780631, -3.56970232351, -9.78697466235
727, -7.13402390511, -3.54827085712, -9.7925351521
728, -7.50032399997, -3.85322593144, -9.42076452866
729, -7.51704047516, -3.700352955, -9.45270691467
730, -7.48974675351, -3.80184875552, -9.55688356631
731, -7.28849110109, -3.70002988238, -9.44385587056
732, -7.40581154151, -3.7206728979, -9.40989682595
733, -7.38995650493, -3.6016399614, -9.5940017426
734, -7.42816600463, -3.74145103365, -9.61136897248
735, -7.49599843443, -3.68300440192, -9.55722824248
736, -7.41560297425, -3.61179549312, -9.47355802097
737, -6.61802109086, -3.8871804225, -9.29465312803
738, -6.59580799683, -3.77550531503, -9.32737102313
739, -6.66376635951, -3.78959278892, -9.42365881861
740, -6.68668410992, -3.71066017673, -9.35090843453
741, -6.63734079025, -3.706423441, -9.46973146514
742, -6.78655597025, -3.75436692888, -9.30332071631
743, -8.3902150268, -3.64611076184, -9.8410022198
744, -8.48233274341, -3.67819690181, -9.85438065068
745, -8.48742694094, -3.65760831547, -9.74012095447
746, -8.50093465282, -3.54520195612, -9.81545586278
747, -8.36866456456, -3.7539207264, -9.72855942998
748, -8.41141349466, -3.62761073678, -9.67352422002
749, -8.35231855127, -3.78412288735, -9.8262292458
750, -8.34996928061, -3.52500910526, -9.75432137861
751, -8.31351361428, -3.68115784638, -9.77075475138
752, -8.29120648971, -3.60868710914, -9.84292416538
753, -8.35334286747, -3.71270960616, -9.92879044822
754, -8.35119614235, -3.54667871322, -9.94664166858
755, -8.380164888, -3.65289740085, -9.99309871837
756, -8.43102016661, -3.54258268935, -9.87878465667
757, -8.37370367946, -3.42367134704, -9.55606405761
758, -8.31754173039, -3.45545373725, -9.45650719279
759, -6.80362039453, -3.55877339113, -9.64842566812
760, -6.81392887219, -3.62418532721, -9.72885219387
761, -6.83732346889, -3.66735892175, -9.67948951502
762, -6.89864212276, -3.5748065705, -9.70941312542
763, -7.9575666235, -3.8693055535, -9.48770261393
764, -7.335550983, -3.4947856982, -9.51609465129
765, -7.44442372102, -3.4450722526, -9.46175806976
766, -7.41289487708, -3.35747655841, -9.48730697803
767, -7.41753493065, -3.37682163451, -9.56220503388
768, -8.23671260771, -3.32781804487, -9.73026412511
769, -8.27173148846, -3.30157186455, -9.56652990848
770, -8.21452888323, -3.3803212555, -9.65036571039
771, -7.25589689246, -3.37574812405, -9.44373274574
772, -7.32836042403, -3.39036703374, -9.45356446331
773, -7.21661171685, -3.45919938192, -9.51611938019
774, -7.30643244226, -3.52259109736, -9.42010726018
775, -7.39081457156, -3.44031989118, -9.38301392846
776, -7.26446106909, -3.53449838057, -9.65305706643
777, -7.30783194179, -3.6089053733, -9.53127150758
778, -7.43129844949, -3.54752337529, -9.40557462151
779, -7.42134156779, -3.50951145642, -9.53858710691
780, -7.33562015442, -3.45510511684, -9.60882881504
781, -8.03671263982, -3.58101944409, -9.56955498672
782, -8.05978816842, -3.45687791706, -9.57486624288
783, -8.13180884783, -3.53929473288, -9.56173754989
784, -8.05374181641, -3.51090599463, -9.48302035037
785, -7.97384260177, -3.64816535651, -9.71140846233
786, -7.95725915661, -3.51767755977, -9.5758635602
787, -7.9324199, -3.60418683082, -9.52974095699
788, -8.10321889511, -3.60412130692, -9.46727777868
789, -6.76139406743, -3.52785443242, -9.39182359709
790, -6.81586274245, -3.47415285925, -9.30976668293
791, -6.7891784563, -3.64149117104, -9.36636150271
792, -6.74322200323, -3.59162999663, -9.25832708239
793, -6.81786285224, -3.64262902232, -9.28234749446
794, -6.81107051865, -3.53199531723, -9.21476882594
795, -6.72736735639, -3.70630430588, -9.70667270908
796, -6.84805841741, -3.67912706551, -9.17740023239
797, -6.73679777803, -3.68452258409, -9.23182994679
798, -7.34344299914, -3.6173576708, -9.40487236585
799, -7.36017455399, -3.55929326541, -9.3350079534
800, -7.23650807676, -3.61245730225, -9.45137495897
801, -7.27008357525, -3.62452575613, -9.33636301143
802, -7.34221763891, -3.67728068237, -9.32031517244
803, -7.563199222, -3.58457477909, -9.40641739354
804, -7.51500718796, -3.55998166514, -9.47987146908
805, -7.62720724389, -3.67366601347, -9.4968803754
806, -7.50780805639, -3.71048228496, -9.33037134529
807, -7.63345190613, -3.73135743711, -9.38908785957
808, -7.59258778059, -3.83396907589, -9.49340482686
809, -7.20399840688, -3.74516535439, -9.44064922933
810, -7.36700748897, -3.83387468008, -9.45438159317
811, -7.34585156115, -3.70716779454, -9.6513140054
812, -7.29670879389, -3.91564571567, -9.49591493167
813, -6.36755796127, -3.55810901199, -9.43740395173
814, -8.42684626049, -3.45928901497, -9.84580404591
815, -8.32837143397, -3.38750818377, -9.78806819586
816, -8.33039039087, -3.45620844094, -9.88971595248
817, -8.24482176895, -3.50504516673, -9.70683369256
818, -8.25785362636, -3.51532422868, -9.79268875641
819, -8.46087160983, -3.43574893394, -9.73283394285
820, -8.44595854938, -3.53054258168, -9.70003219717
821, -7.65594194619, -3.43556216609, -9.69635937389
822, -7.74798356256, -3.38923803474, -9.64712535543
823, -7.74484868416, -3.33871510525, -9.75558511785
824, -7.76486740027, -3.48877524335, -9.69327373346
825, -7.63096369598, -3.45569228454, -9.79767320117
826, -7.75984324883, -3.42373101034, -9.80842119495
827, -7.57843277014, -3.35515674952, -9.71162953141
828, -7.63774300767, -3.3663794347, -9.78330771815
829, -7.6755191078, -3.34813694268, -9.67317355579
830, -7.66232805539, -3.4294983722, -9.58930203358
831, -7.70042285684, -3.54472233542, -9.78119548274
832, -7.63259153062, -3.51844767403, -9.70644028368
833, -8.11445360546, -3.65229938426, -9.66257417877
834, -8.08562511565, -3.68004097712, -9.768795879
835, -8.04517573687, -3.73198745868, -9.6163783595
836, -8.09945913034, -3.76911270852, -9.72432928379
837, -8.22099263866, -3.73317275739, -9.72102863761
838, -8.2249929954, -3.62460816458, -9.7594331877
839, -6.42760111484, -3.70817536892, -9.313388961
840, -6.39333535692, -3.65494475831, -9.41899042849
841, -8.21781268655, -3.61456049462, -9.62030881229
842, -8.16411336848, -3.57629089081, -9.71280857589
843, -8.11892904011, -3.65012162179, -9.55377535536
844, -6.62835605746, -3.82426333495, -9.23059152483
845, -6.79267190678, -3.96597967001, -9.39744764721
846, -6.76604009102, -3.92807141824, -9.31734400692
847, -6.75534119329, -3.88743950632, -9.23539459843
848, -6.7431694852, -3.75199832118, -9.4652015143
849, -7.00372038386, -3.4732619415, -9.23413704637
850, -6.99745817345, -3.42171928397, -9.30391393162
851, -7.10141240809, -3.5548316663, -9.23143667819
852, -7.10570034781, -3.4863974535, -9.29069893994
853, -7.00151764257, -3.55091988133, -9.30664643888
854, -6.90469995311, -3.45422036311, -9.31403313376
855, -6.91573622745, -3.49108509144, -9.21516982215
856, -8.24040651592, -3.25566674691, -9.62249774568
857, -7.97455214996, -3.91839882339, -9.80673381213
858, -8.0854844073, -3.85484467059, -9.75804448174
859, -7.93156716748, -3.82435912953, -9.78948222499
860, -8.0117868754, -3.7687343378, -9.83379700233
861, -7.0019796647, -3.52376519496, -9.17676784416
862, -7.0677596694, -3.74232913259, -9.64657212533
863, -7.07723143704, -3.7258511163, -9.75202524757
864, -7.14331061385, -3.70609362227, -9.69360837407
865, -7.05872769511, -3.61700296503, -9.72897716903
866, -6.98073304267, -3.72686671465, -9.58776760473
867, -7.01817146545, -3.62332883097, -9.58368938186
868, -7.13007678839, -3.72246308514, -9.58607520322
869, -7.1634375844, -3.80954877589, -9.71597049025
870, -7.23152697342, -3.7783255005, -9.66702036713
871, -7.02557039275, -3.83326295919, -9.53047372462
872, -6.96703055063, -3.85438443983, -9.61225990521
873, -7.10638635891, -3.84199628841, -9.63606561329
874, -7.83087757225, -3.55250539736, -9.43403103321
875, -7.89428976368, -3.60708874045, -9.32934194201
876, -7.87182095816, -3.66065832308, -9.48485315836
877, -7.8061714863, -3.74449147793, -9.41778540629
878, -6.9965179284, -3.7581321629, -9.72426461403
879, -8.01988281685, -3.81972881264, -9.65935756184
880, -8.16696400024, -3.86695655242, -9.64738211131
881, -7.96572715729, -3.74411456898, -9.67180488369
882, -7.88253284689, -3.86344506073, -9.7160391161
883, -8.20054458896, -3.29604097147, -9.56525769445
884, -8.11255427437, -3.79483981706, -9.57849239137
885, -6.94470570585, -3.86025320568, -9.42774049324
886, -6.88802990939, -3.85629548361, -9.56622303969
887, -6.79608713876, -3.8396436395, -9.51475536671
888, -6.86664973772, -3.9218047086, -9.43961466184
889, -6.96082520934, -3.93151224912, -9.55295973963
890, -6.86885363434, -3.39754160782, -9.34341284473
891, -6.88371827, -3.4397230344, -9.27315690425
892, -6.82967449598, -3.70186752698, -9.49992464783
893, -6.92451536152, -3.76182173532, -9.5105255877
894, -6.87777075659, -3.74468165746, -9.62891663969
895, -6.89541320191, -3.97625776106, -9.65165269313
896, -7.10509568759, -3.60501935468, -9.31384091266
897, -7.2433581406, -3.5439045524, -9.29397917745
898, -7.18480711877, -3.5684488546, -9.39352590602
899, -7.04373211697, -3.71995439896, -9.30311574807
900, -6.9910835737, -3.64925813551, -9.40970294093
901, -7.11445615007, -3.65428619664, -9.40945317796
902, -7.19859366129, -3.70624843564, -9.35162132315
903, -6.96542281382, -3.66701462439, -9.20964074435
904, -7.14135450718, -3.65235733382, -9.2381295333
905, -8.15768403212, -3.47429578682, -9.65579539564
906, -8.05646906243, -3.4318723237, -9.68570423692
907, -8.06510719104, -3.56252973734, -9.68586816968
908, -8.11368263673, -3.33724078102, -9.64244297497
909, -7.90949368733, -3.48276614983, -9.66644133022
910, -7.86342600728, -3.64157278471, -9.64544240044
911, -7.85016898257, -3.53965280082, -9.54463866914
912, -7.88617008381, -3.55088735485, -9.7745060143
913, -7.86209324089, -3.44514078398, -9.74623445306
914, -7.83809830828, -3.41454238209, -9.60633029371
915, -7.98868895136, -3.38179787154, -9.59660215455
916, -7.65186997568, -3.82644921467, -9.39035567484
917, -7.72658242272, -3.75560665198, -9.31834977889
918, -7.68747105106, -3.77928372589, -9.45535440813
919, -7.7001308904, -3.85747107662, -9.33807619807
920, -7.66188746763, -3.7536463169, -9.26974550196
921, -7.61808765643, -3.88443055884, -9.32490343436
922, -7.57386137095, -3.80123546551, -9.35564544134
923, -7.69148925937, -3.91510345958, -9.39781503838
924, -7.38865493202, -3.37364048819, -9.40739229903
925, -7.58095994691, -3.88669316099, -9.41763131757
926, -6.89633417363, -3.63381001001, -9.4259490527
927, -6.90315757726, -3.69458452135, -9.28290454747
928, -6.93758395583, -3.76384849049, -9.36978833706
929, -7.95835109702, -3.40219317344, -9.87997023667
930, -7.98792730992, -3.46033190029, -9.99242908684
931, -8.03995003592, -3.39045857388, -9.95084408975
932, -6.85024192857, -3.79253173591, -9.41622474849
933, -6.98189584789, -3.98118438088, -9.46672973847
934, -7.05641264403, -3.8212116246, -9.44080011038
935, -7.07271042339, -3.94586287146, -9.5384490264
936, -7.02631637565, -3.93930665442, -9.37106262623
937, -7.02666885044, -3.83330710513, -9.32709428663
938, -6.88343545023, -3.88994812673, -9.33019062128
939, -7.18636244854, -3.67335435401, -9.51851062808
940, -7.06685420113, -3.71080928346, -9.469027708
941, -7.21093122418, -3.80449411176, -9.51870997845
942, -7.26865381512, -3.81011551413, -9.35666484037
943, -7.16255328302, -3.86856692562, -9.45388158617
944, -6.90834788539, -3.77331015665, -9.22391123854
945, -7.03122913398, -3.78408700464, -9.2176222101
946, -6.80296210356, -3.62929571266, -9.5873802174
947, -6.78915215963, -3.74140084084, -9.68220586681
948, -6.92155641325, -3.67719536797, -9.7638237062
949, -6.86229805392, -3.79016123551, -9.70127647124
950, -6.89332490631, -3.60418218523, -9.61835281476
951, -6.9529253611, -3.66225398426, -9.68859177122
952, -6.63304466854, -3.63798494269, -9.20920796967
953, -6.56997474539, -3.67589887359, -9.33816468038
954, -6.60601779885, -3.58646694426, -9.27906711759
955, -6.61268211569, -3.52250745215, -9.13700132773
956, -6.57882520274, -3.65572160137, -9.11081881308
957, -6.54966889514, -3.59219014535, -9.19072759936
958, -6.71613501473, -3.53040381528, -9.17531742008
959, -6.51443070424, -3.63250261415, -9.27711852336
960, -6.54092971001, -3.68654269431, -9.19256109993
961, -6.6617359511, -3.70152077554, -9.11959532294
962, -7.12284213843, -3.84900839689, -9.78045382991
963, -7.17083081052, -3.77590584082, -9.79299803089
964, -7.22703995762, -3.83031722332, -9.80678884918
965, -7.19198806843, -3.9302156621, -9.7238305564
966, -7.10078998832, -3.93539017578, -9.6990361209
967, -7.18638513391, -3.8834491688, -9.61466493938
968, -7.40128547338, -3.86067351287, -9.62964261278
969, -7.35900084912, -3.92865255866, -9.58048514559
970, -7.46412563821, -3.95582335472, -9.62761000362
971, -7.38445676365, -3.98924845576, -9.66689205463
972, -7.32218715881, -3.90887487145, -9.7425479085
973, -7.45768246888, -3.8713715766, -9.68762420335
974, -8.20897026108, -3.44284049158, -10.043644897
975, -8.17174361116, -3.59483436288, -10.0640949545
976, -8.15462275037, -3.44371904348, -9.99011350236
977, -8.17236367957, -3.52515991232, -9.9433534229
978, -7.45732055559, -3.77492414624, -9.73077395343
979, -7.32579764966, -3.80304776499, -9.71294146595
980, -7.31159960895, -3.85240290545, -9.64481414125
981, -7.17736163113, -3.56453402787, -9.5355710447
982, -7.12156310212, -3.63902757774, -9.60223418874
983, -7.23033732711, -3.66441576923, -9.63631425874
984, -7.16749280003, -3.60419669022, -9.70512207368
985, -7.11914107666, -3.51173246652, -9.5958405059
986, -7.10971749573, -3.51659780972, -9.44561199269
987, -8.36812617965, -3.49612100428, -9.64596810982
988, -8.44450264578, -3.54842394306, -9.5579600568
989, -8.34909463784, -3.55004137689, -9.52768282046
990, -8.31686515611, -3.61168785201, -9.66450005988
991, -8.27939542464, -3.47140767765, -9.58745079231
992, -8.53073869121, -3.41911016781, -9.6442672052
993, -8.1582740612, -3.7412243562, -9.63630716134
994, -8.17794349563, -3.85172748076, -9.52619588572
995, -8.18255183579, -3.71336707528, -9.53665294261
996, -8.00254371175, -3.74140398817, -9.48904925608
997, -8.0547383726, -3.86097858537, -9.52639811699
998, -8.1153284076, -3.91145749415, -9.60739713951
999, -7.95955167576, -3.73127793899, -9.57446891929
1000, -8.01010173473, -3.29452604167, -9.89075410034
1001, -7.95665168566, -3.31409743656, -9.82481034308
1002, -8.13905059072, -3.81871815345, -9.47091314707
1003, -7.93659909752, -3.86616155134, -9.60700596981
1004, -7.99207375581, -3.94216716898, -9.60584405382
1005, -8.01044658157, -3.90027899451, -9.69098727197
1006, -7.43985062058, -3.63292124909, -9.33531490703
1007, -7.18722439366, -3.44192840311, -9.37464568257
1008, -7.29629601819, -3.43558082728, -9.30672533079
1009, -7.34200100098, -3.46261049362, -9.27941719767
1010, -8.18533953844, -3.27914846798, -9.67968343598
1011, -7.53318796628, -3.47733574743, -9.33846079093
1012, -8.3161179699, -3.27645088266, -9.72785728976
1013, -7.51350463111, -3.5595977312, -9.26842927424
1014, -7.63690434608, -3.45763216472, -9.41733003243
1015, -7.66383085276, -3.52251426889, -9.49448040414
1016, -7.66487766829, -3.56223443288, -9.39597812062
1017, -7.57316926297, -3.47327119789, -9.49397656377
1018, -7.88600842831, -3.5239680508, -9.98023372353
1019, -7.81892982842, -3.63432365661, -9.97959735451
1020, -7.88823704302, -3.57112643011, -9.88896823056
1021, -7.91925879225, -3.62076854041, -10.0042415007
1022, -7.87714573396, -3.47898317618, -9.86248711177
1023, -7.99412583117, -3.52526964284, -9.9479751561
1024, -6.37669088628, -3.80646003662, -9.52481762397
1025, -7.89233748948, -3.43802433623, -9.94292569197
1026, -7.79771879453, -3.52150099796, -9.95526081002
1027, -7.24584841189, -3.89909816054, -9.39205294757
1028, -7.23190337897, -3.92564390975, -9.24733454319
1029, -7.35412716, -3.97343182902, -9.33839125714
1030, -7.82147386651, -3.81390271461, -9.34399498535
1031, -7.2127825645, -3.95337152744, -9.51492180656
1032, -7.26421484013, -4.02081430645, -9.43938371931
1033, -7.34035637692, -3.98235605927, -9.4285128576
1034, -7.58917254858, -3.66416137584, -9.67054462692
1035, -7.56263989245, -3.77116312596, -9.61802787537
1036, -7.45169742474, -3.62901452751, -9.69457861594
1037, -7.88940778549, -3.48112437327, -9.48559214634
1038, -7.94991580995, -3.54989670276, -9.43694030556
1039, -8.00447543834, -3.42154636869, -9.4941779136
1040, -7.97771261767, -3.28776099238, -9.71745820568
1041, -8.03007125877, -3.29305413063, -9.63622745063
1042, -7.96930428402, -3.29171250539, -9.59643909621
1043, -8.16906205798, -3.52537374976, -9.46158732228
1044, -7.3463681113, -3.64057403268, -9.71648115134
1045, -7.28733567228, -3.75190769013, -9.81557784245
1046, -7.35521189062, -3.66548821319, -9.83742796685
1047, -7.20515367944, -3.68353133615, -9.82669334814
1048, -7.38288836818, -3.73483563405, -9.78426563302
1049, -7.44882605113, -3.6750406301, -9.77336333637
1050, -7.39285610659, -3.53403517424, -9.6608076125
1051, -7.58316977317, -3.90696416254, -9.5824109697
1052, -7.65338181769, -3.78976315043, -9.55930477634
1053, -8.2428629973, -3.2385509932, -9.67781558341
1054, -8.20606157377, -3.21971371316, -9.72925651181
1055, -7.56854918387, -3.86645983834, -9.65786464821
1056, -7.56767310745, -3.81789714788, -9.74484316322
1057, -7.64506732862, -3.76691213544, -9.68374692062
1058, -7.54587370056, -3.71768233793, -9.75980704432
1059, -7.76517866089, -3.5687549855, -9.49557361398
1060, -7.72832980468, -3.49580554708, -9.4248063676
1061, -7.75854943601, -3.43969021808, -9.5189090666
1062, -7.78558853179, -3.64985491433, -9.54949117152
1063, -7.74126192742, -3.65844881339, -9.45758049132
1064, -7.2679168213, -3.90535284257, -9.58575254636
1065, -7.2742755663, -4.02470959009, -9.53037299242
1066, -7.47641135468, -3.64665339237, -9.21849382452
1067, -7.41716332767, -3.72388740867, -9.30513949547
1068, -7.36452398815, -3.71417857003, -9.24929268524
1069, -7.4409623288, -3.45479247107, -9.30537836586
1070, -7.56599906572, -3.76808091282, -9.24693432094
1071, -6.75341016829, -4.08720009529, -9.28158755578
1072, -8.25032668035, -3.64174751307, -9.97328100967
1073, -8.26318087693, -3.52820330658, -9.90404128294
1074, -8.47486505032, -3.54713447978, -9.96794933328
1075, -8.57099227534, -3.55593360738, -9.91145279463
1076, -8.41973096519, -3.57590345148, -10.0602293363
1077, -8.39222680454, -3.50926862297, -10.0204510788
1078, -8.49378483588, -3.67811736166, -9.99690477542
1079, -6.66051156767, -3.58031411309, -9.36535423172
1080, -6.71308825182, -3.58298360291, -9.45472978935
1081, -8.26146347638, -3.8391117735, -9.67808572372
1082, -8.25195406923, -3.88036075639, -9.57330467102
1083, -8.25536134743, -3.77125278573, -9.51523500632
1084, -8.33699150725, -3.8536978575, -9.58062490846
1085, -6.70788121182, -3.7719962023, -9.22752635511
1086, -6.6211541377, -4.00538408386, -9.45564487644
1087, -6.71646261254, -3.64858529922, -9.4960047396
1088, -7.6934789933, -3.59015318582, -9.57007358951
1089, -8.23655537929, -3.75049099395, -9.8146568965
1090, -8.10279366447, -3.7916436439, -9.83686363648
1091, -8.19360631732, -3.63774566399, -9.88282581202
1092, -8.05912071454, -3.58666142036, -9.81099229603
1093, -8.35141515008, -3.34953886977, -10.0296533041
1094, -8.41369963038, -3.30277190265, -9.93858654174
1095, -8.30840027837, -3.41671614856, -10.056440669
1096, -8.3001141212, -3.35665752905, -10.0193552519
1097, -8.3717636931, -3.42967599634, -9.98408182178
1098, -8.37865331509, -3.44479849768, -10.0715276629
1099, -8.45351569616, -3.38547085355, -9.91736256781
1100, -8.13719248645, -3.92770052284, -9.72788678732
1101, -8.17341019821, -3.81811193322, -9.75834458288
1102, -8.21048458016, -3.91309705242, -9.79624253675
1103, -8.22964404895, -3.91449761058, -9.65125534817
1104, -8.08804303064, -3.88613133734, -9.86920161363
1105, -8.51949432673, -3.68783261199, -9.58906095405
1106, -8.55838795597, -3.59198025959, -9.70690994345
1107, -7.87145060578, -3.90067507815, -9.51511020279
1108, -7.87947015361, -3.79161240624, -9.63114985543
1109, -7.78247209583, -3.8479495746, -9.61593197043
1110, -8.55713176376, -3.73388783643, -9.74317604016
1111, -8.57907478839, -3.68629836793, -9.86193476658
1112, -8.56360835143, -3.79812287972, -9.83735244844
1113, -8.61213539524, -3.66891925513, -9.71181551744
1114, -8.49779510628, -3.84568750156, -9.77430471002
1115, -7.50550001071, -3.58656078316, -9.56844517995
1116, -8.05467019022, -3.35831668201, -9.87469989387
1117, -8.09291779535, -3.29468559987, -9.86827420856
1118, -7.48361689381, -3.89680615733, -9.54546677512
1119, -7.68181270393, -3.92884766816, -9.63194704955
1120, -8.27815309114, -3.45351961586, -9.96781886206
1121, -8.27154099844, -3.53974891961, -10.0028615282
1122, -8.29838002232, -3.50016710028, -10.083320925
1123, -7.66840731398, -3.75350515337, -9.7884779678
1124, -7.64764300169, -3.67435055851, -9.82849212712
1125, -7.71630330519, -3.69785930446, -9.72462627967
1126, -7.30293100319, -3.48321361205, -9.77511524303
1127, -7.35649061326, -3.56638992114, -9.78286599878
1128, -7.78976282864, -3.63796212895, -9.76487449968
1129, -7.73158719721, -3.72208219875, -9.85265293358
1130, -7.80389308545, -3.79534723016, -9.79360202623
1131, -7.6150495171, -3.58404179022, -9.77909379825
1132, -7.73708554932, -3.59490637694, -9.67580242242
1133, -7.60155037185, -3.61369730727, -9.32298603963
1134, -7.40808158343, -3.58079486328, -9.24854485233
1135, -7.57736251434, -3.43165875102, -9.63326846599
1136, -7.59931821915, -3.53570053925, -9.56967041312
1137, -6.7194703089, -3.47348896979, -9.26643534301
1138, -6.79624179467, -3.59713783973, -9.11984104458
1139, -6.7286653644, -3.57409552016, -9.1039736279
1140, -6.59603475746, -3.48553876151, -9.20289339699
1141, -6.89446681705, -3.5280569551, -9.38738409427
1142, -6.82698992981, -3.43444278805, -9.42638204961
1143, -6.89364229519, -3.60073977472, -9.32328717011
1144, -8.46736406604, -3.45161111174, -9.98689333274
1145, -6.60535080729, -3.74396846484, -9.24492575764
1146, -6.54616128746, -3.6052707115, -9.38169038643
1147, -6.52557084629, -3.54692133011, -9.28082325098
1148, -6.45418075592, -3.63000173422, -9.34475704871
1149, -6.47788502112, -3.53034611616, -9.35514521558
1150, -8.56656119998, -3.44361790245, -9.87947077928
1151, -8.3267201776, -3.36153305331, -9.89406338871
1152, -8.52267105642, -3.37009246001, -9.8265016433
1153, -8.41884314183, -3.3205641095, -9.84301324924
1154, -8.33485610454, -3.4064552179, -9.69358259174
1155, -6.45395000638, -3.99877365394, -9.34316557631
1156, -6.79018917808, -3.86086167557, -9.64946047055
1157, -7.1236560623, -3.90332382634, -9.33783647543
1158, -7.49505808155, -3.4404219055, -9.68546873131
1159, -7.49212673489, -3.43038026058, -9.7980850948
1160, -7.12876002641, -3.80235360758, -9.35861559143
1161, -7.42709480769, -3.41713596728, -9.75529858734
1162, -7.37963726831, -3.37725247757, -9.66023477084
1163, -6.94719364653, -3.58525747697, -9.52219123077
1164, -6.91548867244, -3.71088174631, -9.10446147043
1165, -6.83983338189, -3.76197780747, -9.07460127236
1166, -7.45543189604, -3.96541360577, -9.36456745544
1167, -7.43704794268, -3.93985302912, -9.26695923847
1168, -6.541154658, -3.68428150828, -9.47279065352
1169, -6.61338193411, -3.62009440463, -9.5247344934
1170, -6.54174188912, -3.7069112313, -9.55293811018
1171, -6.45234912208, -3.79213678705, -9.48254948354
1172, -6.47545012564, -3.7455354155, -9.41895323518
1173, -6.48618778053, -3.59653151024, -9.46772518017
1174, -6.8901709349, -3.60005502926, -9.11623194844
1175, -6.85434523976, -3.69058189516, -9.06918545846
1176, -7.59402009424, -3.96381273578, -9.66651302536
1177, -7.49533523205, -3.98131273128, -9.6904808274
1178, -7.52304503798, -4.00418652933, -9.53586967778
1179, -7.63275601519, -3.99470919408, -9.59779972432
1180, -7.71720065923, -3.65138145102, -9.27309903788
1181, -7.58713168898, -3.65138809268, -9.23879856224
1182, -7.66372339938, -3.56743951256, -9.27107836955
1183, -6.92750743689, -3.8357322252, -9.1343909106
1184, -7.70169890996, -3.66948765769, -9.3747150251
1185, -7.57388133851, -3.58707854289, -9.22337382093
1186, -7.00248330502, -3.73210647611, -9.10885948942
1187, -6.98661086588, -3.64149293299, -9.11095332695
1188, -6.63121165246, -3.62741579668, -9.65898872161
1189, -6.73714563706, -3.62270356962, -9.68442991753
1190, -6.67978075137, -3.81004168272, -9.68513031498
1191, -6.63330793242, -3.7211490992, -9.60228878816
1192, -7.79338673483, -3.85897336528, -9.50570834287
1193, -7.81466566489, -3.94417820678, -9.59187683367
1194, -7.73932842199, -3.96311601003, -9.52859815483
1195, -7.75710442167, -3.92679103883, -9.68866985593
1196, -7.76187327581, -3.83375918615, -9.71672957253
1197, -6.98873339929, -3.52525543179, -9.44401690209
1198, -7.0309001272, -3.46500566161, -9.37471835065
1199, -6.82672377444, -3.5763455812, -9.4875784864
1200, -6.92353304906, -3.4364265354, -9.52548626805
1201, -7.05718436223, -3.56542142147, -9.51427668465
1202, -7.03958423801, -3.39651154387, -9.47485079955
1203, -6.98773766178, -3.43477066546, -9.55711320007
1204, -7.83943493628, -3.39429378575, -9.45962813982
1205, -7.87517578406, -3.47034613946, -9.35486626866
1206, -7.92950707066, -3.4157937438, -9.4193468681
1207, -6.92455573838, -3.41982388043, -9.44436739678
1208, -7.11568564625, -3.41426244901, -9.34734134026
1209, -7.21363340631, -3.47431550574, -9.24656120354
1210, -7.45009411728, -3.74319121941, -9.21666634443
1211, -7.43363442974, -3.84491938536, -9.24182687356
1212, -8.14345856842, -3.50965676868, -9.79118127468
1213, -7.67418488248, -3.84404630853, -9.73522167329
1214, -7.61795592473, -3.86948717061, -9.84049591886
1215, -7.53974284338, -3.92003290381, -9.72860178769
1216, -8.47175389962, -3.81174725507, -9.87830787919
1217, -7.7895068435, -3.74887397521, -9.53192442168
1218, -7.77214148989, -3.7328941834, -9.64260127687
1219, -6.50426137882, -3.79195943291, -9.33062862074
1220, -6.74652997323, -3.74151374338, -9.12823230446
1221, -6.81743593065, -3.79976150961, -9.20071402834
1222, -8.5020597898, -3.3059428847, -9.7690177527
1223, -8.42735421779, -3.24040918741, -9.71424476551
1224, -8.24622352459, -3.25313626971, -9.80315678909
1225, -8.36689087475, -3.23028530159, -9.80338061947
1226, -8.16469005665, -3.41730733755, -9.86726644618
1227, -6.52167971398, -3.74231781734, -9.66140518985
1228, -6.53532263211, -3.64744138824, -9.63137658799
1229, -7.53341173893, -3.62223132522, -9.78687886376
1230, -7.5012258211, -3.52487565845, -9.77369057352
1231, -7.51904398057, -3.88193773317, -9.32323687708
1232, -7.41800045707, -3.89525833249, -9.27260722664
1233, -7.39719632582, -3.82687829696, -9.34046680152
1234, -7.52158822044, -3.52560207311, -9.87559401572
1235, -7.36804057429, -3.64637853856, -9.18468266914
1236, -7.76887433215, -3.31694074974, -9.67169576041
1237, -7.80858081749, -3.3271016768, -9.57064644743
1238, -7.70855263853, -3.33038395886, -9.55552395966
1239, -6.80225834889, -3.50619462628, -9.5743664185
1240, -6.91157609379, -3.46030903118, -9.60034225399
1241, -6.96498851279, -3.95836637201, -9.27534877203
1242, -6.9036296411, -3.99980266573, -9.20403312125
1243, -6.90414226504, -4.01268926037, -9.32492546161
1244, -6.98755956692, -4.06307842463, -9.37564363197
1245, -7.04755365427, -4.01506248942, -9.2706596931
1246, -6.68791891876, -3.59218754062, -9.60206467671
1247, -6.72432103876, -3.69447238117, -9.61004292391
1248, -6.91003213831, -3.87142166337, -9.229441492
1249, -6.94740863856, -3.92126982843, -9.13200077997
1250, -7.07766489185, -3.90943059977, -9.23773853924
1251, -6.74179360975, -3.84974488561, -9.14778870248
1252, -6.65263159214, -3.80632678473, -9.13916687654
1253, -6.52835186151, -3.83558123397, -9.2420075359
1254, -6.62307178934, -3.90912404929, -9.17246604936
1255, -6.53374001439, -3.76898724319, -9.11923987544
1256, -6.56474268235, -3.85142202732, -9.1606691965
1257, -6.71707329467, -3.88678106884, -9.60595087583
1258, -6.71585179712, -3.7745273766, -9.5604166696
1259, -6.89656117198, -3.60369225337, -9.20112479188
1260, -7.60863708553, -3.95582118689, -9.49681333118
1261, -6.77123978661, -4.00925940192, -9.14530228128
1262, -6.83863707797, -3.92697943413, -9.17774839544
1263, -6.82509954914, -3.99748918636, -9.26542464704
1264, -7.30254510357, -3.98553412125, -9.65911613171
1265, -7.24353360285, -3.98802180914, -9.60210023711
1266, -7.40072307535, -4.01223907191, -9.51910768598
1267, -6.63672686914, -3.59022887125, -9.07973507821
1268, -6.66127989957, -3.6591858238, -9.03736181186
1269, -6.68011744984, -3.74718215204, -9.0161077746
1270, -6.75234292716, -3.6917148782, -9.04644102836
1271, -8.32271342508, -3.84837101719, -9.76137825321
1272, -6.73332782102, -4.09032325832, -9.38670156385
1273, -6.64388689824, -4.01419417342, -9.37056086776
1274, -6.7269517308, -3.99755558516, -9.33919392053
1275, -6.81032765606, -4.06223444958, -9.36568801374
1276, -6.74937238634, -3.9481963339, -9.51660933774
1277, -6.85377748174, -4.07495998193, -9.43031833288
1278, -7.40942086256, -3.90706397123, -9.42295270825
1279, -7.2661255268, -3.99646648672, -9.33037970218
1280, -7.16037102468, -4.00306914397, -9.29369496181
1281, -7.14406405439, -3.98562858808, -9.40167433156
1282, -8.09309372321, -3.40678854622, -9.79554814127
1283, -8.06823375621, -3.50760642982, -9.878540708
1284, -7.99588594368, -3.48082735264, -9.77835998069
1285, -6.60656114287, -3.54000876791, -9.57274386321
1286, -7.95800591787, -3.40267690298, -9.71039261384
1287, -8.05114879206, -3.33271289532, -9.78796676781
1288, -8.17219938339, -3.39684760188, -9.73974011474
1289, -7.74726354291, -3.45931019801, -9.87907691576
1290, -7.84227012011, -3.37603314309, -9.84210228079
1291, -6.65606681285, -3.45622256898, -9.3398145995
1292, -6.55305673875, -3.45354854459, -9.34231949591
1293, -8.22781934403, -3.37250931179, -9.99486686215
1294, -8.22055524167, -3.31667882549, -9.94249092927
1295, -8.30887102331, -3.58544682444, -10.0779592062
1296, -8.52713262487, -3.56033364576, -9.4636007751
1297, -8.53445996743, -3.45113651392, -9.53572243972
1298, -8.45925267511, -3.46729250857, -9.46970721345
1299, -8.25805964935, -3.54434429455, -9.49655228099
1300, -8.26281185339, -3.55454130908, -9.40460243005
1301, -8.12396555599, -3.53262194976, -9.37881548953
1302, -8.12851422209, -3.61321172216, -9.37678589594
1303, -8.03972317223, -3.43836480557, -9.40217526986
1304, -8.20462633381, -3.6188821045, -9.51403547092
1305, -8.17535213888, -3.40970653915, -9.53616040928
1306, -7.62671367518, -3.3322095682, -9.6106983866
1307, -7.84435742711, -3.29474257143, -9.64838078234
1308, -7.74518569156, -3.34849128189, -9.46520770919
1309, -7.9222081026, -3.35204382347, -9.4816841993
1310, -6.73625478233, -3.47937823421, -9.46775411124
1311, -6.81468198285, -3.46224182519, -9.51036816389
1312, -8.20329812544, -3.74280299552, -9.40511863753
1313, -8.58113079702, -3.46668468368, -9.7707336341
1314, -8.53669558658, -3.80569896731, -9.63828999072
1315, -8.39725915929, -3.72080875226, -9.63920354398
1316, -7.91916093752, -3.74421000984, -9.85163706486
1317, -7.87406516282, -3.73855019825, -9.74463708983
1318, -7.99474664437, -3.65958732714, -9.83963016426
1319, -7.99118889454, -3.72757228055, -9.9875208196
1320, -8.09953170015, -3.71439724618, -9.88994966486
1321, -7.97332856092, -3.8480257399, -9.90953862101
1322, -6.96652653591, -3.40323615524, -9.37272614255
1323, -8.50763609788, -3.65538530776, -9.50198301891
1324, -8.41957684816, -3.72270866957, -9.48876274724
1325, -8.50546005156, -3.77222977708, -9.53947625148
1326, -6.50369783452, -3.70992683472, -9.27032637452
1327, -8.33649279703, -3.65106168542, -9.43843430057
1328, -8.32335498403, -3.72973098582, -9.4725409946
1329, -6.83621159209, -3.54310090832, -9.13646819728
1330, -7.01052358602, -3.69923179853, -9.78036306347
1331, -6.90083943243, -3.87047293187, -9.72431436834
1332, -6.48849795228, -4.02689468122, -9.55073158458
1333, -6.55725415479, -3.98715016628, -9.60346763748
1334, -6.46702755574, -3.96114202268, -9.60385636324
1335, -7.5503806541, -3.33874832552, -9.51750444494
1336, -7.50659742561, -3.47918644385, -9.57560585055
1337, -7.58314691084, -3.39827436996, -9.37909678755
1338, -7.62765692257, -3.36759253646, -9.4734315528
1339, -8.36243249931, -3.64368139997, -9.53772590882
1340, -7.52171825691, -3.55056573887, -9.6765860899
1341, -6.40256334427, -4.06197708462, -9.50147812083
1342, -6.51052286536, -4.07151772268, -9.4751263032
1343, -7.64753212888, -3.58881432573, -9.90917344128
1344, -6.39591564522, -3.98302749791, -9.5133945106
1345, -6.42382068298, -3.95458571299, -9.44333338214
1346, -7.87277485514, -3.8773070167, -9.39982710835
1347, -7.6044300657, -3.77900469013, -9.88170934658
1348, -6.50250949269, -3.9294033635, -9.54376493868
1349, -8.28553602369, -3.72555268726, -9.61080538047
1350, -8.3309337236, -3.28796678891, -9.95804764908
1351, -7.89866365891, -3.64543082065, -9.8078548614
1352, -7.41859356419, -3.53304664889, -9.85239866569
1353, -7.13956550613, -3.46340890473, -9.68509443389
1354, -7.24846156526, -3.42891441067, -9.68451331851
1355, -7.76455662692, -3.55490222718, -9.30330567138
1356, -7.71185266409, -3.48036578088, -9.31663344527
1357, -7.0609608136, -3.53431335018, -9.72941402345
1358, -6.84023853805, -3.94754875282, -9.53201195803
1359, -6.50839957875, -3.89855312351, -9.29050428752
1360, -6.54450911258, -3.98111743231, -9.29477269406
1361, -6.54647409483, -4.0339521928, -9.39158757648
1362, -6.48323786613, -3.79298197837, -9.57421707608
1363, -6.65343719077, -3.51361702881, -9.42836342503
1364, -6.74003917832, -3.44521416604, -9.37062784485
1365, -6.59082775781, -3.53124866603, -9.35332476877
1366, -6.54544800044, -3.46975772377, -9.41307690963
1367, -6.58134857628, -3.45883805987, -9.26939547382
1368, -6.4235959776, -3.61269827734, -9.28890634502
1369, -6.44051810164, -3.63257450581, -9.20722311555
1370, -6.45019525888, -3.66498082842, -9.53532005622
1371, -6.51545425606, -3.59943436834, -9.5925063363
1372, -6.42038682071, -3.69335063553, -9.62316732081
1373, -6.6555453339, -3.96689091424, -9.62846489316
1374, -7.0082565338, -3.86497983762, -9.12945845086
1375, -7.1071032508, -3.86451105331, -9.14969825451
1376, -7.17536770109, -3.75220942186, -9.24967190922
1377, -7.12329353292, -3.83011991108, -9.25722428184
1378, -7.89041757955, -3.65625303586, -9.92684536892
1379, -8.08322860271, -3.57947400388, -9.96195007496
1380, -8.07259716114, -3.83199464213, -9.93894036183
1381, -8.0035806003, -3.6320912505, -9.96860632991
1382, -7.7971955895, -3.64592361622, -9.88889627185
1383, -6.5795823543, -4.11976308454, -9.26316953641
1384, -6.57612912925, -4.07035934493, -9.30949795584
1385, -6.67125860302, -4.10851402341, -9.29182687987
1386, -6.68010888163, -4.07846565069, -9.20955259364
1387, -8.60344023207, -3.53706864977, -9.83879180562
1388, -8.09368548851, -3.37666119283, -9.48060605356
1389, -8.04335951945, -3.32033571552, -9.53088199236
1390, -6.6650255451, -4.0262344846, -9.28818858274
1391, -6.68308914951, -3.96628439897, -9.18466247057
1392, -6.7752621838, -3.95147219169, -9.09584798101
1393, -7.77002978542, -3.55721998379, -9.8372993931
1394, -7.81662854227, -3.75845023373, -9.94443942794
1395, -8.11180001386, -3.66227262512, -10.021365755
1396, -6.70112950355, -3.50460787191, -9.54708896675
1397, -6.45043214004, -3.68716031877, -9.14642305922
1398, -6.46755043068, -3.78158498609, -9.17055554762
1399, -8.42815223708, -3.64379184589, -9.45175664218
1400, -8.37695718072, -3.55453591333, -9.43157512785
1401, -7.46144862337, -3.60712053039, -9.84769543221
1402, -7.88715760437, -3.76774392774, -9.48639331025
1403, -7.87920951013, -3.95084430841, -9.68283993387
1404, -6.50336161541, -3.51867064327, -9.15820886656
1405, -6.41762126418, -3.533463221, -9.21040238842
1406, -6.49946735766, -3.47171057948, -9.2333519967
1407, -7.53372419348, -3.78224996366, -9.88362532824
1408, -7.49541440233, -3.85580441886, -9.80762890393
1409, -7.42096795755, -3.90198395602, -9.7809917736
1410, -6.52920966039, -3.56931849049, -9.09522207065
1411, -6.47082316551, -3.67436010269, -9.05333467517
1412, -7.43945065854, -3.69154559626, -9.87435383703
1413, -7.41859029066, -3.81911257878, -9.8419281292
1414, -7.41271540914, -3.74962303661, -9.87403024225
1415, -6.44821416461, -3.89066122896, -9.25445060706
1416, -6.46629127075, -3.87891377958, -9.18183258582
1417, -8.21101973219, -3.76557960204, -9.90838128701
1418, -8.15990766629, -3.43855934088, -9.4246982888
1419, -8.00067266512, -3.62956371801, -9.4420175307
1420, -6.68049271373, -3.87721083197, -9.0304381122
1421, -6.68540208627, -3.81935889592, -9.02247758896
1422, -6.60414573556, -3.76998367085, -9.00558991007
1423, -8.07606977535, -3.79567729865, -9.41445087726
1424, -8.14118939989, -3.68488510519, -9.39381569031
1425, -8.02536261096, -3.68570691759, -9.3558992116
1426, -7.73257603324, -3.68845390226, -9.94227643572
1427, -6.52959882573, -3.94121027335, -9.15425308472
1428, -6.58701958798, -4.02683413733, -9.13095411791
1429, -6.56928731992, -4.02972286371, -9.20570794554
1430, -6.49769111917, -4.07208404415, -9.11675851749
1431, -6.44432843095, -4.09215489478, -9.38720916456
1432, -7.33954936652, -3.55099908549, -9.21000472206
1433, -7.25968116339, -3.53849961652, -9.18691546226
1434, -7.31525226547, -3.83667662971, -9.81043002339
1435, -7.14104249566, -4.05059295965, -9.46491942407
1436, -8.17287633468, -3.84811211698, -9.88480580836
1437, -8.27649277102, -3.70133814004, -10.0447154444
1438, -8.3596919632, -3.77707092239, -10.0215657213
1439, -8.33474410834, -3.66014922361, -10.088183976
1440, -8.38728116273, -3.73142335636, -10.0639016296
1441, -7.04269823316, -4.04637139672, -9.53599417168
1442, -6.63707037151, -4.11167475622, -9.34287280927
1443, -6.61914364688, -4.10986624746, -9.39975103312
1444, -8.46920821012, -3.38030337794, -9.52556444445
1445, -8.56480120083, -3.56445082318, -9.61642475955
1446, -8.59948591675, -3.50559691083, -9.66936645241
1447, -6.50580026705, -3.88976595431, -9.01371132843
1448, -8.46377943639, -3.34331804596, -9.6383890587
1449, -6.5056416235, -3.96281527316, -9.0525850323
1450, -6.58360688524, -3.90871425069, -9.0852246306
1451, -6.59794354446, -3.98492130369, -9.05915158692
1452, -6.48102994783, -3.8295061294, -9.0971396984
1453, -6.47492669956, -4.00310709383, -9.2083829721
1454, -8.21106381899, -3.67505882741, -9.44528554505
1455, -8.09991469026, -3.71695937584, -9.49555934691
1456, -7.81750701901, -3.70174781259, -9.3040723535
1457, -8.21798541663, -3.78957382368, -9.99465438008
1458, -8.16504680207, -3.7330872768, -10.0257550035
1459, -8.29463437219, -3.85324361558, -9.92214225384
1460, -8.06358531015, -3.73182224904, -9.99557806941
1461, -8.34572534646, -3.89882867601, -9.65570953331
1462, -8.39722970642, -3.88363322361, -9.84308215346
1463, -8.43872302506, -3.86583488486, -9.67474034225
1464, -7.70005104448, -3.39478185982, -9.84406151915
1465, -7.59828154441, -3.94456257187, -9.76442071751
1466, -7.55455290631, -3.9603309821, -9.39308117062
1467, -8.44545764846, -3.89442819256, -9.76909471325
1468, -7.79048051496, -3.42924385254, -9.37470394491
1469, -7.61264844734, -3.43805127428, -9.33216386957
1470, -7.54489078411, -3.68353584214, -9.90111914146
1471, -6.68052317573, -4.05817458052, -9.52465911813
1472, -6.79451074007, -4.06395978311, -9.51940121952
1473, -6.73086134093, -4.08346959641, -9.46700972867
1474, -7.91298734811, -3.75675130566, -9.96630388332
1475, -7.6495933761, -3.50899026713, -9.90204362926
1476, -7.11479420036, -3.68534724507, -9.80226043933
1477, -6.52864500503, -3.49379945585, -9.4794738037
1478, -6.46679352414, -4.10617776219, -9.26262513916
1479, -7.27378727628, -3.71937578732, -9.21460156847
1480, -7.10542681593, -3.62962011308, -9.13617635669
1481, -7.21738024253, -3.61689743541, -9.19082356693
1482, -7.11825971443, -3.719260514, -9.12410875399
1483, -7.19645614827, -3.77605906189, -9.15143305323
1484, -7.86908827298, -3.92659977151, -9.79171763008
1485, -7.32211124409, -3.36252355021, -9.55186321641
1486, -7.30341499419, -3.60985794341, -9.22518979431
1487, -6.76141888546, -4.05689229355, -9.20975908297
1488, -7.50387988741, -3.34309256669, -9.60184242176
1489, -8.37870486249, -3.5531508194, -10.116696396
1490, -8.42699559355, -3.78286661564, -10.0078055034
1491, -8.40343913344, -3.84034543768, -9.95416333656
1492, -8.2641494401, -3.86844489914, -9.85479876084
1493, -7.47019726749, -3.36700983863, -9.41760885591
1494, -8.07953901191, -3.49744164189, -10.0267018818
1495, -7.49827300418, -3.95745655324, -9.46791305194
1496, -6.47078117829, -3.61045067611, -9.01106389264
1497, -6.5493206692, -3.69170610747, -9.01470242755
1498, -6.41049217777, -3.79190577033, -9.63093172345
1499, -6.62956638251, -3.88069116636, -9.6698388411
1500, -6.63475501832, -3.45762774886, -9.49542822389
1501, -6.52274696283, -3.83069262247, -9.66196325713
1502, -6.80339964254, -3.99742713713, -9.61398464822
1503, -6.7297038706, -3.99454591413, -9.59851577011
1504, -8.01399781769, -3.61346150226, -9.34214377875
1505, -6.51770892947, -3.53853025308, -9.5426163483
1506, -6.41772094664, -3.5704798421, -9.52032339899
1507, -7.20555037518, -3.39060992664, -9.38783984597
1508, -7.80515002356, -3.89631551751, -9.4192645305
1509, -7.90132728344, -3.84762712367, -9.8894191072
1510, -7.24398413951, -3.83321194415, -9.20205838888
1511, -7.91311920325, -3.30849578269, -9.58977900701
1512, -7.66735462278, -3.89977649997, -9.34177913536
1513, -7.31642934365, -3.62503146974, -9.85725865946
1514, -6.47243159534, -3.72662622061, -9.10335304919
1515, -8.14067259012, -3.33865319811, -9.93464450927
1516, -7.69613537696, -3.94234885674, -9.7720964467
1517, -7.74837068934, -3.81249359447, -9.91375812473
1518, -7.77486998228, -3.87205700351, -9.86438683084
1519, -8.33250378112, -3.25477727272, -9.89089044517
1520, -7.41516566644, -3.60633641086, -9.875375255
1521, -6.53731645302, -3.79686109727, -8.97446888788
1522, -6.48731335404, -3.77049760024, -9.02841409896
1523, -6.49243899293, -3.70707924304, -8.98302197698
1524, -8.3705859068, -3.24855683868, -9.63704386301
1525, -6.42316893844, -3.89050866059, -9.3484898643
1526, -6.41083311066, -3.8570234262, -9.42156950114
1527, -6.38786591393, -3.52737147289, -9.34550512352
1528, -7.97472850605, -3.52449268784, -9.35234693118
1529, -6.52575741797, -4.12202663762, -9.36695012296
1530, -6.43816217366, -3.78348451728, -9.240966814
1531, -6.5987328614, -4.08850925084, -9.47165768379
1532, -6.5431595437, -3.89673229383, -9.64477559953
1533, -8.42897168443, -3.28085214945, -9.59527980444
1534, -6.43852955858, -3.90404755445, -9.60789851923
1535, -6.44537025381, -3.48788578826, -9.43319573892
1536, -6.34896969079, -3.63515389223, -9.55249918252
1537, -6.565742289, -3.61792678388, -9.03785052973
1538, -6.38077299604, -3.97798845319, -9.58138132542
1539, -6.44516469916, -3.56593821184, -9.10607972777
1540, -6.38115731793, -3.72354945799, -9.48606998375
1541, -8.19020235471, -3.29790077103, -9.84945387105
1542, -6.89692645868, -4.0377261441, -9.49937297132
1543, -6.40433358796, -3.88619076398, -9.49249700191
1544, -6.36407544891, -3.90152421645, -9.61345231964
1545, -7.05385060999, -3.42434551029, -9.59770300904
1546, -7.0207220522, -3.49193198976, -9.63822080327
1547, -7.10502223377, -3.41809817366, -9.51111671401
1548, -6.77745181407, -3.86688333689, -9.05507094759
1549, -6.70163879041, -4.03851269293, -9.15120938036
1550, -6.74223739212, -3.91645727434, -9.67877117132
1551, -6.77174420848, -3.78624677924, -9.03954004801
1552, -6.35754967857, -3.72412560877, -9.57441703757
1553, -8.13484187688, -3.28567417962, -9.77407067441
1554, -8.28902034681, -3.79536651943, -9.98501278968
1555, -6.42862961168, -3.8302671928, -9.28924501159
1556, -7.70283039937, -3.82285648963, -9.8362447243
1557, -7.96281234641, -3.80159268647, -9.38571649295
1558, -6.41365592771, -3.79155251694, -9.37201462675
1559, -7.30175519196, -3.77994012116, -9.1648347476
1560, -7.3841889827, -3.77270613379, -9.17996203823
1561, -6.58492899222, -4.04558401031, -9.53967688209
1562, -6.57579266842, -3.84371412479, -9.01308305517
1563, -7.18402862242, -3.40290940243, -9.61088906309
1564, -7.90368243573, -3.7087834782, -9.37457941781
1565, -6.756835987, -3.40673504442, -9.40633182516
1566, -6.71740504702, -3.52614607944, -9.62810192271
1567, -6.86037805954, -3.85234706085, -9.09557476295
1568, -6.68914855517, -3.95821039492, -9.07157375211
1569, -7.32115659695, -3.85481670887, -9.25549784922
1570, -7.72735885515, -3.88972729159, -9.7989408807
1571, -7.18220927682, -3.99727151866, -9.63510075382
1572, -7.0553757772, -3.97512497513, -9.63782123409
1573, -6.9676665345, -3.55823274246, -9.68075081943
1574, -7.12534841323, -3.41188216363, -9.43401819275
1575, -7.03256211873, -3.86221205005, -9.75419027424
1576, -7.79086010918, -3.95503458162, -9.76393143646
1577, -6.94585625183, -4.02293999442, -9.5914049309
1578, -6.98609398806, -3.92813651347, -9.67059948237
1579, -7.07583996907, -3.38979104077, -9.339018816
1580, -8.36299426017, -3.78247702921, -9.54345788705
1581, -8.48062576134, -3.8461044013, -9.62295698431
1582, -8.57393141786, -3.63275864422, -9.53971415437
1583, -8.1457969201, -3.24510289701, -9.79056748293
1584, -7.15498130863, -3.53567912145, -9.1809004234
1585, -7.66945625762, -3.3207462312, -9.47896070389
1586, -8.18207733355, -3.24881971139, -9.63949347642
1587, -7.88458655119, -3.30782959302, -9.69250668868
1588, -7.65132406133, -3.6886209477, -9.93384453151
*Element, type=C3D4
1, 706, 707, 708, 709
2, 710, 711, 712, 713
3, 711, 712, 713, 714
4, 714, 715, 712, 716
5, 714, 717, 715, 716
6, 714, 717, 707, 718
7, 719, 720, 600, 601
8, 721, 722, 723, 724
9, 725, 726, 727, 333
10, 722, 728, 729, 730
11, 722, 724, 731, 732
12, 722, 733, 734, 735
13, 722, 736, 729, 732
14, 714, 709, 737, 738
15, 714, 738, 739, 709
16, 739, 740, 738, 741
17, 709, 708, 742, 740
18, 708, 739, 740, 709
19, 714, 739, 718, 709
20, 739, 718, 709, 708
21, 743, 744, 745, 746
22, 743, 747, 748, 745
23, 743, 749, 747, 744
24, 743, 750, 751, 752
25, 743, 744, 753, 749
26, 743, 754, 755, 756
27, 719, 625, 757, 758
28, 759, 760, 761, 762
29, 756, 744, 755, 743
30, 763, 518, 494, 519
31, 752, 754, 755, 743
32, 764, 765, 766, 767
33, 720, 768, 769, 770
34, 771, 772, 773, 774
35, 774, 765, 772, 764
36, 775, 774, 765, 772
37, 764, 776, 777, 733
38, 764, 774, 736, 777
39, 764, 778, 779, 736
40, 733, 764, 736, 777
41, 764, 767, 780, 779
42, 781, 782, 783, 784
43, 781, 785, 786, 787
44, 781, 784, 783, 788
45, 789, 790, 791, 792
46, 793, 794, 792, 790
47, 795, 234, 233, 209
48, 793, 792, 794, 796
49, 793, 797, 796, 742
50, 793, 797, 742, 791
51, 798, 732, 736, 731
52, 798, 774, 778, 799
53, 798, 774, 777, 736
54, 798, 800, 774, 801
55, 798, 799, 802, 801
56, 729, 803, 736, 804
57, 729, 803, 804, 805
58, 729, 806, 728, 732
59, 729, 803, 807, 806
60, 729, 808, 807, 805
61, 724, 731, 809, 721
62, 722, 810, 728, 730
63, 777, 721, 731, 722
64, 722, 730, 734, 723
65, 722, 734, 733, 811
66, 724, 723, 812, 810
67, 811, 723, 721, 722
68, 813, 93, 101, 103
69, 750, 814, 815, 816
70, 750, 815, 817, 818
71, 750, 819, 814, 820
72, 821, 822, 823, 824
73, 821, 825, 826, 823
74, 821, 827, 828, 829
75, 821, 822, 824, 830
76, 821, 831, 824, 826
77, 821, 831, 832, 824
78, 833, 834, 835, 836
79, 833, 834, 837, 838
80, 839, 114, 840, 120
81, 833, 834, 836, 837
82, 833, 841, 783, 842
83, 781, 833, 835, 843
84, 781, 783, 833, 843
85, 709, 844, 737, 738
86, 709, 845, 708, 706
87, 709, 846, 737, 847
88, 740, 708, 742, 848
89, 849, 850, 302, 277
90, 849, 851, 852, 853
91, 854, 855, 850, 853
92, 768, 769, 770, 856
93, 849, 850, 277, 855
94, 857, 858, 859, 860
95, 855, 853, 861, 849
96, 862, 863, 864, 865
97, 862, 866, 867, 868
98, 862, 869, 870, 864
99, 862, 866, 868, 871
100, 871, 862, 872, 873
101, 874, 875, 876, 877
102, 862, 866, 872, 878
103, 879, 836, 858, 880
104, 879, 881, 882, 859
105, 879, 860, 881, 859
106, 883, 770, 769, 856
107, 879, 884, 836, 880
108, 885, 886, 887, 888
109, 886, 885, 889, 888
110, 890, 891, 277, 854
111, 892, 887, 893, 894
112, 886, 871, 885, 893
113, 893, 886, 887, 885
114, 886, 889, 872, 895
115, 886, 893, 872, 871
116, 896, 897, 898, 801
117, 896, 897, 852, 898
118, 896, 853, 899, 900
119, 896, 901, 899, 902
120, 896, 903, 853, 851
121, 896, 904, 903, 851
122, 782, 905, 906, 907
123, 782, 906, 905, 908
124, 781, 782, 907, 783
125, 909, 786, 910, 911
126, 909, 824, 912, 913
127, 909, 914, 786, 911
128, 909, 786, 915, 906
129, 909, 786, 914, 915
130, 916, 917, 918, 919
131, 916, 920, 921, 922
132, 916, 808, 918, 807
133, 919, 921, 923, 916
134, 402, 401, 924, 377
135, 916, 808, 925, 923
136, 926, 791, 927, 928
137, 929, 532, 930, 931
138, 888, 885, 932, 887
139, 932, 708, 887, 848
140, 932, 928, 926, 893
141, 933, 934, 935, 936
142, 932, 885, 928, 893
143, 885, 937, 928, 934
144, 885, 928, 893, 934
145, 885, 938, 928, 937
146, 885, 871, 889, 933
147, 932, 928, 885, 938
148, 809, 800, 939, 731
149, 809, 939, 800, 901
150, 809, 940, 939, 901
151, 940, 809, 941, 934
152, 809, 721, 941, 724
153, 724, 809, 942, 941
154, 809, 934, 943, 941
155, 809, 942, 941, 943
156, 934, 885, 933, 871
157, 937, 944, 899, 945
158, 928, 937, 944, 899
159, 932, 938, 885, 888
160, 885, 937, 936, 938
161, 937, 928, 944, 938
162, 401, 924, 377, 775
163, 928, 742, 944, 938
164, 886, 894, 872, 893
165, 894, 946, 892, 947
166, 894, 878, 948, 949
167, 894, 872, 866, 878
168, 894, 866, 950, 951
169, 894, 948, 761, 949
170, 928, 893, 934, 940
171, 840, 120, 114, 103
172, 791, 932, 928, 926
173, 846, 708, 938, 742
174, 932, 887, 893, 892
175, 928, 893, 940, 900
176, 887, 885, 932, 893
177, 952, 953, 740, 954
178, 952, 955, 956, 957
179, 797, 792, 958, 952
180, 952, 959, 960, 953
181, 952, 956, 961, 960
182, 952, 957, 959, 954
183, 862, 873, 869, 962
184, 869, 870, 963, 964
185, 869, 963, 962, 964
186, 873, 965, 966, 967
187, 869, 870, 967, 873
188, 962, 965, 966, 873
189, 968, 969, 970, 971
190, 971, 972, 973, 968
191, 974, 975, 976, 977
192, 968, 734, 978, 730
193, 968, 734, 730, 723
194, 968, 979, 734, 980
195, 968, 978, 979, 973
196, 981, 982, 939, 983
197, 984, 981, 983, 982
198, 981, 982, 984, 985
199, 981, 898, 800, 901
200, 981, 898, 773, 800
201, 985, 986, 773, 981
202, 919, 917, 420, 921
203, 987, 820, 748, 988
204, 987, 989, 990, 991
205, 987, 820, 992, 819
206, 987, 990, 817, 991
207, 987, 820, 988, 992
208, 987, 988, 989, 757
209, 987, 819, 750, 820
210, 884, 993, 994, 995
211, 996, 884, 835, 997
212, 997, 884, 835, 879
213, 884, 880, 998, 994
214, 879, 884, 880, 998
215, 879, 997, 999, 835
216, 879, 884, 835, 836
217, 531, 1000, 929, 1001
218, 884, 996, 1002, 997
219, 879, 997, 884, 998
220, 879, 1003, 1004, 1005
221, 798, 1006, 799, 778
222, 774, 898, 773, 1007
223, 772, 774, 1008, 775
224, 798, 731, 777, 800
225, 774, 775, 799, 1009
226, 774, 898, 897, 801
227, 803, 736, 1006, 729
228, 770, 768, 856, 1010
229, 1011, 778, 1006, 803
230, 1012, 769, 768, 856
231, 803, 1011, 1013, 1006
232, 803, 1014, 1015, 1016
233, 803, 1015, 804, 805
234, 803, 1011, 1017, 1014
235, 1018, 1019, 1020, 1021
236, 1018, 1020, 1022, 1023
237, 1024, 104, 90, 100
238, 1018, 1025, 533, 930
239, 1018, 1023, 1025, 930
240, 1018, 1022, 1020, 1026
241, 1027, 1028, 942, 1029
242, 919, 1030, 445, 917
243, 1027, 812, 941, 943
244, 724, 942, 1027, 941
245, 1027, 1031, 812, 943
246, 1027, 812, 1031, 1032
247, 724, 812, 1027, 810
248, 1027, 1033, 812, 1032
249, 734, 1034, 1035, 735
250, 734, 735, 733, 1036
251, 734, 735, 1036, 1034
252, 1035, 730, 973, 978
253, 723, 734, 811, 980
254, 781, 788, 783, 843
255, 1037, 1038, 1039, 786
256, 915, 1040, 1041, 1042
257, 784, 788, 1043, 783
258, 1044, 983, 870, 1045
259, 1044, 1045, 1046, 1047
260, 1044, 983, 777, 811
261, 1044, 1046, 1048, 1049
262, 1044, 1036, 1049, 811
263, 1044, 1036, 733, 1050
264, 1035, 1051, 808, 1052
265, 1053, 1010, 768, 1054
266, 1055, 1035, 730, 973
267, 1035, 1056, 1055, 1057
268, 1035, 805, 735, 1034
269, 1035, 730, 735, 805
270, 734, 1034, 1058, 1035
271, 1059, 1015, 1060, 1016
272, 1059, 1060, 1061, 874
273, 1059, 911, 1062, 876
274, 1059, 876, 1063, 874
275, 939, 809, 941, 940
276, 809, 731, 902, 800
277, 939, 868, 721, 983
278, 721, 1064, 941, 723
279, 979, 870, 811, 980
280, 870, 811, 980, 721
281, 722, 721, 811, 777
282, 722, 735, 734, 730
283, 722, 724, 810, 723
284, 722, 731, 777, 736
285, 941, 940, 868, 939
286, 812, 1065, 1031, 1032
287, 1006, 1066, 1067, 1068
288, 798, 1006, 778, 736
289, 1006, 778, 1069, 799
290, 1044, 776, 983, 726
291, 721, 983, 811, 777
292, 920, 420, 921, 1070
293, 983, 870, 864, 868
294, 939, 721, 731, 777
295, 722, 736, 732, 731
296, 722, 810, 724, 732
297, 798, 778, 774, 736
298, 774, 775, 778, 799
299, 1071, 217, 192, 193
300, 721, 731, 809, 939
301, 939, 983, 982, 868
302, 983, 870, 1045, 864
303, 776, 984, 981, 983
304, 764, 733, 779, 780
305, 800, 777, 774, 773
306, 764, 733, 780, 776
307, 750, 746, 814, 756
308, 750, 814, 819, 815
309, 752, 1072, 754, 1073
310, 820, 750, 745, 746
311, 750, 745, 746, 743
312, 752, 816, 818, 1073
313, 752, 816, 1073, 754
314, 1074, 1075, 675, 677
315, 1074, 754, 756, 755
316, 1074, 1076, 754, 755
317, 1074, 680, 1077, 672
318, 1074, 1075, 677, 1078
319, 740, 1079, 1080, 791
320, 1081, 1082, 1083, 1084
321, 709, 740, 1085, 738
322, 707, 714, 709, 1086
323, 739, 709, 738, 740
324, 739, 741, 738, 715
325, 740, 848, 791, 1087
326, 848, 739, 740, 708
327, 1015, 830, 1088, 1061
328, 803, 1015, 805, 1016
329, 1015, 805, 1063, 1088
330, 1059, 1088, 1015, 1063
331, 834, 836, 1089, 1090
332, 833, 993, 837, 836
333, 834, 1089, 838, 1091
334, 834, 1090, 860, 836
335, 834, 838, 1092, 1091
336, 1093, 1094, 685, 681
337, 70, 1093, 1095, 1096
338, 1093, 71, 1096, 70
339, 1093, 1097, 1098, 1095
340, 1093, 705, 1095, 1098
341, 681, 1099, 683, 1097
342, 1093, 1096, 1097, 1095
343, 880, 1100, 998, 567
344, 1100, 998, 567, 542
345, 813, 93, 103, 110
346, 1100, 540, 1005, 541
347, 1101, 1100, 1102, 858
348, 1100, 880, 1101, 1102
349, 1100, 880, 1102, 1103
350, 1103, 1100, 567, 566
351, 858, 1100, 1102, 1104
352, 1100, 858, 540, 1104
353, 1105, 649, 1106, 745
354, 1107, 1108, 1109, 1003
355, 1110, 658, 1111, 1112
356, 1110, 745, 1111, 1113
357, 1110, 745, 1114, 744
358, 729, 805, 735, 730
359, 729, 735, 804, 736
360, 1078, 674, 666, 662
361, 735, 805, 804, 1115
362, 734, 1036, 811, 978
363, 1035, 1034, 1058, 1057
364, 556, 1116, 1000, 1117
365, 1036, 1034, 1058, 734
366, 1055, 1118, 1051, 970
367, 1055, 1119, 1051, 1052
368, 730, 1055, 1118, 1051
369, 1051, 1035, 730, 1055
370, 1035, 734, 978, 1058
371, 730, 734, 978, 1035
372, 1035, 1055, 1051, 1052
373, 1120, 977, 1073, 1121
374, 1120, 1122, 1077, 1095
375, 1120, 1095, 1097, 1096
376, 1120, 1121, 1122, 974
377, 1123, 1034, 1124, 1125
378, 1126, 776, 1127, 726
379, 1125, 1128, 1129, 1130
380, 1125, 831, 1124, 1128
381, 1125, 1131, 1034, 1124
382, 1125, 831, 1132, 1131
383, 1125, 1129, 1124, 1123
384, 1133, 1013, 806, 803
385, 778, 779, 736, 804
386, 778, 804, 1011, 765
387, 803, 1011, 1133, 1013
388, 1006, 799, 1069, 1134
389, 1017, 1135, 1136, 830
390, 792, 1137, 789, 790
391, 792, 797, 1138, 796
392, 1138, 792, 958, 797
393, 952, 1139, 797, 961
394, 952, 954, 1140, 957
395, 952, 958, 1140, 954
396, 792, 1137, 1079, 789
397, 740, 792, 954, 1079
398, 854, 1141, 1142, 790
399, 854, 1143, 853, 1141
400, 790, 890, 891, 253
401, 854, 1142, 890, 790
402, 854, 790, 1143, 1141
403, 854, 278, 850, 277
404, 1144, 675, 689, 680
405, 854, 850, 855, 277
406, 952, 797, 1139, 958
407, 740, 1085, 738, 1145
408, 1146, 1147, 1148, 1149
409, 1085, 1145, 797, 961
410, 814, 756, 1150, 1144
411, 814, 1151, 815, 816
412, 1152, 1153, 819, 814
413, 750, 815, 819, 1154
414, 750, 814, 816, 756
415, 814, 1150, 756, 746
416, 814, 746, 820, 819
417, 932, 708, 848, 742
418, 1155, 109, 122, 112
419, 886, 894, 887, 1156
420, 894, 947, 887, 1156
421, 885, 934, 936, 937
422, 934, 936, 937, 1157
423, 928, 934, 937, 899
424, 1158, 1159, 825, 827
425, 941, 871, 940, 934
426, 934, 1157, 937, 1160
427, 934, 1160, 937, 899
428, 809, 943, 934, 1160
429, 1158, 1161, 405, 1162
430, 866, 871, 862, 872
431, 862, 866, 951, 867
432, 950, 893, 1163, 866
433, 1164, 1165, 248, 247
434, 886, 889, 871, 872
435, 1166, 369, 1167, 394
436, 894, 878, 866, 951
437, 1168, 1146, 1169, 741
438, 1168, 1170, 1171, 715
439, 1168, 1172, 1146, 953
440, 1172, 1146, 1173, 1168
441, 796, 1174, 1164, 1175
442, 1051, 1176, 1177, 1178
443, 1051, 1179, 1176, 1178
444, 1133, 1180, 1181, 1182
445, 1133, 1180, 920, 1181
446, 1182, 1016, 1011, 1133
447, 944, 1165, 1164, 1183
448, 729, 807, 803, 805
449, 803, 805, 1184, 1016
450, 803, 1133, 1011, 1016
451, 1185, 1013, 1066, 1181
452, 1133, 1181, 1185, 1182
453, 1181, 1013, 1066, 806
454, 248, 1186, 1187, 1164
455, 184, 1188, 208, 795
456, 233, 760, 234, 795
457, 795, 1189, 208, 233
458, 795, 947, 234, 235
459, 210, 235, 1190, 795
460, 1077, 1098, 1095, 1122
461, 1164, 1183, 1165, 247
462, 795, 1191, 1190, 184
463, 1109, 1107, 1192, 1108
464, 1109, 1192, 1193, 1194
465, 1109, 1119, 1195, 1196
466, 1197, 1163, 926, 900
467, 1198, 853, 896, 1197
468, 1197, 1199, 1163, 1200
469, 1201, 1197, 1202, 986
470, 1203, 1197, 1202, 1201
471, 1197, 1163, 1203, 1200
472, 733, 1050, 780, 776
473, 733, 1050, 1115, 779
474, 1044, 811, 733, 1036
475, 735, 733, 1115, 736
476, 722, 777, 733, 736
477, 798, 736, 777, 731
478, 1037, 1204, 1061, 914
479, 1038, 1039, 786, 784
480, 1037, 786, 787, 1038
481, 1037, 786, 911, 787
482, 1037, 1205, 1206, 1038
483, 854, 1141, 1198, 1207
484, 852, 850, 1208, 302
485, 852, 1209, 851, 326
486, 729, 808, 728, 922
487, 722, 729, 735, 730
488, 1210, 806, 1211, 1070
489, 806, 1070, 1210, 1066
490, 1006, 1067, 806, 732
491, 838, 841, 990, 837
492, 838, 1092, 1091, 1212
493, 834, 837, 838, 1089
494, 752, 1091, 838, 1089
495, 750, 990, 838, 817
496, 838, 1212, 1091, 818
497, 750, 752, 816, 818
498, 752, 818, 1091, 1073
499, 808, 1035, 805, 730
500, 1056, 1213, 1214, 1215
501, 142, 14, 15, 98
502, 1035, 1034, 1052, 805
503, 744, 749, 747, 1216
504, 1052, 1192, 1194, 923
505, 1213, 1057, 1196, 1119
506, 1057, 1196, 1119, 1109
507, 1109, 1217, 1052, 1218
508, 1052, 808, 923, 1194
509, 1109, 1057, 1196, 1218
510, 1055, 1051, 1119, 1176
511, 714, 711, 1086, 713
512, 718, 714, 709, 707
513, 714, 739, 738, 715
514, 714, 738, 737, 1219
515, 797, 1220, 796, 1221
516, 1222, 819, 1153, 1223
517, 1012, 1153, 1224, 815
518, 1225, 1012, 1153, 1224
519, 814, 756, 1144, 1097
520, 815, 1226, 816, 1151
521, 1188, 1227, 183, 1228
522, 1154, 815, 1153, 1012
523, 1191, 1190, 184, 1227
524, 934, 1157, 943, 936
525, 893, 871, 934, 940
526, 885, 934, 893, 871
527, 885, 938, 936, 888
528, 871, 934, 935, 933
529, 943, 936, 935, 934
530, 1034, 1136, 832, 1088
531, 1058, 1123, 1034, 1124
532, 1058, 1229, 1124, 1034
533, 1034, 1229, 1036, 1058
534, 1050, 1127, 1036, 1230
535, 1044, 1050, 1127, 1036
536, 1231, 1232, 395, 1167
537, 1231, 1232, 1167, 1166
538, 1231, 921, 922, 925
539, 1231, 1166, 1233, 1232
540, 983, 984, 982, 864
541, 777, 1044, 733, 776
542, 967, 721, 1064, 941
543, 721, 870, 967, 980
544, 1234, 433, 408, 409
545, 964, 870, 1045, 979
546, 1235, 348, 372, 347
547, 870, 965, 979, 964
548, 1045, 1044, 811, 870
549, 870, 980, 979, 965
550, 870, 721, 967, 873
551, 822, 1236, 1237, 1238
552, 1238, 1236, 829, 822
553, 42, 1238, 1236, 829
554, 822, 913, 914, 1236
555, 822, 824, 830, 1061
556, 821, 823, 822, 829
557, 1199, 1239, 950, 1240
558, 1241, 1242, 243, 1243
559, 1244, 1243, 936, 1245
560, 1191, 1188, 1246, 1169
561, 795, 947, 1247, 1189
562, 1241, 1242, 1248, 1249
563, 937, 945, 1250, 1248
564, 937, 1250, 1157, 936
565, 1241, 938, 1248, 1243
566, 1248, 1243, 1242, 1241
567, 844, 1085, 1251, 1252
568, 844, 1253, 738, 1145
569, 844, 737, 1253, 1254
570, 709, 844, 738, 1085
571, 1255, 1145, 1256, 1252
572, 1145, 1256, 1252, 844
573, 717, 1170, 1227, 1191
574, 717, 1257, 718, 1258
575, 1258, 717, 741, 718
576, 717, 1191, 1227, 1190
577, 1141, 791, 790, 1143
578, 795, 184, 1190, 209
579, 793, 791, 1143, 790
580, 1143, 853, 903, 1259
581, 1143, 855, 853, 1259
582, 1143, 926, 900, 1141
583, 1143, 926, 1141, 791
584, 1051, 808, 1194, 1260
585, 729, 808, 805, 730
586, 916, 808, 807, 922
587, 1052, 923, 808, 918
588, 808, 925, 923, 1260
589, 803, 1184, 805, 807
590, 1015, 805, 1088, 1136
591, 1052, 1088, 1057, 1218
592, 729, 735, 805, 804
593, 1034, 1136, 805, 1115
594, 778, 803, 736, 1006
595, 1261, 219, 1262, 1263
596, 968, 969, 1118, 970
597, 1052, 1088, 1034, 1057
598, 1264, 1064, 980, 969
599, 980, 1264, 965, 1064
600, 1264, 339, 1265, 340
601, 1264, 1065, 969, 1266
602, 1264, 1265, 1065, 340
603, 1264, 980, 968, 969
604, 1264, 1266, 969, 971
605, 961, 956, 1267, 1268
606, 961, 1220, 1269, 1270
607, 1101, 1090, 836, 858
608, 1101, 1271, 837, 1089
609, 706, 1272, 1273, 1274
610, 706, 1275, 1272, 1274
611, 1276, 845, 1277, 706
612, 810, 969, 1278, 1118
613, 722, 723, 810, 730
614, 942, 724, 732, 731
615, 1279, 1157, 1280, 1281
616, 810, 1278, 1233, 728
617, 1188, 1246, 207, 1189
618, 1029, 1278, 1233, 942
619, 969, 723, 810, 812
620, 810, 1027, 942, 1278
621, 1282, 1212, 1283, 1284
622, 1285, 182, 1188, 207
623, 1286, 1287, 1284, 906
624, 1282, 906, 908, 1288
625, 506, 1025, 1289, 1290
626, 1282, 906, 1287, 908
627, 1282, 906, 1212, 1284
628, 1120, 754, 816, 1097
629, 1291, 1292, 179, 31
630, 1293, 1151, 1226, 1294
631, 1097, 814, 1151, 1099
632, 856, 769, 883, 602
633, 814, 1153, 815, 1151
634, 750, 817, 815, 1154
635, 750, 751, 752, 838
636, 750, 748, 820, 745
637, 815, 818, 1288, 817
638, 816, 1073, 1226, 818
639, 752, 816, 754, 756
640, 814, 1099, 1152, 1153
641, 756, 1074, 1144, 754
642, 1144, 754, 1097, 756
643, 754, 1295, 1072, 755
644, 754, 1295, 1077, 1121
645, 1296, 1297, 638, 1298
646, 1121, 754, 1295, 1072
647, 1120, 1073, 754, 1121
648, 790, 253, 891, 252
649, 1299, 1043, 719, 1300
650, 1043, 1301, 1302, 788
651, 719, 1300, 758, 1299
652, 784, 1039, 1303, 1038
653, 1043, 1299, 1304, 1300
654, 1043, 1304, 783, 788
655, 1043, 1305, 783, 1299
656, 821, 1135, 827, 1306
657, 1237, 42, 1238, 1236
658, 1237, 1236, 1307, 43
659, 1237, 1204, 1061, 1308
660, 1237, 502, 1204, 1308
661, 1237, 1308, 1238, 478
662, 1237, 1204, 1309, 914
663, 1237, 1061, 1204, 914
664, 1310, 789, 1142, 1311
665, 750, 817, 987, 990
666, 743, 750, 752, 756
667, 1312, 570, 545, 546
668, 820, 745, 748, 1106
669, 820, 1106, 1313, 746
670, 1040, 504, 1001, 529
671, 990, 750, 748, 987
672, 743, 750, 748, 751
673, 1114, 1314, 1315, 745
674, 743, 747, 745, 744
675, 745, 1315, 747, 748
676, 745, 1113, 1106, 1111
677, 745, 1111, 746, 744
678, 743, 746, 756, 744
679, 745, 1315, 748, 1105
680, 745, 1314, 649, 1110
681, 858, 1104, 1090, 860
682, 1316, 1317, 1318, 860
683, 860, 1319, 1318, 1316
684, 834, 860, 1320, 1318
685, 860, 1321, 859, 857
686, 776, 983, 777, 1044
687, 798, 1006, 736, 732
688, 798, 774, 799, 801
689, 854, 1322, 1207, 1198
690, 798, 774, 800, 777
691, 798, 1006, 732, 802
692, 1323, 1105, 1324, 1325
693, 722, 735, 736, 733
694, 735, 736, 1115, 804
695, 738, 1145, 1326, 953
696, 1172, 715, 1219, 953
697, 715, 1219, 953, 738
698, 740, 742, 791, 848
699, 596, 1327, 1328, 1324
700, 844, 738, 1085, 1145
701, 709, 1085, 740, 742
702, 738, 1253, 737, 1219
703, 739, 708, 848, 718
704, 794, 1329, 251, 855
705, 948, 283, 1330, 951
706, 948, 761, 762, 951
707, 948, 1330, 285, 878
708, 894, 761, 948, 951
709, 878, 260, 1331, 285
710, 949, 260, 1331, 878
711, 999, 785, 910, 881
712, 1332, 1333, 1334, 162
713, 1108, 879, 999, 881
714, 879, 999, 881, 835
715, 881, 882, 859, 1317
716, 881, 1317, 785, 910
717, 1017, 1135, 1335, 1336
718, 803, 804, 1017, 1011
719, 1017, 1337, 1335, 1338
720, 1324, 1327, 1328, 1339
721, 1015, 1136, 1017, 804
722, 729, 732, 1006, 806
723, 1017, 765, 804, 1336
724, 1088, 911, 824, 1132
725, 1034, 1132, 832, 1131
726, 1034, 832, 1340, 1131
727, 832, 830, 1088, 1136
728, 1341, 1342, 1332, 138
729, 1035, 978, 1056, 1058
730, 1124, 831, 1131, 1343
731, 1125, 1132, 1034, 1131
732, 1213, 1123, 1196, 1057
733, 1344, 1341, 1345, 1332
734, 493, 1346, 763, 494
735, 1035, 1052, 1034, 1057
736, 1124, 1347, 1123, 1129
737, 748, 989, 988, 1339
738, 1339, 990, 748, 989
739, 1348, 1334, 1332, 1333
740, 990, 1349, 837, 841
741, 750, 817, 838, 818
742, 750, 838, 990, 751
743, 833, 842, 838, 841
744, 447, 1181, 920, 1180
745, 1182, 1181, 423, 1180
746, 1133, 1182, 1184, 1180
747, 1181, 1185, 423, 398
748, 1093, 1151, 1096, 1350
749, 685, 1093, 71, 1350
750, 1097, 1094, 681, 1099
751, 1348, 1345, 1332, 1344
752, 1099, 1094, 681, 686
753, 1097, 1093, 681, 1094
754, 1151, 1094, 1093, 1097
755, 1093, 1350, 1096, 71
756, 881, 999, 785, 835
757, 881, 999, 1108, 910
758, 909, 785, 786, 907
759, 834, 785, 1318, 1092
760, 785, 1318, 1351, 1317
761, 785, 786, 787, 910
762, 781, 835, 785, 999
763, 781, 786, 785, 907
764, 909, 906, 1284, 907
765, 1126, 1161, 382, 1352
766, 726, 1353, 332, 1354
767, 726, 332, 357, 1126
768, 1126, 1354, 776, 726
769, 1126, 780, 1354, 1162
770, 906, 905, 1288, 1212
771, 1126, 1354, 356, 1162
772, 1126, 1161, 381, 382
773, 722, 735, 729, 736
774, 1016, 874, 1060, 1059
775, 1016, 1355, 1063, 1184
776, 1016, 1356, 1355, 1182
777, 1015, 1016, 1014, 1060
778, 852, 1209, 897, 851
779, 1007, 852, 327, 1209
780, 898, 800, 901, 902
781, 774, 800, 898, 801
782, 896, 852, 851, 853
783, 713, 1342, 1332, 1345
784, 981, 773, 898, 986
785, 1051, 1179, 1178, 1260
786, 1086, 709, 1273, 711
787, 1179, 1176, 415, 440
788, 415, 1179, 1178, 1176
789, 1051, 1194, 1179, 1260
790, 417, 1179, 1178, 416
791, 1179, 1176, 440, 1119
792, 981, 776, 773, 985
793, 867, 985, 1357, 982
794, 887, 1156, 1257, 1358
795, 862, 951, 865, 867
796, 862, 982, 865, 864
797, 982, 868, 867, 940
798, 983, 982, 868, 864
799, 982, 984, 985, 1357
800, 737, 714, 1219, 1359
801, 1155, 1360, 710, 1361
802, 1360, 710, 1361, 711
803, 709, 711, 737, 1273
804, 1273, 737, 1360, 711
805, 717, 1362, 716, 1348
806, 711, 1359, 737, 1360
807, 1173, 1148, 840, 1149
808, 711, 1273, 1086, 1361
809, 808, 1118, 730, 728
810, 1015, 1338, 1017, 830
811, 805, 804, 1115, 1136
812, 807, 916, 917, 918
813, 807, 918, 917, 1184
814, 729, 806, 807, 922
815, 805, 1088, 1062, 1063
816, 1184, 918, 805, 807
817, 709, 844, 847, 737
818, 844, 737, 738, 1253
819, 1168, 1146, 741, 953
820, 1310, 230, 1311, 229
821, 1310, 789, 1363, 1364
822, 1365, 1292, 1149, 1366
823, 1137, 789, 790, 1364
824, 1137, 1364, 790, 228
825, 1137, 1291, 228, 203
826, 1137, 958, 1140, 202
827, 203, 1291, 1367, 1137
828, 252, 790, 227, 794
829, 790, 227, 794, 1137
830, 1326, 1368, 839, 1148
831, 1369, 1368, 839, 1326
832, 959, 1369, 960, 1326
833, 959, 1368, 1147, 1369
834, 741, 1079, 1080, 740
835, 1079, 1146, 741, 1169
836, 1079, 1363, 789, 1291
837, 1079, 1146, 1169, 1363
838, 740, 797, 791, 742
839, 1079, 954, 1146, 1365
840, 1188, 1191, 1228, 1169
841, 1191, 1228, 1169, 1170
842, 1170, 1370, 1228, 1371
843, 1168, 715, 1171, 1172
844, 717, 1227, 1170, 1362
845, 1170, 1191, 1228, 1227
846, 1228, 1170, 1227, 1372
847, 1170, 1362, 1372, 1370
848, 717, 707, 1373, 1333
849, 717, 1170, 715, 1362
850, 1170, 715, 1362, 1171
851, 945, 1374, 1375, 1250
852, 945, 1376, 899, 1377
853, 1375, 945, 1186, 1374
854, 945, 944, 1183, 1248
855, 945, 944, 899, 903
856, 945, 1183, 944, 1186
857, 1318, 1351, 1378, 1020
858, 1318, 1092, 1020, 1023
859, 1318, 1379, 1092, 1023
860, 860, 1320, 1380, 1090
861, 1318, 1319, 1320, 1381
862, 1320, 1379, 1092, 1318
863, 1379, 1381, 1318, 1320
864, 834, 1320, 860, 1090
865, 1351, 1128, 1317, 1382
866, 1318, 1378, 1319, 1381
867, 1351, 912, 910, 1128
868, 879, 881, 860, 836
869, 1217, 1218, 910, 1062
870, 1109, 1192, 1217, 1108
871, 876, 1217, 910, 1062
872, 1150, 689, 688, 690
873, 1383, 1384, 1385, 1386
874, 1109, 1196, 1195, 882
875, 1062, 1063, 1217, 1052
876, 1217, 876, 1063, 1062
877, 1063, 805, 1052, 1062
878, 1110, 1111, 745, 744
879, 1113, 1111, 659, 1387
880, 1113, 1111, 1387, 1106
881, 1113, 1111, 660, 659
882, 656, 1106, 657, 1113
883, 797, 742, 1221, 796
884, 782, 1305, 1388, 1389
885, 1287, 1284, 906, 1282
886, 782, 906, 908, 915
887, 906, 908, 915, 1041
888, 1282, 1212, 906, 1288
889, 909, 824, 911, 910
890, 782, 784, 786, 1039
891, 906, 1212, 907, 905
892, 721, 983, 868, 870
893, 812, 1064, 941, 1031
894, 724, 941, 1027, 812
895, 932, 848, 892, 791
896, 1143, 853, 1141, 900
897, 927, 900, 926, 928
898, 886, 1358, 887, 888
899, 926, 1199, 1163, 1197
900, 789, 791, 1141, 1199
901, 791, 1141, 1199, 926
902, 896, 986, 900, 901
903, 896, 898, 902, 801
904, 855, 850, 853, 849
905, 853, 1259, 861, 903
906, 1143, 1259, 794, 855
907, 900, 903, 899, 927
908, 932, 888, 708, 938
909, 892, 1258, 1247, 1087
910, 892, 1247, 1258, 947
911, 892, 848, 1087, 791
912, 894, 892, 946, 950
913, 737, 1273, 1390, 1274
914, 737, 846, 1274, 1391
915, 847, 1262, 1263, 1261
916, 847, 1392, 1262, 1261
917, 847, 1085, 742, 1221
918, 1086, 714, 709, 711
919, 846, 1391, 737, 847
920, 847, 1263, 938, 846
921, 847, 1251, 1262, 1392
922, 844, 1251, 847, 1254
923, 903, 1143, 900, 853
924, 760, 1189, 795, 233
925, 1285, 1169, 1188, 1371
926, 849, 853, 852, 850
927, 1351, 1393, 912, 1128
928, 1382, 1394, 1130, 1316
929, 1129, 1393, 1124, 1343
930, 1351, 1378, 1382, 1316
931, 1382, 1019, 1394, 1378
932, 1379, 1091, 1320, 1092
933, 1379, 1091, 1072, 1395
934, 1285, 1169, 1396, 1246
935, 1381, 1395, 1320, 1379
936, 960, 1397, 1398, 1369
937, 131, 92, 26, 93
938, 988, 1399, 1400, 1296
939, 932, 892, 848, 887
940, 529, 554, 530, 1001
941, 709, 1086, 706, 707
942, 793, 927, 796, 1259
943, 928, 944, 742, 927
944, 740, 952, 792, 797
945, 847, 742, 938, 1221
946, 932, 926, 791, 892
947, 797, 1221, 742, 1085
948, 959, 1147, 1146, 954
949, 1079, 953, 1146, 954
950, 1146, 1365, 1149, 1366
951, 1146, 1149, 1365, 1147
952, 1146, 1148, 953, 1172
953, 780, 1161, 1126, 1050
954, 1034, 1340, 1036, 1229
955, 1036, 1049, 1229, 1401
956, 1050, 1336, 1115, 779
957, 1050, 1036, 1340, 1230
958, 1036, 1049, 1401, 1127
959, 1044, 811, 1049, 1048
960, 1045, 983, 1047, 1044
961, 1003, 763, 1107, 1402
962, 858, 859, 860, 879
963, 1004, 1193, 492, 1403
964, 1107, 1193, 492, 1004
965, 1109, 1003, 1193, 1107
966, 1147, 1404, 1405, 1406
967, 1403, 1003, 1193, 1109
968, 879, 1003, 882, 1108
969, 1003, 1005, 882, 1403
970, 1036, 811, 978, 1049
971, 1036, 1049, 978, 1058
972, 978, 1058, 1407, 1056
973, 978, 973, 1408, 1409
974, 956, 1410, 1411, 1397
975, 1048, 1049, 1412, 978
976, 1413, 1048, 1414, 978
977, 1253, 1359, 1415, 1416
978, 909, 1284, 785, 907
979, 1088, 1061, 824, 911
980, 1088, 830, 824, 1061
981, 821, 822, 830, 829
982, 752, 1073, 1091, 1072
983, 1091, 1417, 753, 1072
984, 1379, 1091, 1092, 1283
985, 1379, 1091, 1395, 1320
986, 784, 1043, 1301, 1418
987, 782, 784, 1305, 783
988, 782, 784, 1388, 1305
989, 784, 1418, 1388, 1305
990, 1043, 1301, 1418, 574
991, 1038, 784, 787, 1419
992, 781, 782, 784, 786
993, 1125, 1057, 1218, 1196
994, 1125, 1088, 1218, 1057
995, 1052, 808, 1035, 805
996, 1052, 1062, 805, 1088
997, 1109, 1218, 1052, 1057
998, 1055, 1215, 1177, 1176
999, 1057, 1123, 1058, 1056
1000, 1221, 938, 944, 742
1001, 938, 888, 845, 1243
1002, 708, 887, 1358, 888
1003, 740, 848, 1087, 741
1004, 742, 932, 928, 791
1005, 888, 938, 845, 708
1006, 932, 887, 708, 888
1007, 708, 887, 1276, 1358
1008, 932, 928, 938, 742
1009, 848, 1258, 718, 887
1010, 958, 226, 794, 1329
1011, 958, 794, 226, 227
1012, 1267, 1139, 955, 952
1013, 961, 1252, 1269, 1220
1014, 1252, 1251, 1420, 1421
1015, 792, 958, 794, 1138
1016, 958, 797, 1139, 1138
1017, 1137, 958, 954, 1140
1018, 1137, 1079, 789, 1291
1019, 1139, 955, 952, 958
1020, 793, 792, 796, 797
1021, 793, 927, 1143, 791
1022, 961, 1252, 1255, 1422
1023, 1269, 197, 172, 173
1024, 1423, 1424, 546, 1425
1025, 1019, 485, 1394, 510
1026, 1019, 1394, 485, 1426
1027, 785, 907, 1284, 1092
1028, 1019, 1021, 1378, 1020
1029, 1019, 510, 1021, 509
1030, 928, 900, 940, 899
1031, 926, 892, 1199, 791
1032, 938, 845, 708, 846
1033, 1427, 1359, 1360, 1254
1034, 1263, 1243, 1242, 1248
1035, 928, 927, 899, 944
1036, 937, 938, 1241, 936
1037, 1358, 1156, 895, 886
1038, 1006, 1013, 806, 1066
1039, 778, 804, 765, 779
1040, 778, 774, 764, 765
1041, 721, 731, 722, 724
1042, 731, 801, 902, 800
1043, 798, 731, 802, 732
1044, 809, 901, 902, 1160
1045, 818, 1212, 1226, 1288
1046, 724, 721, 941, 723
1047, 721, 983, 870, 811
1048, 731, 942, 902, 802
1049, 796, 1221, 1220, 1165
1050, 796, 1165, 944, 1221
1051, 844, 1252, 1145, 1085
1052, 961, 1268, 1139, 1270
1053, 961, 1255, 960, 956
1054, 797, 1138, 796, 1220
1055, 1000, 555, 531, 556
1056, 1255, 1145, 961, 960
1057, 1145, 960, 1255, 1253
1058, 844, 1256, 1254, 1253
1059, 738, 953, 1326, 1219
1060, 709, 1273, 737, 1274
1061, 961, 1145, 1252, 1085
1062, 781, 788, 843, 1419
1063, 909, 914, 824, 913
1064, 781, 835, 999, 996
1065, 787, 999, 876, 996
1066, 1427, 1428, 1429, 1430
1067, 787, 1038, 876, 874
1068, 787, 999, 785, 910
1069, 910, 876, 911, 787
1070, 1062, 910, 876, 911
1071, 740, 1145, 738, 953
1072, 900, 867, 940, 1201
1073, 932, 893, 926, 892
1074, 740, 791, 792, 1079
1075, 792, 1079, 1137, 954
1076, 793, 792, 797, 791
1077, 1130, 1382, 1316, 1317
1078, 87, 17, 1431, 139
1079, 714, 711, 1359, 737
1080, 1137, 789, 1364, 1291
1081, 712, 711, 1359, 714
1082, 1310, 789, 1080, 1363
1083, 789, 1142, 1141, 790
1084, 1310, 1199, 789, 1311
1085, 1125, 1132, 1128, 1218
1086, 1050, 1036, 1115, 1340
1087, 1044, 733, 776, 1050
1088, 1115, 1336, 804, 779
1089, 778, 799, 775, 1069
1090, 734, 735, 1035, 730
1091, 1115, 1136, 804, 1336
1092, 1052, 1088, 1218, 1062
1093, 734, 978, 811, 979
1094, 735, 733, 1036, 1115
1095, 1208, 1007, 852, 327
1096, 897, 1009, 1432, 1433
1097, 1209, 1433, 325, 350
1098, 1009, 1209, 1433, 897
1099, 852, 1209, 1007, 897
1100, 852, 327, 1209, 326
1101, 1209, 1008, 1009, 351
1102, 1045, 361, 964, 1434
1103, 952, 960, 959, 957
1104, 1045, 964, 979, 1434
1105, 1435, 933, 1281, 1244
1106, 811, 1045, 979, 1048
1107, 811, 983, 870, 1044
1108, 837, 1271, 747, 1089
1109, 837, 747, 1271, 1081
1110, 1101, 836, 993, 880
1111, 1101, 1102, 1081, 1271
1112, 1102, 858, 1436, 1101
1113, 1101, 837, 836, 1089
1114, 837, 1349, 747, 1081
1115, 838, 837, 990, 751
1116, 990, 751, 837, 1349
1117, 1075, 1074, 756, 744
1118, 1074, 1078, 755, 744
1119, 743, 755, 753, 744
1120, 752, 1089, 838, 751
1121, 755, 1437, 753, 1438
1122, 755, 1439, 1437, 1440
1123, 755, 1295, 1439, 1076
1124, 743, 752, 753, 755
1125, 1244, 291, 1441, 266
1126, 1273, 1360, 1384, 1361
1127, 998, 568, 994, 880
1128, 1274, 1391, 1390, 737
1129, 1110, 660, 658, 655
1130, 1273, 1361, 1384, 1442
1131, 1273, 1361, 1443, 1086
1132, 1273, 1274, 1272, 1390
1133, 810, 723, 1118, 730
1134, 812, 969, 1278, 810
1135, 812, 1266, 1278, 969
1136, 968, 1118, 730, 973
1137, 812, 723, 1064, 969
1138, 722, 734, 811, 723
1139, 968, 734, 723, 980
1140, 694, 1298, 1444, 53
1141, 1297, 1298, 1444, 694
1142, 636, 635, 1444, 631
1143, 637, 631, 636, 992
1144, 1297, 988, 1296, 1445
1145, 1297, 992, 988, 1445
1146, 697, 1298, 638, 694
1147, 1298, 638, 694, 1297
1148, 1297, 639, 1445, 638
1149, 1297, 1445, 639, 637
1150, 1120, 816, 1226, 1151
1151, 1120, 1121, 974, 977
1152, 755, 752, 753, 1072
1153, 752, 1072, 1091, 753
1154, 1091, 1073, 1212, 977
1155, 1120, 1226, 977, 976
1156, 750, 816, 752, 756
1157, 1073, 818, 1212, 1226
1158, 820, 819, 1446, 992
1159, 1030, 445, 469, 444
1160, 751, 743, 747, 748
1161, 754, 1074, 1144, 1077
1162, 1120, 1077, 754, 1097
1163, 752, 1091, 1089, 753
1164, 1299, 1327, 1400, 989
1165, 1300, 719, 574, 1043
1166, 1244, 1435, 291, 292
1167, 1043, 1302, 1301, 573
1168, 1339, 990, 989, 1299
1169, 783, 905, 841, 991
1170, 1043, 1299, 783, 1304
1171, 599, 1300, 758, 719
1172, 784, 786, 1038, 787
1173, 991, 1305, 719, 1299
1174, 824, 831, 1132, 1128
1175, 1034, 805, 1136, 1088
1176, 832, 1132, 824, 831
1177, 805, 1184, 1016, 1063
1178, 1128, 824, 910, 1132
1179, 822, 824, 1061, 914
1180, 1132, 910, 1128, 1218
1181, 1258, 1156, 947, 1190
1182, 1078, 755, 1076, 1074
1183, 1447, 111, 97, 81
1184, 1111, 660, 659, 658
1185, 1075, 1111, 674, 744
1186, 987, 1154, 757, 991
1187, 1154, 1448, 819, 987
1188, 988, 1400, 1399, 989
1189, 987, 757, 989, 991
1190, 987, 1448, 819, 992
1191, 988, 757, 1444, 1298
1192, 988, 757, 992, 1444
1193, 988, 1298, 1400, 989
1194, 835, 997, 999, 996
1195, 1003, 999, 1402, 1108
1196, 999, 1108, 910, 876
1197, 1243, 1244, 242, 243
1198, 879, 1003, 1005, 882
1199, 1101, 858, 836, 880
1200, 879, 998, 880, 858
1201, 884, 993, 836, 880
1202, 1024, 118, 90, 104
1203, 1101, 837, 1081, 993
1204, 1032, 1065, 316, 341
1205, 1441, 314, 290, 315
1206, 857, 882, 859, 1005
1207, 834, 907, 785, 1092
1208, 1111, 662, 744, 1112
1209, 1075, 1150, 688, 1387
1210, 1075, 744, 674, 1078
1211, 676, 1387, 673, 1075
1212, 1110, 1111, 658, 660
1213, 1113, 1106, 1387, 656
1214, 745, 746, 1111, 1106
1215, 1075, 1111, 746, 1387
1216, 1113, 656, 1387, 659
1217, 674, 662, 744, 1111
1218, 717, 741, 1170, 1191
1219, 1168, 1171, 1170, 1370
1220, 1168, 1170, 1371, 1370
1221, 714, 717, 716, 713
1222, 1157, 1245, 936, 1250
1223, 1170, 1171, 1362, 1370
1224, 1427, 1449, 1450, 1451
1225, 1427, 1452, 1450, 1449
1226, 1427, 105, 1449, 1430
1227, 1427, 1429, 1360, 1453
1228, 1427, 1254, 1429, 1428
1229, 783, 1299, 1305, 991
1230, 781, 833, 785, 835
1231, 781, 996, 787, 1419
1232, 843, 788, 1454, 1455
1233, 1059, 1061, 1015, 1088
1234, 874, 1063, 1016, 1355
1235, 1355, 874, 1060, 1016
1236, 918, 805, 1052, 1063
1237, 1456, 1063, 877, 874
1238, 1244, 1243, 242, 241
1239, 1217, 918, 1063, 877
1240, 1457, 1458, 612, 1437
1241, 1457, 1072, 1458, 1437
1242, 1457, 1459, 1436, 1417
1243, 1457, 1380, 563, 562
1244, 1417, 1458, 1380, 1457
1245, 1380, 1417, 1460, 1458
1246, 1457, 1380, 562, 1458
1247, 1082, 1084, 1461, 593
1248, 1462, 1216, 1114, 747
1249, 837, 747, 751, 1089
1250, 1451, 169, 144, 145
1251, 618, 1463, 1084, 1461
1252, 1271, 749, 1462, 747
1253, 747, 749, 751, 1089
1254, 1464, 828, 823, 825
1255, 823, 825, 826, 1464
1256, 828, 431, 1159, 825
1257, 823, 1464, 455, 828
1258, 828, 431, 825, 456
1259, 821, 829, 828, 823
1260, 821, 825, 828, 827
1261, 1031, 1027, 1281, 943
1262, 1278, 1027, 1033, 812
1263, 810, 1118, 1278, 728
1264, 972, 980, 1264, 965
1265, 1461, 1084, 618, 593
1266, 1064, 980, 967, 965
1267, 1064, 1065, 969, 1265
1268, 812, 1065, 1064, 1031
1269, 939, 940, 982, 1201
1270, 973, 1215, 1177, 1055
1271, 1176, 1465, 414, 439
1272, 1179, 442, 1260, 1194
1273, 1179, 1119, 440, 441
1274, 1051, 808, 1260, 1118
1275, 1176, 414, 1215, 1177
1276, 1051, 1179, 1119, 1176
1277, 907, 842, 1212, 1092
1278, 909, 1284, 906, 1286
1279, 907, 1212, 842, 905
1280, 838, 817, 842, 818
1281, 838, 818, 842, 1212
1282, 833, 834, 907, 785
1283, 783, 841, 843, 1304
1284, 781, 787, 996, 999
1285, 907, 1092, 1212, 1284
1286, 842, 817, 841, 905
1287, 1231, 925, 922, 728
1288, 916, 922, 921, 925
1289, 923, 921, 418, 925
1290, 916, 917, 921, 920
1291, 921, 1070, 922, 920
1292, 921, 925, 1466, 418
1293, 1231, 394, 921, 1466
1294, 1467, 1461, 616, 1271
1295, 1070, 921, 1231, 395
1296, 1356, 474, 1468, 1355
1297, 475, 1356, 474, 1468
1298, 1356, 451, 1469, 1014
1299, 1016, 1356, 1060, 1355
1300, 1356, 1355, 449, 474
1301, 1469, 1182, 424, 1356
1302, 777, 774, 773, 764
1303, 773, 777, 764, 776
1304, 1461, 1463, 1271, 1467
1305, 809, 1160, 934, 940
1306, 935, 871, 873, 943
1307, 1234, 1401, 408, 1352
1308, 980, 721, 1064, 967
1309, 812, 969, 1065, 1266
1310, 934, 1160, 943, 1157
1311, 934, 941, 871, 943
1312, 981, 939, 800, 777
1313, 1045, 864, 1047, 983
1314, 864, 862, 868, 870
1315, 873, 869, 870, 862
1316, 868, 941, 871, 940
1317, 981, 983, 777, 776
1318, 900, 901, 1201, 940
1319, 1159, 828, 827, 430
1320, 900, 1197, 986, 896
1321, 896, 851, 852, 897
1322, 939, 1201, 901, 940
1323, 152, 5, 83, 4
1324, 809, 901, 1160, 940
1325, 901, 902, 1160, 899
1326, 1034, 1115, 1036, 1340
1327, 1058, 1470, 1229, 1412
1328, 1058, 1407, 1056, 1347
1329, 1129, 1343, 1426, 1382
1330, 1124, 1229, 1058, 1470
1331, 1058, 1347, 1056, 1123
1332, 1049, 1401, 1127, 1046
1333, 1017, 1336, 1335, 765
1334, 806, 732, 1067, 1233
1335, 1133, 1013, 1182, 1185
1336, 1161, 1352, 1159, 382
1337, 722, 732, 729, 728
1338, 1274, 845, 706, 1275
1339, 706, 1276, 1471, 1472
1340, 1273, 1086, 1443, 1473
1341, 1159, 1352, 407, 382
1342, 706, 1276, 707, 1471
1343, 1135, 1336, 1340, 1158
1344, 706, 1273, 1473, 1086
1345, 1390, 1273, 737, 1360
1346, 1021, 1319, 1378, 1381
1347, 1021, 1378, 1474, 510
1348, 1018, 509, 1021, 534
1349, 1018, 1021, 1020, 1023
1350, 1018, 509, 1019, 1021
1351, 1021, 1020, 1023, 1381
1352, 1018, 1020, 1019, 1026
1353, 1019, 1378, 1021, 510
1354, 1234, 1475, 825, 432
1355, 764, 779, 765, 767
1356, 1330, 310, 309, 285
1357, 1476, 310, 309, 1330
1358, 873, 878, 962, 862
1359, 862, 863, 869, 864
1360, 869, 863, 963, 864
1361, 863, 310, 963, 1476
1362, 1168, 1169, 1146, 1173
1363, 959, 960, 953, 1326
1364, 740, 1079, 953, 741
1365, 1145, 1326, 953, 960
1366, 1169, 1477, 1285, 1363
1367, 1168, 953, 715, 1172
1368, 1148, 1326, 1219, 839
1369, 953, 1326, 1219, 1148
1370, 959, 1147, 954, 957
1371, 1146, 954, 1147, 1365
1372, 709, 1274, 706, 1273
1373, 1427, 1453, 1360, 1359
1374, 737, 1254, 1391, 1360
1375, 1360, 1478, 1384, 1155
1376, 1234, 1343, 433, 434
1377, 1124, 1343, 1131, 1229
1378, 1125, 1128, 1124, 1129
1379, 1131, 1475, 1234, 1343
1380, 808, 807, 805, 918
1381, 1034, 832, 1132, 1088
1382, 1124, 1347, 1058, 1123
1383, 1124, 1229, 1470, 1343
1384, 821, 832, 830, 824
1385, 130, 27, 101, 93
1386, 945, 1376, 904, 899
1387, 904, 902, 1376, 1479
1388, 896, 903, 904, 899
1389, 904, 1480, 1481, 1482
1390, 1481, 851, 1480, 904
1391, 1180, 448, 1355, 473
1392, 785, 912, 1318, 1092
1393, 1234, 1159, 825, 1230
1394, 833, 834, 785, 835
1395, 824, 913, 914, 822
1396, 1091, 1073, 818, 1212
1397, 834, 836, 881, 835
1398, 833, 834, 838, 842
1399, 1379, 1091, 1283, 977
1400, 834, 842, 907, 1092
1401, 1234, 1401, 1470, 434
1402, 1351, 1393, 1382, 1020
1403, 909, 786, 785, 910
1404, 832, 1230, 1131, 825
1405, 824, 1128, 1393, 831
1406, 909, 907, 786, 906
1407, 909, 910, 785, 912
1408, 1431, 86, 17, 87
1409, 912, 1020, 1022, 1393
1410, 912, 1020, 1284, 1022
1411, 735, 1036, 1034, 1115
1412, 834, 785, 860, 1318
1413, 884, 998, 997, 994
1414, 998, 997, 543, 1004
1415, 1003, 763, 999, 997
1416, 879, 998, 1005, 1004
1417, 879, 881, 1108, 882
1418, 1005, 541, 542, 1100
1419, 1100, 1005, 998, 542
1420, 884, 994, 1002, 995
1421, 544, 1002, 1423, 997
1422, 999, 996, 997, 763
1423, 781, 996, 843, 835
1424, 1003, 1108, 879, 999
1425, 997, 1002, 1423, 996
1426, 997, 544, 994, 543
1427, 997, 763, 518, 1004
1428, 756, 816, 1097, 814
1429, 1074, 756, 744, 755
1430, 743, 751, 749, 753
1431, 1058, 978, 1407, 1412
1432, 1078, 1216, 753, 744
1433, 755, 1078, 1076, 1440
1434, 744, 1112, 662, 1216
1435, 943, 871, 873, 941
1436, 731, 802, 732, 942
1437, 902, 1479, 802, 942
1438, 904, 1479, 1483, 1481
1439, 809, 902, 731, 942
1440, 784, 1303, 1388, 1418
1441, 1388, 1418, 550, 575
1442, 577, 1389, 576, 883
1443, 1484, 857, 515, 1403
1444, 782, 908, 1389, 915
1445, 782, 1389, 1388, 1039
1446, 1305, 1389, 576, 1388
1447, 1388, 1418, 575, 1305
1448, 782, 784, 1039, 1388
1449, 1113, 660, 653, 657
1450, 887, 893, 894, 886
1451, 934, 899, 940, 1160
1452, 1005, 882, 1403, 857
1453, 1163, 900, 867, 866
1454, 885, 888, 933, 889
1455, 862, 873, 878, 872
1456, 866, 868, 871, 940
1457, 871, 935, 889, 933
1458, 886, 889, 885, 871
1459, 941, 943, 967, 873
1460, 802, 942, 1233, 732
1461, 1233, 802, 1068, 942
1462, 809, 943, 1160, 942
1463, 731, 802, 902, 801
1464, 806, 920, 807, 922
1465, 1006, 802, 1067, 732
1466, 799, 1009, 1069, 1134
1467, 764, 1485, 772, 773
1468, 802, 1068, 1486, 1134
1469, 803, 1133, 1016, 1184
1470, 1006, 799, 1134, 802
1471, 793, 742, 796, 927
1472, 709, 846, 708, 845
1473, 847, 1221, 1248, 1262
1474, 1274, 1275, 1263, 845
1475, 1274, 1263, 1275, 1071
1476, 847, 742, 846, 938
1477, 847, 1263, 846, 1391
1478, 1403, 1193, 491, 466
1479, 1487, 1391, 1390, 1274
1480, 739, 848, 741, 718
1481, 785, 1092, 1284, 912
1482, 1092, 1020, 1284, 912
1483, 1317, 1318, 860, 785
1484, 1132, 1218, 1062, 910
1485, 1125, 1128, 1132, 831
1486, 913, 823, 822, 824
1487, 1017, 1335, 1135, 830
1488, 832, 1135, 827, 821
1489, 1135, 1158, 827, 1488
1490, 821, 829, 830, 1306
1491, 714, 713, 1086, 707
1492, 717, 1258, 1191, 1190
1493, 1005, 515, 1403, 516
1494, 718, 887, 1257, 1276
1495, 708, 1276, 706, 845
1496, 1117, 556, 555, 1000
1497, 739, 848, 740, 741
1498, 854, 853, 1143, 855
1499, 1483, 297, 322, 321
1500, 849, 852, 302, 850
1501, 793, 1259, 1143, 927
1502, 854, 855, 1143, 790
1503, 1259, 1174, 1138, 1329
1504, 1174, 903, 861, 1259
1505, 1187, 1174, 903, 861
1506, 796, 1259, 927, 903
1507, 1259, 855, 1174, 1329
1508, 1259, 1174, 855, 861
1509, 1074, 1150, 756, 1144
1510, 1077, 680, 1098, 679
1511, 1077, 1097, 1095, 1098
1512, 1077, 1489, 1295, 1076
1513, 1074, 672, 1077, 1076
1514, 1077, 1489, 1076, 679
1515, 1077, 754, 1097, 1144
1516, 1005, 1403, 1004, 516
1517, 1133, 920, 806, 1181
1518, 1059, 1088, 1062, 911
1519, 1059, 1015, 1061, 1060
1520, 1356, 1469, 425, 424
1521, 1016, 1356, 1014, 1060
1522, 1356, 1468, 451, 1014
1523, 450, 1356, 475, 451
1524, 1016, 1182, 1355, 1184
1525, 1060, 1468, 1014, 1308
1526, 1060, 1061, 1468, 1308
1527, 1490, 65, 64, 702
1528, 755, 1438, 1490, 1440
1529, 1490, 1078, 664, 666
1530, 665, 1491, 64, 1490
1531, 1490, 1078, 666, 1216
1532, 1490, 1078, 1216, 753
1533, 1037, 914, 915, 1309
1534, 1039, 1206, 1309, 526
1535, 1388, 550, 1418, 1303
1536, 879, 998, 1004, 997
1537, 1039, 1206, 526, 1303
1538, 782, 1039, 915, 1389
1539, 642, 3, 1313, 656
1540, 837, 1349, 993, 841
1541, 743, 750, 756, 746
1542, 1112, 658, 1111, 662
1543, 990, 1315, 747, 1349
1544, 990, 1349, 747, 751
1545, 838, 842, 817, 841
1546, 750, 752, 818, 838
1547, 1395, 1379, 975, 1072
1548, 750, 751, 990, 748
1549, 1403, 1003, 1004, 1193
1550, 1033, 367, 1166, 1266
1551, 1135, 830, 1335, 1306
1552, 942, 1278, 1233, 810
1553, 812, 1033, 1278, 1266
1554, 894, 947, 761, 946
1555, 892, 848, 1258, 1087
1556, 866, 900, 867, 940
1557, 887, 1258, 1257, 1156
1558, 886, 888, 889, 1358
1559, 886, 949, 1156, 1331
1560, 1143, 926, 791, 927
1561, 708, 1358, 845, 888
1562, 894, 949, 761, 947
1563, 1003, 1005, 1403, 1004
1564, 1100, 1102, 1104, 565
1565, 1101, 1102, 1492, 1436
1566, 858, 540, 1104, 857
1567, 879, 881, 836, 835
1568, 833, 834, 842, 907
1569, 1104, 858, 1436, 1102
1570, 1403, 882, 1003, 1109
1571, 1015, 1014, 1338, 1061
1572, 1128, 1218, 910, 1317
1573, 832, 1158, 1135, 1340
1574, 832, 1132, 831, 1131
1575, 1218, 910, 1317, 1108
1576, 1123, 1130, 1196, 1125
1577, 1317, 1196, 1125, 1218
1578, 402, 403, 924, 1493
1579, 1283, 976, 1226, 931
1580, 1283, 1226, 976, 977
1581, 1283, 1284, 1023, 929
1582, 1318, 1023, 1020, 1381
1583, 1379, 1494, 1283, 1023
1584, 1494, 931, 1283, 1023
1585, 1070, 1066, 397, 1210
1586, 887, 1276, 1358, 1257
1587, 1243, 1263, 845, 938
1588, 925, 1466, 1260, 1495
1589, 885, 933, 888, 936
1590, 793, 1259, 796, 794
1591, 740, 797, 792, 791
1592, 847, 1221, 938, 1248
1593, 944, 742, 796, 1221
1594, 729, 806, 922, 728
1595, 1125, 1317, 1128, 1130
1596, 1017, 765, 1337, 1011
1597, 1115, 1336, 1340, 1136
1598, 1469, 1016, 1182, 1356
1599, 1058, 734, 978, 1036
1600, 736, 774, 764, 778
1601, 1006, 1066, 806, 1067
1602, 1011, 1182, 424, 1469
1603, 1182, 1185, 424, 423
1604, 1011, 1469, 1016, 1182
1605, 1356, 1469, 450, 425
1606, 1356, 1355, 1182, 449
1607, 808, 922, 925, 728
1608, 1009, 376, 375, 351
1609, 1469, 1011, 1337, 426
1610, 153, 1, 4, 95
1611, 757, 624, 1444, 1298
1612, 757, 625, 1444, 624
1613, 757, 720, 1448, 1444
1614, 1444, 720, 625, 757
1615, 626, 1444, 720, 625
1616, 844, 737, 1254, 847
1617, 1496, 150, 149, 7
1618, 1497, 173, 148, 149
1619, 1469, 1337, 451, 426
1620, 954, 740, 952, 792
1621, 1267, 176, 200, 175
1622, 1498, 135, 134, 90
1623, 1085, 1251, 1252, 1220
1624, 1170, 1191, 741, 1169
1625, 98, 84, 1430, 14
1626, 717, 1499, 1257, 1190
1627, 132, 91, 24, 25
1628, 1069, 778, 1006, 1011
1629, 1441, 289, 264, 265
1630, 717, 715, 716, 1362
1631, 1168, 1370, 1371, 1173
1632, 570, 595, 1312, 1083
1633, 1359, 1453, 1155, 1415
1634, 795, 1188, 1191, 184
1635, 1500, 180, 204, 179
1636, 151, 5, 6, 96
1637, 717, 1362, 1501, 1227
1638, 795, 1247, 1191, 1188
1639, 892, 947, 946, 1247
1640, 793, 791, 742, 927
1641, 1143, 927, 900, 926
1642, 708, 848, 718, 887
1643, 708, 938, 742, 932
1644, 140, 86, 1431, 141
1645, 708, 707, 706, 1276
1646, 789, 1141, 791, 790
1647, 928, 791, 927, 742
1648, 927, 899, 944, 903
1649, 1472, 1277, 1473, 706
1650, 1434, 386, 361, 362
1651, 740, 797, 742, 1085
1652, 1276, 1502, 1257, 1503
1653, 1276, 707, 1471, 1503
1654, 277, 890, 278, 253
1655, 457, 456, 481, 1464
1656, 1455, 1454, 1312, 1424
1657, 1227, 184, 183, 159
1658, 1276, 1472, 1358, 1502
1659, 729, 803, 806, 1006
1660, 1051, 808, 1118, 730
1661, 322, 1483, 1482, 297
1662, 468, 1194, 1192, 443
1663, 1055, 1213, 1057, 1056
1664, 729, 807, 808, 922
1665, 1504, 523, 548, 547
1666, 1036, 1058, 1229, 1049
1667, 1035, 1055, 1052, 1057
1668, 424, 1011, 400, 1013
1669, 1102, 1103, 591, 566
1670, 1371, 156, 1505, 1506
1671, 1335, 452, 1338, 427
1672, 1180, 1456, 472, 473
1673, 734, 979, 811, 980
1674, 808, 728, 925, 1118
1675, 774, 778, 775, 765
1676, 773, 1507, 37, 771
1677, 1133, 807, 920, 1184
1678, 810, 728, 730, 1118
1679, 832, 1088, 824, 1132
1680, 924, 775, 765, 772
1681, 1217, 1192, 877, 1402
1682, 1193, 466, 1194, 467
1683, 1508, 923, 444, 443
1684, 1194, 1193, 1107, 1192
1685, 763, 494, 518, 493
1686, 1425, 546, 521, 522
1687, 1185, 423, 399, 424
1688, 1279, 318, 342, 317
1689, 1508, 1402, 1192, 1107
1690, 1126, 726, 358, 357
1691, 923, 443, 1508, 1192
1692, 1442, 166, 1385, 191
1693, 1509, 488, 512, 487
1694, 1510, 1375, 296, 295
1695, 1237, 1511, 914, 1309
1696, 1192, 1194, 468, 1107
1697, 483, 1289, 1475, 482
1698, 493, 1346, 468, 1107
1699, 513, 488, 512, 1509
1700, 1346, 468, 1107, 1508
1701, 844, 847, 1251, 1085
1702, 1426, 486, 485, 461
1703, 713, 1345, 710, 1342
1704, 1004, 542, 518, 543
1705, 711, 710, 712, 1359
1706, 713, 1348, 716, 1345
1707, 1440, 668, 669, 693
1708, 1028, 320, 345, 344
1709, 1435, 292, 316, 291
1710, 993, 1082, 1083, 1081
1711, 923, 1512, 419, 921
1712, 843, 841, 993, 995
1713, 834, 836, 837, 1089
1714, 847, 1085, 1221, 1251
1715, 1513, 360, 1046, 384
1716, 952, 961, 1145, 960
1717, 960, 1326, 1398, 1253
1718, 1403, 491, 516, 515
1719, 960, 1255, 1398, 1514
1720, 960, 956, 1255, 1514
1721, 960, 1326, 1369, 1398
1722, 1205, 524, 499, 500
1723, 952, 960, 957, 956
1724, 1484, 514, 513, 489
1725, 959, 957, 960, 1369
1726, 1029, 1027, 1033, 1278
1727, 802, 732, 1233, 1067
1728, 1182, 449, 448, 424
1729, 798, 801, 731, 800
1730, 723, 980, 1064, 969
1731, 1030, 445, 470, 469
1732, 964, 963, 335, 1045
1733, 582, 1515, 931, 581
1734, 1516, 464, 439, 440
1735, 1278, 1027, 942, 1029
1736, 1517, 462, 1518, 487
1737, 1153, 819, 814, 815
1738, 1225, 1153, 687, 1519
1739, 1225, 1223, 2, 77
1740, 1225, 48, 1012, 1224
1741, 3, 74, 1387, 688
1742, 48, 604, 1224, 1225
1743, 2, 48, 1223, 1225
1744, 833, 843, 841, 993
1745, 641, 656, 1106, 657
1746, 1271, 590, 591, 615
1747, 1520, 384, 1412, 409
1748, 1439, 67, 610, 611
1749, 1463, 60, 617, 618
1750, 1072, 754, 755, 752
1751, 1316, 1474, 1321, 1319
1752, 818, 1288, 817, 1212
1753, 1489, 1439, 703, 67
1754, 843, 788, 1455, 1419
1755, 1461, 1467, 617, 1463
1756, 747, 1463, 1114, 1467
1757, 488, 1518, 1509, 1484
1758, 750, 820, 814, 746
1759, 1308, 477, 501, 476
1760, 1475, 1464, 457, 482
1761, 1462, 61, 62, 616
1762, 754, 1121, 1073, 1072
1763, 1521, 148, 147, 9
1764, 1522, 119, 79, 111
1765, 1050, 1161, 1126, 1127
1766, 721, 723, 980, 1064
1767, 981, 939, 1201, 901
1768, 1044, 776, 726, 1127
1769, 1048, 1044, 1045, 1046
1770, 733, 780, 1050, 779
1771, 939, 777, 731, 800
1772, 1135, 1336, 1488, 1335
1773, 1131, 1230, 1340, 1229
1774, 779, 733, 764, 736
1775, 1451, 170, 145, 146
1776, 1035, 808, 1051, 730
1777, 733, 1050, 1036, 1115
1778, 1034, 1115, 1340, 1136
1779, 1034, 1131, 1340, 1229
1780, 973, 1055, 1118, 730
1781, 1223, 1222, 819, 1448
1782, 1523, 148, 8, 149
1783, 1154, 1223, 1524, 1012
1784, 1012, 1154, 720, 1524
1785, 1223, 1222, 630, 77
1786, 1223, 1012, 628, 1524
1787, 1223, 48, 49, 628
1788, 1525, 116, 1526, 126
1789, 1523, 78, 8, 79
1790, 2, 48, 49, 1223
1791, 1223, 629, 1524, 49
1792, 820, 745, 1106, 746
1793, 987, 989, 988, 748
1794, 1496, 8, 7, 149
1795, 988, 1323, 1445, 1105
1796, 988, 1339, 1323, 1105
1797, 745, 1105, 1314, 1315
1798, 988, 748, 1105, 1445
1799, 744, 1078, 662, 674
1800, 593, 1082, 568, 592
1801, 1522, 1447, 97, 1521
1802, 1066, 1013, 1185, 399
1803, 990, 748, 747, 1315
1804, 1527, 103, 94, 102
1805, 1463, 747, 1084, 1461
1806, 744, 1075, 746, 756
1807, 1110, 1113, 1111, 660
1808, 145, 1451, 1449, 144
1809, 1112, 662, 1216, 663
1810, 143, 1383, 1478, 142
1811, 654, 1112, 1110, 1114
1812, 1112, 663, 1114, 654
1813, 1301, 524, 1528, 1303
1814, 1529, 166, 165, 141
1815, 1301, 524, 1303, 549
1816, 1514, 124, 107, 119
1817, 902, 801, 802, 1479
1818, 904, 1481, 851, 897
1819, 1217, 1108, 1192, 1402
1820, 1452, 111, 105, 128
1821, 724, 942, 809, 731
1822, 1219, 1326, 1530, 839
1823, 1446, 640, 642, 643
1824, 894, 951, 950, 761
1825, 1219, 1530, 1326, 1253
1826, 139, 17, 18, 87
1827, 1219, 1148, 1172, 953
1828, 839, 121, 120, 115
1829, 738, 1145, 1253, 1326
1830, 797, 961, 1220, 1085
1831, 1292, 31, 30, 154
1832, 848, 741, 1258, 1087
1833, 714, 715, 717, 718
1834, 1421, 172, 1269, 197
1835, 1018, 534, 1021, 1023
1836, 909, 912, 824, 910
1837, 1478, 85, 86, 109
1838, 1318, 1092, 912, 1020
1839, 1021, 1020, 1381, 1378
1840, 781, 785, 833, 907
1841, 1416, 128, 105, 117
1842, 15, 1478, 141, 142
1843, 1020, 1393, 1026, 1022
1844, 1018, 1026, 1025, 1022
1845, 1185, 1013, 424, 399
1846, 1318, 1381, 1020, 1378
1847, 838, 1089, 837, 751
1848, 884, 994, 993, 880
1849, 1342, 164, 163, 139
1850, 1023, 1092, 1284, 1283
1851, 1101, 1436, 1089, 1090
1852, 1206, 1303, 525, 526
1853, 939, 941, 721, 868
1854, 1531, 1529, 1443, 165
1855, 139, 18, 1341, 87
1856, 1109, 1195, 1193, 1403
1857, 1017, 804, 1136, 1336
1858, 1015, 830, 1061, 1338
1859, 803, 1017, 1015, 1014
1860, 1017, 830, 1338, 1335
1861, 1525, 122, 116, 125
1862, 1015, 1014, 1017, 1338
1863, 1478, 112, 85, 109
1864, 832, 1158, 1230, 825
1865, 1034, 1058, 1057, 1123
1866, 1155, 116, 122, 109
1867, 84, 1430, 1453, 98
1868, 1431, 109, 86, 87
1869, 733, 736, 779, 1115
1870, 140, 86, 16, 17
1871, 1015, 1136, 1088, 830
1872, 1478, 112, 98, 85
1873, 1017, 1135, 1336, 1136
1874, 717, 1499, 1532, 1373
1875, 1430, 82, 13, 84
1876, 1158, 1135, 827, 832
1877, 1026, 1289, 482, 507
1878, 1026, 1289, 483, 482
1879, 1382, 1019, 1020, 1026
1880, 15, 141, 1478, 16
1881, 1361, 1342, 1431, 1529
1882, 1227, 160, 185, 184
1883, 1026, 1289, 507, 1025
1884, 1026, 1393, 1475, 1289
1885, 1018, 1023, 1022, 1025
1886, 1431, 109, 87, 106
1887, 1018, 1026, 1019, 509
1888, 1341, 99, 106, 87
1889, 1223, 1533, 629, 632
1890, 1534, 160, 135, 136
1891, 992, 640, 691, 1222
1892, 1204, 501, 1308, 502
1893, 1222, 1448, 632, 691
1894, 1225, 1223, 1153, 1012
1895, 1222, 640, 691, 75
1896, 1222, 76, 1152, 75
1897, 1222, 77, 1153, 76
1898, 402, 1493, 924, 401
1899, 134, 23, 100, 90
1900, 153, 152, 1406, 1405
1901, 1242, 244, 219, 220
1902, 1173, 1505, 1535, 1506
1903, 1493, 1335, 428, 766
1904, 765, 924, 766, 1493
1905, 1493, 765, 1335, 766
1906, 1493, 427, 1335, 1337
1907, 1455, 884, 996, 1002
1908, 1082, 993, 994, 880
1909, 997, 1002, 994, 544
1910, 570, 1002, 569, 1083
1911, 130, 129, 101, 27
1912, 1312, 1083, 1002, 570
1913, 1084, 594, 1082, 1083
1914, 821, 1306, 827, 829
1915, 994, 544, 1002, 569
1916, 1237, 1308, 503, 502
1917, 813, 92, 93, 110
1918, 1505, 180, 155, 156
1919, 1536, 92, 110, 91
1920, 657, 1106, 1445, 649
1921, 1372, 134, 1498, 159
1922, 1368, 102, 120, 103
1923, 1537, 174, 149, 150
1924, 88, 1538, 20, 1341
1925, 1397, 1369, 1539, 108
1926, 1405, 108, 102, 83
1927, 824, 1132, 911, 910
1928, 1341, 18, 138, 19
1929, 131, 25, 26, 92
1930, 29, 94, 28, 1
1931, 130, 26, 27, 93
1932, 1341, 1538, 20, 137
1933, 840, 114, 110, 103
1934, 1341, 1344, 106, 88
1935, 1369, 102, 115, 120
1936, 1538, 1341, 1332, 137
1937, 881, 910, 1108, 1317
1938, 909, 911, 824, 914
1939, 821, 826, 825, 831
1940, 813, 131, 130, 93
1941, 1540, 114, 104, 110
1942, 1217, 910, 1218, 1108
1943, 912, 913, 1393, 1022
1944, 912, 1022, 1284, 913
1945, 1037, 1039, 1038, 1206
1946, 1405, 102, 95, 83
1947, 909, 1284, 1286, 913
1948, 94, 1527, 129, 101
1949, 1410, 175, 150, 151
1950, 997, 996, 519, 763
1951, 1527, 101, 94, 103
1952, 1527, 94, 95, 102
1953, 120, 1148, 103, 840
1954, 990, 1339, 1315, 1349
1955, 29, 95, 94, 1
1956, 783, 1299, 841, 1304
1957, 833, 835, 843, 993
1958, 785, 1317, 1351, 910
1959, 750, 1154, 987, 817
1960, 837, 993, 1349, 1081
1961, 1496, 80, 6, 7
1962, 781, 782, 786, 907
1963, 153, 4, 83, 95
1964, 1369, 102, 108, 115
1965, 822, 914, 1237, 1236
1966, 834, 1320, 1090, 1089
1967, 1397, 108, 107, 115
1968, 969, 1264, 971, 968
1969, 812, 941, 1064, 723
1970, 972, 980, 968, 1264
1971, 1264, 972, 338, 363
1972, 1264, 971, 365, 1266
1973, 1264, 1064, 969, 1265
1974, 107, 124, 1514, 1397
1975, 1404, 1140, 955, 177
1976, 1264, 1266, 365, 1065
1977, 734, 1036, 733, 811
1978, 1521, 10, 79, 9
1979, 1521, 97, 79, 10
1980, 981, 986, 901, 1201
1981, 145, 12, 81, 11
1982, 1478, 16, 85, 15
1983, 896, 904, 851, 897
1984, 1523, 1497, 148, 149
1985, 1452, 1514, 119, 124
1986, 939, 721, 941, 809
1987, 862, 871, 868, 873
1988, 1397, 108, 80, 107
1989, 764, 773, 776, 780
1990, 1332, 162, 137, 138
1991, 764, 766, 765, 772
1992, 606, 1293, 581, 1294
1993, 1532, 161, 185, 160
1994, 1293, 581, 1294, 1515
1995, 1515, 582, 976, 1293
1996, 1341, 19, 88, 99
1997, 1344, 113, 88, 89
1998, 1155, 106, 116, 109
1999, 16, 141, 1478, 86
2000, 1515, 1541, 580, 1294
2001, 1515, 1541, 1117, 580
2002, 1515, 556, 1117, 1116
2003, 1515, 931, 1226, 976
2004, 934, 943, 871, 935
2005, 1281, 943, 936, 935
2006, 1277, 1542, 1472, 240
2007, 1199, 1163, 950, 892
2008, 1543, 1024, 1544, 1534
2009, 708, 1276, 718, 707
2010, 981, 939, 901, 800
2011, 981, 982, 985, 1201
2012, 898, 902, 801, 800
2013, 1175, 249, 248, 224
2014, 900, 901, 940, 899
2015, 900, 901, 986, 1201
2016, 1531, 190, 189, 165
2017, 1197, 900, 986, 1201
2018, 1201, 985, 1545, 1546
2019, 981, 898, 901, 986
2020, 1197, 1202, 986, 1198
2021, 986, 1201, 1547, 1202
2022, 1201, 1163, 867, 1546
2023, 983, 1047, 726, 984
2024, 983, 726, 776, 984
2025, 1353, 727, 726, 332
2026, 548, 1528, 523, 1504
2027, 980, 723, 721, 811
2028, 1496, 1539, 151, 80
2029, 1285, 1477, 1505, 180
2030, 1301, 1302, 548, 573
2031, 152, 96, 83, 5
2032, 1493, 766, 428, 403
2033, 776, 780, 1354, 1126
2034, 358, 1126, 1127, 726
2035, 726, 358, 1513, 1127
2036, 1251, 1420, 1421, 1548
2037, 1431, 1345, 1155, 106
2038, 1449, 82, 105, 81
2039, 250, 1187, 861, 1174
2040, 1237, 1308, 478, 503
2041, 1187, 1174, 250, 249
2042, 1430, 84, 105, 82
2043, 1187, 248, 1164, 249
2044, 273, 248, 1186, 1187
2045, 1482, 1480, 274, 1187
2046, 1482, 1187, 903, 1480
2047, 105, 1430, 1453, 84
2048, 1204, 476, 1308, 501
2049, 1187, 1480, 861, 903
2050, 865, 283, 951, 1330
2051, 862, 865, 951, 878
2052, 310, 878, 1330, 863
2053, 112, 98, 1453, 1478
2054, 1383, 166, 141, 142
2055, 1549, 193, 1487, 1386
2056, 1330, 308, 865, 283
2057, 863, 1330, 1476, 865
2058, 948, 285, 1330, 284
2059, 1539, 96, 108, 83
2060, 1496, 80, 151, 6
2061, 1330, 863, 878, 865
2062, 1330, 308, 1476, 865
2063, 1539, 96, 80, 108
2064, 1244, 1245, 243, 1243
2065, 1244, 1542, 1441, 933
2066, 1530, 115, 127, 121
2067, 1244, 1435, 1441, 291
2068, 1280, 1245, 294, 293
2069, 1142, 253, 33, 890
2070, 1244, 1245, 936, 1281
2071, 1244, 292, 1281, 1435
2072, 266, 1244, 1542, 1441
2073, 1453, 122, 117, 112
2074, 1550, 1373, 1257, 1503
2075, 1550, 1257, 1190, 1156
2076, 1550, 1257, 1156, 1502
2077, 1341, 19, 99, 18
2078, 1341, 99, 88, 106
2079, 1036, 1127, 1401, 1230
2080, 1550, 1156, 237, 1502
2081, 1550, 237, 1156, 236
2082, 1383, 168, 167, 143
2083, 1079, 791, 789, 1080
2084, 1345, 113, 116, 106
2085, 952, 1140, 958, 955
2086, 1137, 958, 227, 794
2087, 1344, 106, 88, 113
2088, 952, 792, 958, 954
2089, 1538, 20, 89, 88
2090, 959, 953, 1146, 1148
2091, 952, 1145, 953, 960
2092, 1079, 1146, 953, 741
2093, 830, 1338, 1335, 1306
2094, 1453, 1427, 1416, 1359
2095, 1506, 156, 131, 132
2096, 1544, 89, 21, 90
2097, 714, 737, 709, 711
2098, 1429, 1360, 1390, 1391
2099, 1109, 1108, 1217, 1218
2100, 1535, 154, 129, 130
2101, 1551, 1220, 1421, 1251
2102, 1220, 1421, 1251, 1252
2103, 1252, 1269, 1220, 1421
2104, 961, 1269, 1252, 1422
2105, 1338, 451, 1014, 1337
2106, 91, 1540, 104, 110
2107, 134, 1498, 90, 100
2108, 1254, 1256, 1252, 1450
2109, 738, 1219, 1326, 1253
2110, 844, 1252, 1254, 1256
2111, 1291, 1364, 228, 32
2112, 739, 715, 718, 741
2113, 854, 1198, 850, 1322
2114, 849, 276, 861, 855
2115, 129, 27, 28, 101
2116, 850, 1322, 303, 278
2117, 849, 855, 277, 276
2118, 1329, 250, 225, 226
2119, 1411, 107, 80, 78
2120, 834, 860, 881, 836
2121, 925, 1466, 418, 1260
2122, 1552, 100, 91, 104
2123, 1284, 913, 1290, 1286
2124, 1284, 1290, 913, 1022
2125, 1528, 1206, 525, 1205
2126, 782, 1039, 786, 915
2127, 906, 905, 908, 1288
2128, 1282, 1553, 1117, 1541
2129, 783, 843, 788, 1304
2130, 753, 1438, 1554, 1491
2131, 1037, 1039, 1309, 915
2132, 1517, 1426, 1129, 461
2133, 1316, 1394, 1130, 1509
2134, 1394, 1130, 1509, 1517
2135, 1484, 1130, 1518, 1509
2136, 1130, 1518, 1509, 1517
2137, 1555, 121, 125, 126
2138, 1536, 1506, 92, 131
2139, 1517, 1556, 1130, 1518
2140, 89, 1543, 113, 118
2141, 1024, 123, 118, 104
2142, 1517, 1394, 1129, 1426
2143, 854, 850, 278, 1322
2144, 1555, 121, 127, 125
2145, 1415, 117, 122, 125
2146, 1394, 1509, 487, 1517
2147, 487, 1394, 512, 1509
2148, 1526, 123, 126, 116
2149, 1333, 187, 162, 163
2150, 1101, 880, 993, 1081
2151, 994, 880, 568, 1082
2152, 784, 787, 1419, 781
2153, 1003, 997, 1004, 763
2154, 1139, 1267, 955, 201
2155, 1548, 197, 221, 196
2156, 124, 115, 1397, 107
2157, 860, 785, 881, 1317
2158, 1101, 1089, 836, 1090
2159, 1530, 127, 1555, 121
2160, 1496, 149, 1523, 8
2161, 1255, 1522, 1514, 1497
2162, 1525, 126, 125, 116
2163, 880, 1081, 1103, 1082
2164, 1400, 597, 1399, 1327
2165, 1498, 160, 159, 135
2166, 1299, 1400, 758, 989
2167, 758, 1300, 599, 1400
2168, 1400, 624, 758, 1298
2169, 1373, 212, 211, 187
2170, 1400, 1399, 597, 622
2171, 1139, 225, 224, 200
2172, 1416, 127, 128, 117
2173, 1268, 175, 199, 174
2174, 988, 1296, 1400, 1298
2175, 1399, 1296, 55, 1400
2176, 146, 11, 97, 10
2177, 1420, 197, 196, 172
2178, 1365, 1147, 1149, 1292
2179, 954, 1365, 1291, 1367
2180, 1365, 1147, 1292, 1367
2181, 954, 1140, 1147, 1367
2182, 1406, 178, 153, 29
2183, 792, 1137, 790, 794
2184, 813, 1527, 101, 130
2185, 1529, 1443, 165, 166
2186, 1535, 155, 130, 131
2187, 790, 791, 792, 793
2188, 724, 810, 1027, 942
2189, 968, 723, 969, 980
2190, 1149, 1368, 1527, 1405
2191, 29, 1527, 129, 94
2192, 755, 1438, 1440, 1437
2193, 763, 1402, 996, 1557
2194, 131, 130, 93, 26
2195, 1404, 177, 176, 152
2196, 1064, 1265, 1031, 1065
2197, 1536, 133, 132, 91
2198, 944, 937, 1248, 945
2199, 132, 25, 131, 92
2200, 1291, 32, 228, 31
2201, 1536, 132, 131, 92
2202, 1482, 904, 903, 945
2203, 945, 1248, 1183, 1374
2204, 1372, 133, 1552, 134
2205, 944, 903, 1186, 1164
2206, 1558, 114, 121, 126
2207, 952, 1145, 740, 953
2208, 133, 23, 24, 100
2209, 792, 796, 1138, 794
2210, 1219, 715, 714, 738
2211, 1362, 1171, 1024, 1370
2212, 1075, 677, 1078, 674
2213, 1024, 1370, 1552, 1362
2214, 1170, 1228, 1370, 1372
2215, 1362, 1370, 1552, 1372
2216, 133, 132, 91, 24
2217, 322, 1479, 1510, 1559
2218, 1479, 1068, 1235, 1486
2219, 1498, 159, 134, 135
2220, 134, 23, 90, 22
2221, 1535, 156, 155, 131
2222, 839, 120, 1369, 115
2223, 1068, 1235, 1560, 1479
2224, 1341, 139, 1342, 138
2225, 1283, 1494, 977, 976
2226, 1558, 123, 114, 126
2227, 134, 133, 100, 23
2228, 1544, 22, 90, 21
2229, 1552, 134, 133, 100
2230, 1544, 118, 89, 90
2231, 904, 801, 1479, 1481
2232, 859, 1509, 1130, 1484
2233, 834, 1092, 1318, 1320
2234, 135, 134, 90, 22
2235, 1538, 89, 20, 21
2236, 882, 859, 1005, 879
2237, 859, 1130, 1316, 1317
2238, 1544, 136, 135, 21
2239, 1544, 1534, 135, 136
2240, 717, 1373, 1257, 1499
2241, 20, 1341, 19, 88
2242, 1334, 161, 136, 137
2243, 1484, 1509, 514, 857
2244, 860, 1316, 859, 1321
2245, 857, 1509, 514, 1321
2246, 1341, 1538, 1344, 88
2247, 1009, 1432, 375, 1134
2248, 1209, 897, 1009, 1008
2249, 755, 1437, 1439, 1295
2250, 1538, 137, 136, 20
2251, 774, 1009, 897, 1008
2252, 1538, 1334, 136, 137
2253, 1282, 1284, 1283, 929
2254, 1478, 15, 85, 98
2255, 1439, 1076, 671, 693
2256, 1439, 1440, 693, 66
2257, 18, 1341, 87, 99
2258, 1342, 164, 139, 140
2259, 1372, 1228, 1371, 157
2260, 1439, 1489, 1295, 67
2261, 1332, 1342, 163, 138
2262, 1291, 31, 179, 32
2263, 1439, 1489, 671, 1076
2264, 755, 1439, 1440, 1076
2265, 713, 1361, 1086, 1342
2266, 1453, 117, 105, 112
2267, 1332, 163, 162, 138
2268, 1561, 188, 163, 164
2269, 1361, 710, 1155, 1342
2270, 860, 1317, 881, 859
2271, 711, 1273, 1361, 1360
2272, 1538, 1344, 1544, 1534
2273, 711, 1360, 710, 1359
2274, 144, 13, 82, 12
2275, 141, 140, 86, 16
2276, 14, 84, 1430, 13
2277, 137, 1341, 19, 20
2278, 1360, 710, 1359, 1155
2279, 1383, 167, 142, 143
2280, 1155, 1342, 1431, 1361
2281, 1476, 310, 334, 309
2282, 1222, 1152, 819, 992
2283, 1223, 1154, 1448, 819
2284, 1443, 190, 165, 166
2285, 1428, 1549, 1386, 168
2286, 1452, 111, 128, 124
2287, 1448, 1223, 1524, 1154
2288, 1223, 1448, 632, 1222
2289, 815, 1012, 1154, 768
2290, 815, 1288, 818, 1226
2291, 143, 14, 142, 98
2292, 1301, 1418, 574, 549
2293, 1487, 219, 218, 194
2294, 1502, 239, 238, 214
2295, 1529, 165, 140, 141
2296, 788, 1419, 1424, 1455
2297, 833, 993, 836, 835
2298, 1540, 1024, 1552, 104
2299, 1449, 105, 111, 81
2300, 145, 144, 82, 12
2301, 1473, 1471, 189, 214
2302, 13, 14, 143, 1430
2303, 1451, 170, 169, 145
2304, 1358, 1472, 1542, 1502
2305, 784, 1388, 1303, 1039
2306, 1043, 1301, 574, 573
2307, 97, 1522, 79, 111
2308, 1497, 174, 1537, 1268
2309, 1538, 1544, 21, 136
2310, 1454, 1300, 1043, 1304
2311, 1304, 1454, 788, 1043
2312, 774, 771, 1507, 773
2313, 752, 751, 753, 1089
2314, 146, 145, 81, 11
2315, 1452, 124, 119, 111
2316, 753, 1437, 1072, 1554
2317, 1398, 124, 128, 127
2318, 755, 1440, 1490, 1078
2319, 147, 10, 146, 97
2320, 1447, 147, 146, 97
2321, 750, 748, 987, 820
2322, 1490, 753, 1491, 1438
2323, 1523, 9, 79, 8
2324, 1149, 30, 29, 129
2325, 1450, 1420, 171, 1562
2326, 904, 902, 1479, 801
2327, 124, 127, 1398, 115
2328, 1111, 1387, 673, 659
2329, 1050, 779, 780, 1336
2330, 777, 981, 773, 800
2331, 1539, 152, 151, 96
2332, 1496, 80, 7, 78
2333, 1291, 1366, 179, 1292
2334, 1404, 176, 151, 152
2335, 205, 230, 206, 1396
2336, 1044, 1050, 776, 1127
2337, 780, 1158, 1162, 1161
2338, 1506, 157, 156, 132
2339, 152, 5, 151, 96
2340, 955, 202, 201, 177
2341, 780, 767, 1485, 1162
2342, 780, 773, 1563, 1485
2343, 1406, 177, 152, 153
2344, 1050, 1336, 780, 1158
2345, 1301, 1528, 1504, 1038
2346, 1504, 1564, 1419, 875
2347, 153, 95, 29, 1
2348, 153, 152, 83, 4
2349, 1419, 1504, 1302, 1425
2350, 840, 813, 1527, 103
2351, 839, 121, 114, 120
2352, 1538, 136, 21, 20
2353, 1477, 179, 154, 155
2354, 1400, 1299, 758, 1300
2355, 1282, 1116, 1283, 1226
2356, 572, 1454, 597, 1300
2357, 1277, 240, 215, 216
2358, 1149, 154, 30, 129
2359, 937, 1241, 938, 1248
2360, 1300, 1302, 573, 572
2361, 1366, 1292, 154, 179
2362, 1535, 155, 154, 130
2363, 1310, 1364, 1565, 1142
2364, 1282, 929, 1116, 1287
2365, 597, 1454, 1327, 1300
2366, 1043, 1454, 788, 1302
2367, 1371, 181, 156, 157
2368, 1566, 759, 231, 232
2369, 1318, 1351, 1020, 912
2370, 1477, 180, 179, 155
2371, 1228, 182, 157, 158
2372, 1369, 108, 1405, 1539
2373, 1301, 1038, 1303, 1528
2374, 1165, 223, 248, 247
2375, 1504, 875, 1038, 1528
2376, 1504, 1528, 498, 875
2377, 1419, 1564, 996, 876
2378, 1037, 1309, 1039, 1206
2379, 1227, 184, 159, 160
2380, 712, 710, 1525, 1359
2381, 1301, 1504, 1302, 1419
2382, 1372, 158, 133, 134
2383, 787, 1038, 1419, 876
2384, 1372, 157, 132, 133
2385, 1540, 104, 114, 123
2386, 1567, 222, 246, 221
2387, 790, 252, 228, 253
2388, 1302, 1425, 1424, 1419
2389, 788, 1424, 1419, 1302
2390, 1204, 1205, 500, 1206
2391, 1037, 1206, 1205, 1204
2392, 1205, 1038, 1528, 1206
2393, 1372, 158, 157, 133
2394, 130, 1527, 101, 129
2395, 1205, 1038, 875, 1528
2396, 1205, 1468, 475, 474
2397, 1147, 1367, 1406, 1292
2398, 1372, 159, 158, 134
2399, 1188, 207, 182, 183
2400, 1498, 1552, 100, 134
2401, 1227, 183, 158, 159
2402, 1205, 1528, 524, 525
2403, 1205, 1468, 500, 475
2404, 1205, 1528, 499, 524
2405, 1410, 1411, 1496, 1537
2406, 1534, 1334, 161, 136
2407, 1543, 118, 123, 113
2408, 1538, 1544, 136, 1534
2409, 707, 1561, 1471, 1503
2410, 1534, 161, 160, 136
2411, 875, 1419, 876, 1564
2412, 909, 906, 915, 1286
2413, 843, 1455, 835, 996
2414, 1428, 168, 143, 144
2415, 1526, 116, 113, 123
2416, 1239, 1240, 255, 256
2417, 1205, 875, 1038, 874
2418, 1561, 189, 188, 164
2419, 1037, 1205, 1038, 874
2420, 1109, 1119, 1052, 1194
2421, 1334, 162, 161, 137
2422, 1165, 223, 247, 222
2423, 1333, 162, 186, 161
2424, 1342, 140, 1529, 165
2425, 204, 33, 1565, 32
2426, 1496, 1523, 1497, 1411
2427, 468, 1508, 1192, 1107
2428, 1188, 208, 207, 183
2429, 956, 1497, 1411, 1537
2430, 491, 492, 1403, 516
2431, 1109, 1052, 1119, 1057
2432, 1052, 1063, 1217, 918
2433, 1394, 1474, 511, 512
2434, 1568, 194, 169, 170
2435, 1382, 1020, 1019, 1378
2436, 1382, 1128, 1317, 1130
2437, 1496, 150, 7, 6
2438, 1496, 78, 1411, 80
2439, 1415, 127, 117, 125
2440, 1473, 214, 189, 190
2441, 1496, 8, 1523, 78
2442, 484, 1382, 1426, 1343
2443, 1394, 1378, 1474, 1316
2444, 1383, 167, 166, 142
2445, 1531, 165, 189, 164
2446, 1382, 1394, 1019, 1426
2447, 1019, 1394, 1378, 510
2448, 1394, 1474, 510, 511
2449, 975, 1395, 560, 1379
2450, 1071, 216, 191, 192
2451, 975, 1458, 586, 1395
2452, 1395, 1458, 586, 561
2453, 1361, 1529, 1431, 1384
2454, 1363, 1364, 1291, 204
2455, 1496, 7, 8, 78
2456, 1386, 1384, 1385, 1390
2457, 1395, 1460, 561, 560
2458, 1522, 1452, 1514, 119
2459, 1381, 1379, 559, 560
2460, 1052, 1034, 1088, 805
2461, 1179, 417, 1260, 442
2462, 1428, 169, 168, 144
2463, 1521, 1523, 79, 1522
2464, 1420, 172, 196, 171
2465, 1052, 1217, 1192, 918
2466, 925, 1118, 1260, 808
2467, 1451, 171, 170, 146
2468, 1449, 146, 145, 81
2469, 1119, 1516, 465, 1195
2470, 1235, 1560, 1479, 347
2471, 794, 251, 226, 227
2472, 1560, 372, 1210, 371
2473, 1560, 371, 1210, 1211
2474, 1560, 1559, 346, 1569
2475, 1479, 1569, 1560, 1068
2476, 1268, 198, 173, 174
2477, 1197, 926, 1141, 900
2478, 1562, 172, 171, 147
2479, 898, 986, 773, 1007
2480, 1523, 1522, 1497, 1411
2481, 1392, 196, 220, 195
2482, 852, 850, 1198, 1208
2483, 901, 940, 899, 1160
2484, 1566, 231, 230, 206
2485, 172, 1422, 173, 148
2486, 1410, 1404, 955, 176
2487, 1523, 78, 1522, 1411
2488, 1410, 1404, 176, 151
2489, 1270, 224, 223, 199
2490, 944, 1183, 1221, 1165
2491, 1200, 1141, 1197, 1199
2492, 1199, 1141, 1197, 926
2493, 1521, 79, 1523, 9
2494, 1497, 174, 173, 149
2495, 1537, 175, 174, 150
2496, 1163, 1203, 1200, 1240
2497, 1197, 1198, 853, 1141
2498, 1270, 199, 223, 198
2499, 854, 790, 891, 855
2500, 1143, 790, 855, 794
2501, 1428, 144, 1451, 169
2502, 852, 1208, 327, 302
2503, 1221, 1251, 1165, 1567
2504, 1410, 176, 175, 151
2505, 1139, 225, 200, 201
2506, 1109, 1119, 1194, 1195
2507, 1123, 1196, 1057, 1125
2508, 1406, 178, 177, 153
2509, 1196, 1123, 1213, 1556
2510, 1285, 206, 182, 207
2511, 1521, 172, 147, 148
2512, 1196, 1570, 1130, 1556
2513, 1196, 1130, 882, 1317
2514, 1274, 1272, 1390, 1071
2515, 813, 130, 101, 93
2516, 1088, 1132, 1218, 1062
2517, 955, 177, 201, 176
2518, 1406, 30, 178, 29
2519, 1149, 1366, 1292, 154
2520, 1140, 202, 177, 178
2521, 1109, 1052, 1217, 1192
2522, 314, 1571, 935, 1572
2523, 1571, 1572, 313, 966
2524, 1523, 79, 1522, 78
2525, 1265, 338, 1571, 339
2526, 1292, 179, 31, 154
2527, 722, 728, 810, 732
2528, 1047, 334, 358, 333
2529, 1571, 313, 965, 966
2530, 1064, 1265, 1264, 965
2531, 717, 1190, 1501, 1499
2532, 965, 1265, 1264, 338
2533, 1571, 967, 966, 965
2534, 1521, 148, 1523, 1497
2535, 1236, 823, 822, 913
2536, 1505, 181, 180, 156
2537, 1282, 1287, 1284, 929
2538, 1373, 212, 187, 188
2539, 1282, 1226, 1283, 1212
2540, 1285, 181, 206, 205
2541, 1371, 182, 181, 157
2542, 1037, 787, 874, 1038
2543, 824, 912, 913, 1393
2544, 1500, 205, 204, 180
2545, 1285, 1371, 182, 181
2546, 913, 826, 1022, 1290
2547, 1291, 31, 228, 203
2548, 824, 826, 913, 823
2549, 1228, 183, 182, 158
2550, 843, 996, 1419, 1455
2551, 1285, 180, 1505, 181
2552, 978, 979, 1409, 1413
2553, 717, 713, 1348, 716
2554, 1006, 1013, 1134, 1069
2555, 776, 1353, 1563, 985
2556, 774, 1009, 1008, 775
2557, 1384, 1429, 1386, 1383
2558, 967, 965, 1571, 1265
2559, 1200, 255, 280, 279
2560, 1532, 185, 161, 186
2561, 1525, 1555, 125, 126
2562, 1045, 1414, 386, 1413
2563, 1047, 1513, 1046, 726
2564, 1131, 1343, 1234, 1229
2565, 864, 870, 1045, 963
2566, 1040, 529, 1001, 554
2567, 1360, 1361, 1155, 1384
2568, 1290, 506, 929, 1001
2569, 1415, 1530, 1253, 1416
2570, 1333, 187, 186, 162
2571, 1472, 239, 214, 215
2572, 1094, 1099, 1153, 686
2573, 1222, 1153, 1152, 76
2574, 1471, 213, 188, 189
2575, 1370, 1371, 1173, 1506
2576, 1170, 1227, 1372, 1362
2577, 1152, 1313, 1150, 746
2578, 1333, 188, 187, 163
2579, 274, 1482, 273, 298
2580, 814, 746, 1152, 1150
2581, 1262, 1261, 1392, 220
2582, 1152, 1150, 75, 690
2583, 1099, 1150, 1152, 690
2584, 1567, 222, 247, 246
2585, 1001, 1287, 1040, 554
2586, 1287, 1117, 554, 1001
2587, 1152, 1153, 692, 76
2588, 1206, 1204, 1309, 501
2589, 1205, 1206, 525, 500
2590, 1037, 915, 786, 1039
2591, 833, 842, 783, 907
2592, 1443, 191, 190, 166
2593, 526, 1039, 1389, 1309
2594, 1360, 1429, 1384, 1478
2595, 1487, 218, 193, 194
2596, 834, 1092, 838, 842
2597, 929, 931, 531, 532
2598, 1206, 501, 1309, 526
2599, 1473, 215, 214, 190
2600, 1278, 969, 1266, 1118
2601, 315, 1571, 1265, 935
2602, 111, 1447, 97, 1522
2603, 1394, 1316, 1474, 1509
2604, 117, 1416, 1453, 105
2605, 1031, 1435, 1065, 315
2606, 812, 1033, 1266, 1065
2607, 1447, 81, 1449, 111
2608, 943, 935, 1031, 967
2609, 1568, 171, 195, 170
2610, 1386, 193, 192, 168
2611, 1031, 935, 1281, 1435
2612, 847, 1391, 1254, 1251
2613, 1551, 198, 222, 197
2614, 1190, 211, 236, 235
2615, 1275, 242, 241, 217
2616, 1450, 1449, 146, 1451
2617, 1163, 950, 867, 1573
2618, 1549, 194, 193, 169
2619, 1201, 1163, 1546, 1203
2620, 950, 892, 946, 1199
2621, 1447, 1562, 146, 147
2622, 1521, 1562, 1447, 147
2623, 1447, 1522, 111, 1452
2624, 1258, 1190, 1257, 1156
2625, 810, 942, 724, 732
2626, 1568, 195, 194, 170
2627, 1311, 1141, 789, 1142
2628, 927, 1143, 900, 903
2629, 932, 791, 742, 848
2630, 1568, 196, 195, 171
2631, 1197, 1202, 1207, 1200
2632, 1397, 124, 1514, 1398
2633, 747, 1089, 1271, 749
2634, 1479, 1481, 323, 1483
2635, 1479, 1559, 1569, 1510
2636, 998, 997, 994, 543
2637, 1269, 198, 197, 173
2638, 715, 1219, 712, 1172
2639, 1346, 470, 494, 469
2640, 1411, 78, 119, 107
2641, 1275, 241, 216, 217
2642, 1479, 1376, 1483, 1510
2643, 1559, 1510, 321, 346
2644, 1559, 1510, 322, 321
2645, 1268, 199, 198, 174
2646, 803, 1133, 807, 806
2647, 916, 925, 921, 923
2648, 1373, 211, 186, 187
2649, 1233, 1569, 1068, 1211
2650, 1278, 1029, 1166, 1033
2651, 978, 811, 979, 1048
2652, 1278, 1495, 728, 1118
2653, 1268, 200, 199, 175
2654, 728, 1495, 925, 1118
2655, 1263, 1243, 845, 1275
2656, 1262, 219, 1261, 220
2657, 1267, 201, 200, 176
2658, 1367, 30, 203, 178
2659, 1231, 728, 1166, 1466
2660, 1383, 1529, 1384, 1478
2661, 806, 1211, 1231, 1233
2662, 1013, 1133, 1181, 1185
2663, 1243, 242, 217, 218
2664, 1311, 254, 229, 230
2665, 1181, 398, 1066, 1185
2666, 1360, 1453, 1429, 1478
2667, 959, 1148, 1146, 1147
2668, 1242, 243, 218, 219
2669, 1066, 397, 1181, 1070
2670, 1181, 1070, 422, 920
2671, 1140, 203, 202, 178
2672, 1070, 920, 421, 422
2673, 1532, 1333, 1373, 186
2674, 706, 1472, 1471, 1473
2675, 1137, 227, 202, 203
2676, 958, 226, 201, 202
2677, 1329, 250, 226, 251
2678, 1360, 1390, 1384, 1429
2679, 1121, 1122, 974, 975
2680, 1507, 1008, 352, 771
2681, 1291, 204, 32, 179
2682, 328, 1208, 1507, 1574
2683, 1353, 332, 331, 307
2684, 1267, 176, 955, 201
2685, 1208, 1507, 1574, 1007
2686, 1532, 160, 1501, 1534
2687, 1285, 181, 205, 180
2688, 847, 1392, 1391, 1251
2689, 1341, 1344, 1345, 106
2690, 1007, 1208, 1507, 327
2691, 1565, 1142, 1364, 253
2692, 1310, 229, 205, 230
2693, 774, 898, 800, 773
2694, 896, 904, 801, 902
2695, 773, 1574, 1507, 1007
2696, 852, 986, 1007, 1208
2697, 875, 1456, 877, 874
2698, 1457, 1436, 1380, 1417
2699, 1559, 346, 1569, 1510
2700, 1272, 191, 215, 190
2701, 1569, 1029, 344, 1232
2702, 1569, 1510, 346, 345
2703, 1233, 1569, 1232, 1029
2704, 795, 209, 208, 184
2705, 1532, 1334, 1333, 161
2706, 245, 1249, 220, 244
2707, 1190, 210, 209, 185
2708, 1241, 936, 938, 1243
2709, 1250, 1249, 269, 1245
2710, 1348, 1334, 1532, 1534
2711, 1532, 1501, 160, 185
2712, 1242, 1262, 1263, 1248
2713, 1242, 1262, 1249, 220
2714, 1241, 1243, 243, 1245
2715, 1499, 211, 210, 186
2716, 1245, 1249, 269, 244
2717, 213, 212, 1503, 188
2718, 942, 1028, 1569, 1029
2719, 1499, 1532, 185, 1501
2720, 949, 235, 1156, 236
2721, 942, 1233, 1029, 1569
2722, 1246, 1188, 1247, 1189
2723, 942, 1376, 1479, 1510
2724, 962, 337, 336, 312
2725, 1346, 495, 494, 470
2726, 1471, 214, 213, 189
2727, 1483, 322, 1479, 1510
2728, 1508, 1030, 877, 1346
2729, 1376, 1160, 899, 1377
2730, 1321, 859, 857, 1509
2731, 1227, 158, 1372, 159
2732, 1379, 1395, 560, 1381
2733, 1494, 930, 931, 1023
2734, 1190, 1227, 1501, 185
2735, 809, 901, 800, 902
2736, 937, 1160, 1157, 1377
2737, 1272, 216, 215, 191
2738, 1227, 1191, 1188, 184
2739, 945, 1376, 1377, 1483
2740, 1227, 1501, 185, 160
2741, 1030, 446, 471, 470
2742, 1346, 493, 469, 494
2743, 942, 1376, 1377, 1160
2744, 791, 740, 1087, 1080
2745, 1071, 217, 216, 192
2746, 1227, 1501, 160, 1498
2747, 1079, 954, 1365, 1291
2748, 1228, 1371, 157, 182
2749, 1227, 1228, 158, 183
2750, 740, 1145, 797, 1085
2751, 1483, 945, 1482, 1375
2752, 790, 252, 855, 794
2753, 873, 1575, 966, 962
2754, 1243, 243, 242, 218
2755, 1071, 218, 217, 193
2756, 896, 852, 1198, 986
2757, 1228, 1191, 1188, 1227
2758, 792, 958, 1137, 794
2759, 1551, 198, 223, 222
2760, 894, 951, 948, 878
2761, 894, 878, 949, 872
2762, 761, 949, 259, 947
2763, 886, 949, 894, 1156
2764, 1261, 195, 219, 194
2765, 1377, 942, 1027, 1028
2766, 1231, 1466, 921, 925
2767, 1261, 220, 219, 195
2768, 802, 1486, 1479, 801
2769, 1027, 943, 1157, 1281
2770, 945, 904, 903, 899
2771, 1174, 249, 224, 225
2772, 1281, 1027, 1279, 1157
2773, 937, 1241, 1248, 1250
2774, 1392, 221, 220, 196
2775, 1346, 1557, 763, 494
2776, 1431, 1478, 109, 1155
2777, 1249, 245, 220, 221
2778, 1415, 1416, 117, 127
2779, 1252, 1255, 1145, 961
2780, 1548, 222, 221, 197
2781, 952, 961, 956, 1267
2782, 956, 955, 1410, 957
2783, 956, 1410, 955, 1267
2784, 183, 184, 1188, 208
2785, 795, 233, 208, 209
2786, 956, 1422, 1497, 1268
2787, 1139, 200, 224, 199
2788, 1004, 517, 493, 518
2789, 1386, 192, 167, 168
2790, 1283, 929, 931, 1116
2791, 1428, 1430, 1451, 144
2792, 1515, 1116, 1226, 931
2793, 1431, 1384, 1155, 1361
2794, 1517, 1394, 1130, 1129
2795, 1130, 1556, 1129, 1123
2796, 859, 1130, 882, 1484
2797, 1484, 882, 1576, 1130
2798, 1130, 1570, 1518, 1556
2799, 1345, 1342, 1431, 1155
2800, 1139, 226, 225, 201
2801, 1506, 840, 1370, 1536
2802, 1341, 1342, 1431, 1345
2803, 1174, 225, 250, 249
2804, 832, 1136, 1135, 830
2805, 1536, 133, 1372, 132
2806, 1341, 18, 139, 138
2807, 1050, 1340, 1336, 1158
2808, 958, 227, 226, 202
2809, 1245, 268, 267, 243
2810, 780, 767, 1336, 779
2811, 780, 1162, 1158, 767
2812, 1341, 1345, 1332, 1342
2813, 230, 206, 1396, 1566
2814, 1566, 1239, 230, 231
2815, 1135, 1158, 1488, 1336
2816, 1158, 1161, 1159, 405
2817, 1410, 151, 1496, 1539
2818, 1550, 212, 236, 211
2819, 1410, 1537, 150, 175
2820, 1371, 1506, 157, 156
2821, 1410, 1411, 1397, 1539
2822, 1410, 1537, 175, 1267
2823, 956, 1410, 1397, 957
2824, 1431, 1342, 139, 140
2825, 1341, 87, 1431, 139
2826, 865, 1357, 1573, 283
2827, 1410, 1496, 1411, 1539
2828, 1283, 1023, 1092, 1379
2829, 1189, 232, 207, 208
2830, 1189, 208, 233, 232
2831, 1431, 106, 1155, 109
2832, 1502, 237, 212, 213
2833, 963, 964, 870, 1045
2834, 956, 1537, 1410, 1267
2835, 1221, 1262, 1567, 1248
2836, 954, 1365, 1367, 1147
2837, 1274, 1263, 1071, 1487
2838, 1374, 271, 246, 247
2839, 1221, 1220, 1165, 1251
2840, 1168, 1170, 715, 741
2841, 889, 935, 872, 1572
2842, 1249, 269, 244, 245
2843, 253, 891, 277, 890
2844, 1500, 1366, 1477, 179
2845, 706, 1473, 1273, 1272
2846, 958, 794, 1138, 1329
2847, 1187, 1174, 1164, 903
2848, 1484, 514, 490, 515
2849, 1174, 1329, 225, 1138
2850, 1274, 1071, 1275, 1272
2851, 1311, 254, 230, 255
2852, 1276, 1472, 1503, 1471
2853, 1175, 248, 223, 224
2854, 763, 493, 1004, 1107
2855, 1259, 794, 1329, 1138
2856, 1103, 1081, 591, 1461
2857, 1566, 231, 206, 207
2858, 382, 383, 1126, 1352
2859, 796, 1174, 1175, 1138
2860, 759, 232, 256, 231
2861, 1285, 1396, 1169, 1363
2862, 1220, 1270, 1138, 1175
2863, 797, 1221, 1085, 1220
2864, 1285, 181, 182, 206
2865, 999, 876, 996, 1402
2866, 1566, 232, 231, 207
2867, 25, 132, 91, 92
2868, 132, 91, 92, 1536
2869, 1346, 493, 468, 469
2870, 1079, 1291, 1365, 1363
2871, 1477, 1146, 1366, 1363
2872, 1370, 1552, 1536, 1540
2873, 795, 209, 210, 234
2874, 1190, 235, 210, 211
2875, 1403, 515, 1484, 490
2876, 1536, 840, 1370, 1540
2877, 1222, 75, 691, 76
2878, 1536, 91, 1552, 133
2879, 1079, 1146, 1363, 1365
2880, 1453, 98, 1429, 1478
2881, 789, 1142, 790, 1364
2882, 793, 1143, 1259, 794
2883, 760, 1189, 233, 232
2884, 1080, 740, 1087, 741
2885, 791, 1199, 1080, 1087
2886, 796, 1138, 1259, 1174
2887, 795, 235, 234, 210
2888, 1540, 1536, 91, 1552
2889, 1107, 468, 492, 467
2890, 848, 741, 718, 1258
2891, 1550, 1257, 1502, 1503
2892, 1577, 288, 264, 289
2893, 1550, 236, 212, 237
2894, 1257, 1156, 1502, 1358
2895, 1203, 1200, 279, 1202
2896, 1380, 1321, 537, 1319
2897, 1550, 1257, 1499, 1190
2898, 1502, 214, 238, 213
2899, 863, 310, 878, 962
2900, 1083, 1312, 995, 1454
2901, 1550, 1503, 212, 1373
2902, 718, 707, 1276, 1257
2903, 1258, 1190, 947, 1247
2904, 110, 1536, 1506, 92
2905, 1099, 1144, 689, 683
2906, 1552, 1540, 104, 91
2907, 1277, 216, 241, 240
2908, 1472, 239, 215, 240
2909, 1156, 895, 1331, 237
2910, 1190, 1550, 236, 211
2911, 1139, 1270, 1268, 199
2912, 956, 1411, 1497, 1514
2913, 948, 760, 259, 258
2914, 1272, 1442, 1385, 191
2915, 1249, 1567, 246, 221
2916, 958, 1139, 226, 1138
2917, 1145, 797, 961, 952
2918, 961, 1139, 1268, 1267
2919, 797, 961, 1139, 1220
2920, 1331, 260, 261, 285
2921, 944, 1221, 1183, 1248
2922, 1503, 213, 1471, 214
2923, 1542, 241, 266, 265
2924, 219, 1262, 1263, 1242
2925, 1248, 1262, 1567, 1249
2926, 1567, 1248, 1183, 1221
2927, 1221, 1567, 1262, 1251
2928, 1262, 1567, 1249, 220
2929, 1243, 938, 1248, 1263
2930, 1285, 1500, 205, 1396
2931, 1249, 1248, 1183, 1567
2932, 1323, 1324, 57, 1325
2933, 1575, 310, 286, 311
2934, 1285, 180, 1500, 1477
2935, 1446, 641, 639, 643
2936, 1285, 1500, 180, 205
2937, 1285, 1363, 1500, 1396
2938, 1242, 244, 243, 219
2939, 243, 1244, 242, 267
2940, 1578, 262, 263, 287
2941, 1285, 1169, 1371, 1505
2942, 854, 1322, 278, 890
2943, 1277, 1472, 215, 240
2944, 1249, 246, 270, 245
2945, 1249, 1567, 221, 220
2946, 896, 852, 986, 898
2947, 302, 1208, 1579, 850
2948, 1310, 1142, 229, 1311
2949, 850, 1198, 1579, 1322
2950, 1315, 1084, 1580, 1581
2951, 1249, 221, 246, 245
2952, 1104, 1380, 1321, 538
2953, 945, 1377, 1250, 1375
2954, 1187, 249, 273, 248
2955, 1542, 265, 240, 241
2956, 1322, 35, 1207, 1202
2957, 1322, 1207, 34, 890
2958, 1100, 1005, 858, 998
2959, 1549, 169, 193, 168
2960, 466, 1195, 1193, 1194
2961, 843, 1454, 788, 1304
2962, 784, 1301, 1043, 788
2963, 843, 1304, 995, 1454
2964, 1241, 1249, 1248, 1250
2965, 1374, 247, 272, 271
2966, 1374, 270, 1249, 246
2967, 1312, 1455, 995, 1454
2968, 1455, 1312, 1423, 1424
2969, 1480, 299, 323, 298
2970, 1249, 1250, 269, 270
2971, 1455, 1425, 1424, 1423
2972, 275, 274, 861, 250
2973, 244, 1241, 1245, 1249
2974, 1107, 1193, 467, 492
2975, 1455, 1002, 996, 1423
2976, 407, 1352, 1159, 1234
2977, 1234, 434, 1470, 1343
2978, 758, 600, 719, 625
2979, 1482, 297, 272, 273
2980, 1134, 375, 399, 374
2981, 1234, 1401, 434, 409
2982, 1234, 1229, 1470, 1401
2983, 1234, 1352, 1230, 1401
2984, 1234, 1401, 409, 408
2985, 1142, 229, 33, 1565
2986, 1403, 515, 490, 491
2987, 1063, 1184, 877, 918
2988, 1059, 876, 874, 911
2989, 1299, 989, 1339, 1327
2990, 1015, 1063, 805, 1016
2991, 1173, 1371, 1505, 1506
2992, 1132, 910, 1062, 911
2993, 1565, 1142, 253, 33
2994, 1430, 1453, 98, 1429
2995, 792, 1137, 958, 954
2996, 1125, 1131, 1124, 831
2997, 1217, 1402, 876, 1108
2998, 1114, 1467, 650, 701
2999, 1382, 1394, 1316, 1378
3000, 251, 855, 861, 276
3001, 1182, 1180, 1355, 1184
3002, 1180, 473, 1355, 1456
3003, 1180, 1456, 447, 472
3004, 1180, 917, 1184, 920
3005, 1244, 266, 267, 291
3006, 1180, 1184, 917, 1456
3007, 849, 301, 277, 302
3008, 98, 84, 112, 1453
3009, 1240, 256, 280, 255
3010, 1356, 475, 451, 1468
3011, 1550, 211, 1373, 212
3012, 1323, 1105, 648, 1582
3013, 1182, 1355, 1180, 448
3014, 1431, 109, 1478, 86
3015, 1205, 1468, 1355, 874
3016, 1060, 1355, 1468, 874
3017, 1563, 1545, 304, 1547
3018, 1563, 1485, 773, 329
3019, 760, 233, 258, 257
3020, 1478, 1383, 141, 142
3021, 760, 257, 232, 233
3022, 1452, 1416, 1398, 128
3023, 1563, 1545, 305, 304
3024, 776, 1354, 1563, 1353
3025, 1563, 1353, 305, 1545
3026, 1563, 985, 1547, 773
3027, 1468, 1204, 500, 501
3028, 257, 1240, 256, 281
3029, 1468, 476, 1204, 501
3030, 1205, 1355, 1468, 474
3031, 1468, 451, 1308, 476
3032, 1030, 495, 470, 471
3033, 998, 567, 542, 543
3034, 760, 259, 258, 234
3035, 1205, 1037, 1204, 874
3036, 1105, 648, 1582, 649
3037, 1060, 1468, 1061, 874
3038, 762, 258, 283, 282
3039, 1331, 237, 261, 236
3040, 874, 1037, 1204, 1061
3041, 895, 262, 237, 238
3042, 1101, 837, 993, 836
3043, 1004, 541, 542, 1005
3044, 1374, 271, 1375, 270
3045, 858, 1090, 1104, 1436
3046, 966, 288, 313, 312
3047, 1445, 639, 1446, 641
3048, 1244, 1281, 292, 1245
3049, 1102, 1492, 589, 590
3050, 1102, 590, 1271, 1492
3051, 1102, 1081, 1271, 591
3052, 1102, 1081, 591, 1103
3053, 895, 262, 238, 263
3054, 965, 337, 313, 338
3055, 392, 1166, 1466, 393
3056, 880, 1081, 1102, 1103
3057, 1546, 1357, 281, 1573
3058, 1578, 263, 288, 287
3059, 141, 86, 1431, 1478
3060, 1374, 270, 246, 271
3061, 1419, 1425, 1424, 1455
3062, 749, 1417, 1492, 1459
3063, 841, 905, 817, 991
3064, 788, 1424, 1302, 1454
3065, 240, 1542, 1577, 265
3066, 567, 1103, 568, 880
3067, 1478, 109, 1155, 112
3068, 1101, 1102, 1271, 1492
3069, 884, 993, 995, 1455
3070, 1441, 314, 289, 290
3071, 993, 995, 1349, 1083
3072, 884, 997, 1002, 994
3073, 747, 1315, 1084, 1349
3074, 1425, 521, 496, 497
3075, 1577, 289, 1572, 288
3076, 1545, 305, 304, 280
3077, 747, 1081, 1349, 1084
3078, 1081, 1082, 1084, 1461
3079, 1484, 1509, 513, 514
3080, 1113, 1106, 657, 649
3081, 1187, 249, 250, 274
3082, 700, 59, 652, 1314
3083, 773, 37, 1507, 1574
3084, 327, 1008, 352, 1507
3085, 1113, 1110, 745, 649
3086, 1105, 745, 1314, 649
3087, 1028, 1375, 1250, 1377
3088, 1114, 1314, 1581, 1315
3089, 1004, 493, 517, 492
3090, 1245, 269, 268, 244
3091, 1572, 313, 288, 289
3092, 1102, 591, 1271, 590
3093, 1004, 516, 492, 517
3094, 1110, 1113, 660, 653
3095, 1110, 654, 1314, 653
3096, 1314, 1325, 1315, 1105
3097, 1314, 647, 1105, 649
3098, 1375, 1250, 270, 295
3099, 1360, 1254, 1391, 1429
3100, 1390, 1386, 1391, 1487
3101, 1440, 612, 66, 1439
3102, 1390, 1391, 1386, 1429
3103, 1186, 247, 248, 272
3104, 1273, 1384, 1390, 1442
3105, 1390, 1384, 1385, 1442
3106, 1263, 1391, 1274, 846
3107, 709, 706, 1274, 845
3108, 1073, 1072, 1121, 977
3109, 1517, 1129, 1130, 1556
3110, 1091, 1212, 1092, 1283
3111, 1214, 463, 1516, 1570
3112, 857, 882, 1403, 1484
3113, 771, 772, 774, 1008
3114, 754, 1295, 755, 1076
3115, 753, 1554, 1438, 1437
3116, 1207, 254, 279, 35
3117, 1072, 1121, 977, 975
3118, 861, 275, 300, 299
3119, 1072, 1121, 975, 1295
3120, 1072, 1554, 1457, 1417
3121, 1271, 615, 1492, 590
3122, 1150, 1144, 675, 689
3123, 861, 300, 276, 301
3124, 997, 543, 518, 519
3125, 1099, 1150, 689, 1144
3126, 1271, 1492, 615, 1462
3127, 890, 253, 33, 278
3128, 1025, 506, 507, 531
3129, 1322, 35, 303, 34
3130, 1544, 1024, 1543, 118
3131, 1583, 579, 47, 554
3132, 762, 282, 257, 258
3133, 74, 1387, 688, 1150
3134, 1202, 36, 1547, 1574
3135, 298, 1480, 274, 1482
3136, 1152, 746, 819, 1313
3137, 1075, 746, 1150, 1387
3138, 1150, 74, 1313, 75
3139, 849, 301, 276, 277
3140, 1522, 1411, 78, 119
3141, 1400, 758, 989, 1298
3142, 1299, 1300, 1400, 1327
3143, 988, 1323, 1339, 1399
3144, 1299, 989, 758, 991
3145, 1250, 295, 294, 270
3146, 992, 757, 987, 1448
3147, 1503, 188, 1471, 213
3148, 1021, 1378, 1319, 1474
3149, 1029, 368, 1033, 343
3150, 1484, 514, 489, 490
3151, 1375, 1482, 1483, 297
3152, 1545, 279, 280, 304
3153, 1331, 1575, 286, 287
3154, 1163, 1199, 950, 1240
3155, 396, 395, 1070, 1211
3156, 1354, 355, 330, 331
3157, 1445, 1297, 638, 1296
3158, 56, 1399, 1324, 1323
3159, 617, 1467, 1461, 616
3160, 1547, 37, 36, 304
3161, 1323, 55, 1296, 698
3162, 1323, 1324, 1105, 1339
3163, 1323, 55, 1399, 1296
3164, 1310, 789, 1199, 1080
3165, 1323, 1445, 1105, 1582
3166, 1018, 533, 508, 509
3167, 743, 748, 750, 745
3168, 1315, 1114, 747, 1463
3169, 990, 747, 748, 751
3170, 833, 837, 993, 841
3171, 990, 991, 841, 817
3172, 1457, 562, 563, 587
3173, 1357, 282, 306, 281
3174, 748, 1106, 1105, 1445
3175, 1522, 111, 1452, 119
3176, 948, 1330, 878, 951
3177, 747, 1216, 1114, 744
3178, 1275, 1277, 241, 1243
3179, 1243, 1277, 241, 1244
3180, 215, 1277, 1275, 1473
3181, 948, 260, 285, 284
3182, 1357, 307, 306, 282
3183, 1275, 215, 1272, 216
3184, 1186, 248, 273, 272
3185, 1522, 1411, 1514, 1497
3186, 1357, 307, 282, 283
3187, 1277, 1276, 1472, 1358
3188, 1439, 66, 703, 67
3189, 706, 1276, 1472, 1277
3190, 1100, 566, 1102, 565
3191, 1277, 1275, 241, 216
3192, 947, 761, 1189, 760
3193, 1142, 1310, 229, 1565
3194, 795, 947, 1190, 1247
3195, 277, 252, 855, 891
3196, 259, 947, 760, 761
3197, 235, 1190, 795, 947
3198, 854, 890, 278, 277
3199, 892, 1087, 1247, 946
3200, 709, 847, 844, 1085
3201, 887, 947, 1258, 1156
3202, 947, 887, 892, 894
3203, 1448, 696, 1444, 1533
3204, 1448, 691, 992, 633
3205, 1331, 286, 261, 262
3206, 1102, 589, 1436, 564
3207, 1441, 266, 290, 265
3208, 1476, 335, 334, 310
3209, 1211, 371, 395, 370
3210, 1533, 1448, 1223, 1524
3211, 1575, 311, 287, 312
3212, 1448, 992, 631, 633
3213, 1448, 1533, 632, 696
3214, 1409, 363, 388, 387
3215, 1362, 1227, 1372, 1498
3216, 1485, 780, 1354, 1563
3217, 1047, 359, 334, 335
3218, 1487, 1263, 1391, 1274
3219, 1370, 1536, 1552, 1372
3220, 1162, 355, 380, 379
3221, 1168, 1173, 1371, 1169
3222, 1021, 1381, 535, 1319
3223, 1517, 487, 1518, 1509
3224, 1382, 1026, 1020, 1393
3225, 1510, 1377, 1483, 1375
3226, 1331, 287, 286, 262
3227, 314, 315, 1571, 339
3228, 1318, 1319, 1378, 1316
3229, 1249, 245, 270, 269
3230, 1382, 1426, 1019, 484
3231, 1074, 1144, 680, 675
3232, 1438, 1440, 1437, 612
3233, 1440, 1490, 668, 65
3234, 1245, 268, 292, 267
3235, 1438, 1554, 613, 612
3236, 664, 669, 670, 1078
3237, 444, 1512, 419, 923
3238, 1563, 330, 329, 305
3239, 1438, 1491, 613, 1554
3240, 1579, 850, 303, 302
3241, 849, 852, 851, 301
3242, 1032, 341, 317, 342
3243, 1209, 1584, 851, 326
3244, 896, 898, 901, 902
3245, 320, 345, 1510, 1028
3246, 904, 903, 851, 1480
3247, 853, 851, 903, 861
3248, 896, 1198, 852, 853
3249, 847, 1261, 1391, 1392
3250, 1497, 1521, 148, 1422
3251, 1254, 1391, 1429, 1428
3252, 1375, 295, 270, 271
3253, 1390, 1429, 1386, 1384
3254, 1262, 1263, 1248, 847
3255, 1254, 1450, 1420, 1568
3256, 1482, 1186, 273, 272
3257, 1006, 1011, 1013, 1069
3258, 1461, 747, 1084, 1081
3259, 1338, 1337, 427, 452
3260, 1028, 1280, 294, 319
3261, 1197, 1141, 1200, 1207
3262, 1375, 295, 271, 296
3263, 1419, 1425, 996, 1564
3264, 892, 1199, 1087, 946
3265, 1466, 417, 392, 393
3266, 861, 299, 274, 275
3267, 1143, 927, 1259, 903
3268, 1521, 1497, 1523, 1522
3269, 1480, 298, 274, 299
3270, 725, 1353, 727, 726
3271, 323, 1483, 1482, 322
3272, 893, 866, 872, 871
3273, 1559, 322, 347, 346
3274, 1481, 324, 348, 323
3275, 712, 710, 1526, 1525
3276, 850, 302, 277, 278
3277, 1202, 35, 279, 36
3278, 712, 1172, 1558, 1171
3279, 1258, 1087, 1191, 1247
3280, 713, 1333, 717, 1348
3281, 712, 1219, 715, 714
3282, 715, 1172, 712, 1171
3283, 403, 378, 924, 766
3284, 713, 1342, 1086, 1561
3285, 852, 302, 326, 301
3286, 806, 1181, 1070, 1066
3287, 939, 983, 721, 777
3288, 276, 277, 252, 855
3289, 1255, 1522, 1452, 1514
3290, 968, 973, 971, 970
3291, 747, 1315, 1463, 1084
3292, 902, 1376, 942, 1160
3293, 303, 1579, 1202, 1322
3294, 303, 327, 1579, 302
3295, 941, 1031, 1064, 967
3296, 1322, 34, 303, 278
3297, 1006, 1068, 802, 1134
3298, 1067, 1210, 1068, 1066
3299, 799, 1486, 1432, 1134
3300, 1432, 1134, 1235, 374
3301, 762, 281, 257, 282
3302, 1432, 1134, 374, 375
3303, 1330, 309, 308, 284
3304, 1449, 1451, 145, 146
3305, 1330, 284, 285, 309
3306, 966, 287, 288, 312
3307, 1125, 1057, 1034, 1088
3308, 1571, 339, 338, 314
3309, 1575, 310, 285, 286
3310, 146, 97, 81, 1447
3311, 36, 328, 1574, 1202
3312, 747, 1271, 1461, 1463
3313, 1579, 1322, 303, 850
3314, 1432, 897, 1433, 1486
3315, 1432, 1134, 1486, 1235
3316, 1432, 349, 1433, 350
3317, 1375, 1483, 296, 297
3318, 747, 1271, 1463, 1467
3319, 1076, 1078, 672, 670
3320, 281, 1546, 1545, 306
3321, 1545, 1203, 1546, 281
3322, 1163, 867, 1546, 1573
3323, 1485, 37, 329, 38
3324, 744, 1078, 1216, 662
3325, 1547, 37, 304, 329
3326, 1065, 315, 316, 340
3327, 1447, 1449, 1452, 111
3328, 1110, 745, 1314, 1114
3329, 1427, 1452, 105, 1416
3330, 711, 713, 710, 1361
3331, 1244, 1441, 1435, 933
3332, 889, 933, 1441, 1577
3333, 744, 753, 749, 1216
3334, 1510, 296, 1483, 321
3335, 1078, 1216, 662, 666
3336, 1280, 294, 318, 293
3337, 1074, 672, 1078, 677
3338, 1440, 1078, 1076, 693
3339, 942, 1479, 1068, 1569
3340, 241, 1243, 242, 1275
3341, 962, 336, 311, 312
3342, 267, 1245, 243, 1244
3343, 1215, 1465, 1176, 1213
3344, 1357, 308, 307, 283
3345, 982, 940, 867, 1201
3346, 1449, 1452, 111, 105
3347, 1330, 283, 284, 308
3348, 1575, 311, 286, 287
3349, 1441, 1572, 1577, 289
3350, 319, 1028, 295, 294
3351, 781, 1419, 843, 996
3352, 1358, 895, 1502, 1577
3353, 1349, 1083, 1328, 1580
3354, 1449, 1430, 105, 82
3355, 1328, 1349, 1304, 1083
3356, 1288, 1541, 815, 768
3357, 285, 310, 878, 1330
3358, 720, 627, 769, 1524
3359, 1120, 1293, 974, 1095
3360, 1407, 412, 436, 411
3361, 1223, 1153, 1222, 77
3362, 1153, 1154, 1223, 819
3363, 1441, 1542, 265, 1577
3364, 815, 1154, 817, 1288
3365, 1507, 328, 1574, 36
3366, 1054, 1053, 1012, 768
3367, 768, 1553, 1054, 1010
3368, 768, 1541, 1224, 1553
3369, 1208, 302, 1579, 327
3370, 1308, 1338, 1238, 1585
3371, 328, 1208, 1574, 1579
3372, 1065, 340, 341, 365
3373, 1179, 416, 441, 440
3374, 1041, 46, 1040, 1287
3375, 1572, 314, 313, 289
3376, 964, 336, 360, 335
3377, 782, 1389, 908, 1305
3378, 1576, 1130, 1570, 1518
3379, 908, 883, 1586, 1010
3380, 782, 1305, 908, 905
3381, 1515, 1226, 1294, 1293
3382, 782, 906, 786, 907
3383, 908, 1553, 1288, 1010
3384, 976, 1293, 582, 974
3385, 1542, 239, 1502, 1472
3386, 1445, 1105, 649, 1106
3387, 1582, 1105, 649, 1445
3388, 1445, 657, 646, 641
3389, 1111, 1106, 746, 1387
3390, 772, 377, 378, 924
3391, 1106, 746, 1387, 1313
3392, 1152, 992, 640, 1313
3393, 1120, 1293, 976, 974
3394, 814, 1099, 1144, 1150
3395, 971, 389, 364, 365
3396, 1276, 1502, 1503, 1472
3397, 748, 1315, 1339, 1105
3398, 743, 753, 752, 751
3399, 1106, 656, 1446, 1313
3400, 1435, 291, 316, 315
3401, 1099, 690, 1152, 692
3402, 1075, 1111, 744, 746
3403, 1569, 1028, 345, 344
3404, 1301, 1504, 548, 1302
3405, 1304, 1349, 995, 1083
3406, 781, 786, 784, 787
3407, 784, 783, 1043, 1305
3408, 1302, 1424, 547, 572
3409, 1424, 1302, 1454, 572
3410, 1504, 1419, 1038, 875
3411, 1280, 294, 319, 318
3412, 1301, 1418, 549, 1303
3413, 784, 1038, 1301, 1419
3414, 1008, 351, 1209, 327
3415, 1496, 1411, 1497, 1537
3416, 1027, 1377, 1157, 1160
3417, 1280, 317, 293, 318
3418, 795, 760, 234, 947
3419, 1038, 1528, 1206, 1303
3420, 1483, 321, 296, 297
3421, 783, 1299, 991, 841
3422, 1510, 346, 345, 321
3423, 1560, 371, 346, 347
3424, 1156, 237, 1502, 895
3425, 307, 1357, 332, 308
3426, 1433, 325, 350, 349
3427, 1038, 875, 1419, 876
3428, 1065, 341, 340, 316
3429, 1510, 321, 320, 296
3430, 1301, 788, 1419, 1302
3431, 1528, 1303, 524, 525
3432, 1584, 301, 326, 325
3433, 1410, 150, 1496, 151
3434, 1510, 321, 345, 320
3435, 1303, 1528, 1206, 525
3436, 1299, 1305, 719, 1043
3437, 956, 1411, 1410, 1537
3438, 547, 1425, 1424, 1302
3439, 1411, 1397, 80, 107
3440, 299, 1584, 861, 1480
3441, 810, 732, 728, 1233
3442, 1504, 1302, 547, 548
3443, 1480, 324, 323, 299
3444, 1528, 498, 875, 499
3445, 1504, 498, 1528, 523
3446, 1479, 323, 347, 322
3447, 853, 903, 899, 900
3448, 1206, 526, 525, 501
3449, 1256, 1450, 1562, 1252
3450, 1449, 1430, 1451, 1427
3451, 852, 302, 327, 326
3452, 1496, 1537, 149, 150
3453, 1450, 1452, 1256, 1562
3454, 803, 1133, 1184, 807
3455, 1584, 301, 325, 300
3456, 1006, 1066, 1134, 1013
3457, 1427, 1256, 1450, 1452
3458, 1450, 1447, 146, 1449
3459, 1421, 1252, 1422, 1562
3460, 1450, 1451, 146, 171
3461, 1191, 741, 1169, 1087
3462, 1284, 1290, 1001, 1286
3463, 1584, 300, 325, 324
3464, 1560, 371, 347, 372
3465, 1286, 1290, 1001, 1587
3466, 969, 1266, 1118, 970
3467, 1550, 1502, 212, 1503
3468, 328, 327, 1579, 303
3469, 307, 1353, 332, 1357
3470, 1577, 263, 238, 239
3471, 1040, 915, 906, 1286
3472, 1284, 1022, 929, 1290
3473, 1284, 1287, 1286, 1001
3474, 922, 1070, 921, 1231
3475, 1190, 1499, 211, 210
3476, 1008, 327, 352, 351
3477, 1028, 344, 319, 320
3478, 828, 825, 1464, 456
3479, 821, 824, 823, 826
3480, 480, 1464, 455, 823
3481, 1510, 320, 295, 296
3482, 1563, 329, 304, 305
3483, 821, 832, 1135, 830
3484, 1433, 349, 324, 325
3485, 1559, 346, 321, 322
3486, 913, 1290, 1286, 1587
3487, 826, 823, 480, 1290
3488, 913, 826, 1290, 823
3489, 1353, 330, 305, 306
3490, 781, 784, 788, 1419
3491, 964, 361, 336, 337
3492, 1162, 354, 355, 379
3493, 781, 999, 785, 787
3494, 1353, 307, 331, 306
3495, 1039, 915, 1389, 1309
3496, 1126, 1161, 1352, 1127
3497, 906, 908, 1041, 1287
3498, 947, 1190, 1156, 235
3499, 577, 1389, 883, 578
3500, 761, 760, 259, 948
3501, 908, 770, 905, 1305
3502, 1389, 883, 578, 908
3503, 833, 841, 838, 837
3504, 1309, 1042, 915, 1389
3505, 356, 331, 1354, 332
3506, 883, 1305, 1389, 576
3507, 786, 911, 787, 910
3508, 1485, 354, 38, 329
3509, 1126, 357, 381, 356
3510, 335, 963, 962, 310
3511, 551, 526, 1039, 1389
3512, 452, 428, 1335, 453
3513, 1389, 1309, 527, 526
3514, 828, 455, 456, 1464
3515, 336, 963, 962, 335
3516, 782, 907, 783, 905
3517, 1388, 1389, 576, 551
3518, 1037, 786, 914, 911
3519, 826, 480, 1464, 481
3520, 1029, 1279, 343, 1033
3521, 956, 1397, 1411, 1514
3522, 764, 780, 1485, 773
3523, 1569, 344, 1029, 1028
3524, 1496, 1523, 1411, 78
3525, 1569, 1232, 344, 345
3526, 1152, 819, 992, 1313
3527, 965, 337, 312, 313
3528, 972, 362, 337, 338
3529, 802, 1479, 1486, 1068
3530, 1151, 1519, 1294, 1350
3531, 720, 1012, 769, 768
3532, 902, 1479, 942, 1376
3533, 1479, 323, 348, 347
3534, 978, 1409, 1408, 1413
3535, 1414, 410, 385, 386
3536, 812, 810, 1278, 1027
3537, 1563, 329, 330, 354
3538, 842, 905, 1212, 817
3539, 1417, 1395, 1072, 1091
3540, 404, 1158, 405, 1162
3541, 1264, 340, 364, 339
3542, 1520, 1127, 1352, 1401
3543, 1158, 1336, 767, 1488
3544, 1158, 1161, 1230, 1159
3545, 1266, 367, 366, 342
3546, 827, 832, 825, 1158
3547, 736, 1115, 804, 779
3548, 1377, 1510, 1028, 1375
3549, 931, 532, 556, 531
3550, 1050, 1340, 1115, 1336
3551, 821, 825, 832, 831
3552, 1159, 382, 407, 406
3553, 1092, 1283, 1212, 1284
3554, 1265, 315, 340, 339
3555, 1125, 1034, 1132, 1088
3556, 1036, 1340, 1230, 1229
3557, 768, 720, 1154, 770
3558, 1176, 1516, 1119, 1213
3559, 1033, 367, 342, 343
3560, 1215, 1465, 413, 414
3561, 1354, 331, 356, 355
3562, 1049, 1401, 1046, 1412
3563, 1056, 1215, 1408, 973
3564, 1055, 970, 973, 1118
3565, 1032, 341, 316, 317
3566, 1209, 351, 350, 326
3567, 1215, 1409, 973, 1177
3568, 1470, 1588, 435, 1347
3569, 1372, 1228, 157, 158
3570, 1227, 159, 1372, 1498
3571, 1168, 1370, 1172, 1171
3572, 1372, 134, 1552, 1498
3573, 1279, 318, 343, 342
3574, 1147, 1406, 1367, 1140
3575, 1560, 1235, 372, 347
3576, 1435, 935, 315, 1031
3577, 348, 1235, 1479, 347
3578, 1260, 442, 418, 443
3579, 418, 921, 394, 1466
3580, 1479, 1560, 1569, 1559
3581, 1560, 1068, 1569, 1211
3582, 580, 1117, 579, 1541
3583, 1028, 1510, 1377, 942
3584, 420, 1070, 421, 396
3585, 1166, 368, 392, 367
3586, 1479, 1481, 801, 1486
3587, 729, 736, 1006, 732
3588, 776, 985, 984, 1353
3589, 1280, 292, 293, 317
3590, 1563, 985, 1353, 1545
3591, 1279, 343, 319, 344
3592, 1404, 955, 176, 177
3593, 602, 856, 1586, 883
3594, 986, 1007, 1208, 1574
3595, 1201, 985, 1547, 1545
3596, 985, 1357, 1353, 1546
3597, 870, 1045, 979, 811
3598, 982, 1357, 865, 984
3599, 981, 776, 985, 984
3600, 1481, 349, 348, 324
3601, 945, 1482, 904, 1483
3602, 709, 742, 708, 846
3603, 1448, 1444, 720, 1533
3604, 1569, 1232, 345, 1211
3605, 945, 904, 1376, 1483
3606, 152, 1406, 1405, 1404
3607, 937, 1241, 1250, 936
3608, 1400, 599, 758, 624
3609, 1032, 1033, 1279, 1027
3610, 1409, 387, 362, 363
3611, 792, 789, 1079, 791
3612, 1404, 177, 1406, 1140
3613, 1343, 459, 458, 434
3614, 1431, 1529, 1342, 140
3615, 1361, 1086, 1342, 1531
3616, 1235, 348, 373, 372
3617, 1209, 326, 350, 325
3618, 1556, 1123, 1214, 1347
3619, 893, 940, 866, 871
3620, 1341, 139, 1431, 1342
3621, 1196, 1130, 1570, 1576
3622, 1103, 568, 880, 1082
3623, 1495, 925, 1118, 1260
3624, 1213, 1055, 1215, 1056
3625, 1493, 1335, 765, 1337
3626, 1507, 771, 353, 37
3627, 1544, 21, 135, 22
3628, 1008, 351, 352, 376
3629, 1058, 1407, 1470, 1412
3630, 1056, 1215, 1214, 1408
3631, 1056, 1407, 1408, 1214
3632, 1058, 1347, 1470, 1407
3633, 435, 1347, 1407, 1470
3634, 771, 353, 37, 378
3635, 1008, 376, 352, 377
3636, 1234, 1343, 1470, 1229
3637, 334, 1476, 333, 1047
3638, 1470, 1343, 434, 1588
3639, 138, 137, 1341, 19
3640, 1538, 1534, 1334, 1344
3641, 1144, 1098, 682, 1097
3642, 1524, 1533, 50, 629
3643, 1543, 1544, 89, 1344
3644, 1054, 1586, 1053, 1010
3645, 971, 390, 1266, 970
3646, 1485, 354, 39, 38
3647, 1544, 135, 1534, 1498
3648, 1074, 1077, 754, 1076
3649, 1077, 1144, 1098, 680
3650, 1074, 1144, 1077, 680
3651, 862, 962, 869, 863
3652, 920, 917, 921, 420
3653, 118, 1544, 89, 1543
3654, 904, 1376, 902, 899
3655, 1200, 254, 255, 279
3656, 1516, 1214, 1213, 1465
3657, 1099, 1153, 686, 692
3658, 1162, 356, 380, 355
3659, 1075, 1387, 688, 676
3660, 1109, 1196, 882, 1108
3661, 726, 727, 333, 332
3662, 1134, 375, 400, 399
3663, 1199, 1200, 1311, 1240
3664, 973, 972, 971, 1409
3665, 1126, 357, 358, 382
3666, 973, 971, 970, 1177
3667, 978, 979, 973, 1409
3668, 356, 1354, 1126, 332
3669, 1362, 1024, 1534, 1498
3670, 807, 917, 916, 920
3671, 601, 769, 1305, 720
3672, 978, 730, 973, 968
3673, 889, 1441, 933, 935
3674, 1414, 411, 1413, 1407
3675, 1162, 356, 381, 380
3676, 1211, 346, 370, 345
3677, 39, 766, 38, 403
3678, 936, 885, 933, 934
3679, 886, 1156, 895, 1331
3680, 1024, 1534, 1498, 1544
3681, 888, 933, 1542, 1243
3682, 1047, 360, 359, 335
3683, 964, 336, 361, 360
3684, 889, 872, 895, 1578
3685, 889, 933, 1542, 1358
3686, 1266, 366, 390, 365
3687, 964, 337, 362, 361
3688, 889, 933, 1577, 1542
3689, 1538, 21, 1544, 89
3690, 972, 338, 363, 362
3691, 960, 1255, 1253, 1398
3692, 886, 889, 895, 1358
3693, 1475, 432, 433, 457
3694, 1397, 1398, 1369, 115
3695, 1485, 767, 39, 379
3696, 1485, 1162, 767, 379
3697, 1485, 772, 773, 771
3698, 1410, 1397, 957, 1539
3699, 766, 1485, 764, 767
3700, 766, 1485, 39, 38
3701, 1264, 364, 363, 339
3702, 815, 818, 816, 1226
3703, 776, 981, 773, 777
3704, 1352, 382, 383, 407
3705, 1177, 413, 388, 389
3706, 1524, 769, 1012, 856
3707, 971, 1409, 972, 363
3708, 1264, 365, 364, 340
3709, 1266, 391, 390, 366
3710, 920, 917, 446, 447
3711, 1179, 440, 415, 416
3712, 1177, 414, 389, 390
3713, 971, 1409, 363, 388
3714, 1266, 366, 341, 342
3715, 971, 1177, 390, 970
3716, 1046, 384, 360, 385
3717, 971, 388, 1177, 1409
3718, 1356, 425, 450, 449
3719, 973, 971, 1177, 1409
3720, 1397, 115, 1369, 108
3721, 1411, 1514, 1397, 107
3722, 1029, 344, 369, 368
3723, 950, 946, 759, 1239
3724, 1397, 1539, 80, 108
3725, 1199, 946, 950, 1239
3726, 950, 762, 761, 951
3727, 363, 971, 1264, 972
3728, 950, 759, 761, 762
3729, 1411, 1514, 107, 119
3730, 866, 867, 950, 951
3731, 1232, 1211, 370, 345
3732, 956, 1497, 1255, 1514
3733, 1178, 392, 417, 416
3734, 894, 950, 946, 761
3735, 281, 762, 1240, 1573
3736, 726, 1513, 1046, 1127
3737, 1127, 726, 1044, 1046
3738, 1047, 864, 963, 1476
3739, 1167, 394, 369, 370
3740, 1055, 1176, 1119, 1213
3741, 1052, 808, 805, 918
3742, 1482, 323, 1481, 1483
3743, 1209, 1584, 325, 1433
3744, 1310, 204, 1363, 1500
3745, 419, 418, 921, 394
3746, 1432, 374, 349, 350
3747, 1209, 1584, 326, 325
3748, 1210, 372, 397, 396
3749, 1235, 349, 373, 348
3750, 1209, 1481, 851, 1584
3751, 896, 801, 904, 897
3752, 1027, 943, 941, 942
3753, 1493, 924, 401, 775
3754, 956, 1537, 1267, 1268
3755, 982, 1201, 867, 985
3756, 1007, 897, 774, 898
3757, 1356, 474, 449, 450
3758, 852, 1198, 986, 1208
3759, 1413, 411, 386, 387
3760, 1009, 351, 375, 350
3761, 1521, 1422, 1522, 1562
3762, 986, 1198, 1202, 1574
3763, 897, 1486, 801, 1481
3764, 1422, 1521, 148, 172
3765, 1466, 1260, 417, 418
3766, 1045, 385, 360, 361
3767, 1066, 399, 398, 374
3768, 852, 898, 1007, 986
3769, 771, 352, 353, 377
3770, 873, 1572, 967, 966
3771, 1209, 327, 1007, 1008
3772, 967, 869, 873, 965
3773, 869, 870, 864, 963
3774, 1117, 554, 555, 579
3775, 1001, 506, 531, 530
3776, 384, 359, 1513, 360
3777, 775, 401, 376, 377
3778, 870, 862, 868, 873
3779, 1560, 1068, 1211, 1210
3780, 873, 1575, 872, 1578
3781, 873, 943, 967, 935
3782, 771, 378, 37, 38
3783, 1575, 873, 878, 962
3784, 772, 38, 766, 378
3785, 1248, 1374, 1249, 1183
3786, 1263, 845, 938, 846
3787, 378, 402, 924, 377
3788, 1159, 407, 431, 406
3789, 1335, 40, 41, 453
3790, 1117, 579, 555, 580
3791, 1563, 355, 354, 330
3792, 581, 1515, 931, 556
3793, 1307, 914, 1237, 1511
3794, 937, 945, 1377, 1250
3795, 1441, 1577, 264, 289
3796, 1287, 46, 1040, 554
3797, 1466, 394, 418, 393
3798, 1485, 354, 379, 39
3799, 1441, 1577, 265, 264
3800, 295, 1375, 1250, 1028
3801, 1033, 1166, 367, 368
3802, 315, 1571, 935, 314
3803, 1441, 1572, 289, 314
3804, 933, 1441, 1435, 935
3805, 1177, 970, 1178, 390
3806, 1441, 935, 315, 1435
3807, 1495, 925, 1466, 728
3808, 863, 865, 1476, 864
3809, 1441, 1577, 933, 1542
3810, 1100, 567, 566, 542
3811, 1054, 46, 1586, 1010
3812, 453, 452, 1338, 1335
3813, 1116, 929, 931, 1000
3814, 1260, 417, 1178, 1495
3815, 1231, 1466, 1166, 394
3816, 963, 864, 1047, 1045
3817, 1126, 382, 381, 357
3818, 1226, 1288, 1541, 815
3819, 1117, 579, 1541, 1583
3820, 776, 1563, 773, 985
3821, 1178, 1051, 970, 1177
3822, 1231, 1166, 1167, 394
3823, 968, 973, 970, 1118
3824, 965, 1064, 1265, 967
3825, 923, 1260, 443, 1194
3826, 1157, 1028, 1280, 1250
3827, 902, 1376, 1160, 899
3828, 1029, 343, 1279, 344
3829, 1162, 767, 379, 1488
3830, 1337, 1493, 401, 775
3831, 871, 935, 873, 872
3832, 1571, 967, 935, 1572
3833, 417, 1466, 1495, 1260
3834, 1513, 384, 383, 359
3835, 1495, 1266, 367, 1178
3836, 1557, 495, 496, 520
3837, 935, 1571, 1265, 967
3838, 1434, 387, 386, 362
3839, 1264, 363, 338, 339
3840, 1157, 1280, 1245, 1250
3841, 1335, 1488, 41, 40
3842, 1045, 361, 386, 385
3843, 873, 935, 967, 1572
3844, 1520, 1352, 383, 408
3845, 1045, 1434, 1413, 386
3846, 869, 967, 870, 965
3847, 1178, 390, 391, 415
3848, 1234, 432, 407, 408
3849, 806, 1231, 1070, 922
3850, 1573, 865, 283, 951
3851, 878, 865, 951, 1330
3852, 1055, 1176, 1177, 1051
3853, 949, 878, 1331, 872
3854, 862, 863, 878, 962
3855, 1407, 435, 410, 411
3856, 971, 364, 388, 363
3857, 893, 900, 926, 1163
3858, 928, 926, 893, 900
3859, 1259, 1329, 794, 855
3860, 1178, 1266, 390, 970
3861, 1428, 1386, 1391, 1429
3862, 1032, 316, 1435, 317
3863, 1435, 1065, 315, 316
3864, 1416, 1453, 105, 1427
3865, 1231, 1232, 1233, 1211
3866, 1428, 1429, 1430, 143
3867, 971, 389, 388, 364
3868, 1451, 1391, 1568, 1254
3869, 1391, 1428, 1451, 1549
3870, 1428, 169, 1451, 1549
3871, 888, 933, 889, 1358
3872, 1204, 874, 1468, 1205
3873, 874, 1355, 1456, 1063
3874, 911, 1037, 787, 874
3875, 971, 365, 390, 389
3876, 1119, 465, 440, 441
3877, 1176, 439, 414, 415
3878, 1037, 1309, 1204, 914
3879, 1266, 391, 366, 367
3880, 1204, 502, 1309, 501
3881, 1255, 1252, 1562, 1422
3882, 961, 1085, 1252, 1220
3883, 1232, 1167, 370, 395
3884, 1421, 1562, 1420, 1252
3885, 765, 775, 1337, 1011
3886, 1157, 1377, 1028, 1250
3887, 1280, 1245, 292, 1281
3888, 1256, 1255, 1252, 1562
3889, 1145, 1256, 1253, 1255
3890, 1363, 204, 1291, 179
3891, 1413, 1407, 411, 412
3892, 1395, 1320, 1417, 1460
3893, 1310, 1364, 1363, 204
3894, 1310, 205, 1500, 1396
3895, 1351, 1020, 912, 1393
3896, 1245, 1250, 294, 269
3897, 1292, 1291, 1366, 1365
3898, 1505, 1477, 1285, 1169
3899, 1260, 442, 417, 418
3900, 1137, 954, 1079, 1291
3901, 1458, 1417, 1395, 1072
3902, 1363, 1291, 1366, 179
3903, 1166, 394, 393, 369
3904, 921, 1512, 419, 420
3905, 1480, 323, 1481, 1482
3906, 1211, 396, 395, 371
3907, 1363, 1146, 1169, 1477
3908, 1080, 1169, 1087, 1396
3909, 1158, 405, 1159, 827
3910, 1381, 535, 1319, 560
3911, 562, 1460, 561, 1458
3912, 1489, 667, 679, 704
3913, 381, 1161, 406, 382
3914, 780, 1158, 1336, 767
3915, 1050, 1230, 1340, 1158
3916, 1381, 1319, 1460, 560
3917, 1126, 1050, 776, 780
3918, 1050, 1158, 1161, 1230
3919, 1576, 489, 464, 465
3920, 1161, 1127, 1230, 1352
3921, 1395, 975, 560, 585
3922, 202, 1137, 203, 1140
3923, 1070, 397, 422, 421
3924, 1066, 374, 398, 373
3925, 1174, 861, 250, 855
3926, 1380, 562, 1460, 1319
3927, 1259, 855, 853, 861
3928, 790, 1364, 253, 228
3929, 1021, 510, 1474, 535
3930, 1142, 1364, 253, 790
3931, 794, 855, 251, 252
3932, 1174, 225, 1329, 250
3933, 1329, 1138, 226, 225
3934, 1182, 448, 423, 424
3935, 928, 927, 900, 899
3936, 1069, 376, 400, 375
3937, 920, 421, 446, 445
3938, 796, 1259, 1138, 794
3939, 1199, 1311, 1141, 789
3940, 766, 428, 403, 39
3941, 1146, 1173, 1149, 1148
3942, 1069, 376, 401, 400
3943, 425, 424, 1011, 400
3944, 789, 1291, 1363, 1364
3945, 1087, 1199, 1396, 1246
3946, 894, 1156, 949, 947
3947, 1191, 1247, 1246, 1188
3948, 844, 1253, 1145, 1256
3949, 709, 742, 847, 1085
3950, 1094, 1350, 685, 684
3951, 1162, 379, 380, 404
3952, 827, 429, 405, 430
3953, 1337, 426, 401, 402
3954, 894, 893, 866, 872
3955, 403, 402, 924, 378
3956, 1087, 1246, 1247, 946
3957, 301, 861, 851, 849
3958, 852, 853, 1198, 850
3959, 1042, 44, 553, 528
3960, 1174, 1175, 1138, 224
3961, 954, 1147, 1140, 957
3962, 1535, 1477, 155, 1505
3963, 1070, 397, 421, 396
3964, 861, 1480, 274, 299
3965, 1307, 528, 43, 44
3966, 1584, 1481, 851, 1480
3967, 1309, 527, 526, 502
3968, 849, 301, 861, 276
3969, 1535, 131, 813, 1506
3970, 1307, 1587, 44, 479
3971, 1162, 404, 380, 405
3972, 276, 251, 275, 861
3973, 1512, 919, 921, 923
3974, 300, 299, 1584, 861
3975, 994, 1082, 568, 569
3976, 960, 1369, 957, 1397
3977, 968, 723, 730, 1118
3978, 1149, 1535, 154, 129
3979, 1326, 839, 1369, 115
3980, 1326, 1530, 839, 115
3981, 1219, 1172, 839, 1558
3982, 1219, 712, 1525, 1359
3983, 827, 429, 404, 405
3984, 553, 44, 1042, 45
3985, 959, 1369, 1147, 957
3986, 1535, 1477, 154, 155
3987, 1173, 840, 1506, 813
3988, 1148, 959, 1326, 1368
3989, 959, 954, 1146, 953
3990, 1219, 1253, 1555, 1530
3991, 1188, 1247, 1189, 795
3992, 260, 1331, 236, 949
3993, 1104, 857, 539, 1321
3994, 1276, 708, 1358, 845
3995, 1414, 386, 411, 410
3996, 862, 982, 867, 865
3997, 258, 762, 948, 760
3998, 986, 1574, 1202, 1547
3999, 1362, 1534, 1348, 1532
4000, 1017, 1011, 804, 765
4001, 129, 1535, 130, 1527
4002, 1413, 387, 412, 411
4003, 717, 1362, 1532, 1501
4004, 850, 302, 278, 303
4005, 1470, 410, 434, 409
4006, 1527, 1535, 130, 813
4007, 714, 713, 716, 712
4008, 795, 1191, 1247, 1190
4009, 1516, 463, 438, 439
4010, 950, 762, 1240, 759
4011, 430, 406, 1159, 431
4012, 1064, 967, 1031, 1265
4013, 1560, 1211, 346, 371
4014, 946, 947, 1189, 1247
4015, 1141, 1311, 1207, 1142
4016, 1240, 762, 257, 759
4017, 1141, 1200, 1207, 1311
4018, 1207, 1202, 35, 279
4019, 1235, 1560, 1210, 1068
4020, 1180, 1181, 423, 447
4021, 1322, 1207, 1198, 1202
4022, 1278, 1495, 1118, 1266
4023, 1214, 413, 438, 437
4024, 1493, 403, 427, 402
4025, 1119, 441, 466, 465
4026, 1201, 986, 1547, 985
4027, 1207, 1200, 1202, 279
4028, 1177, 414, 413, 389
4029, 464, 1518, 463, 488
4030, 1322, 34, 1207, 35
4031, 1200, 1207, 1311, 254
4032, 737, 1254, 1359, 1253
4033, 1177, 415, 414, 390
4034, 796, 944, 1164, 903
4035, 847, 1391, 1261, 1263
4036, 1178, 416, 391, 392
4037, 1479, 1486, 1235, 348
4038, 938, 936, 888, 1243
4039, 1019, 1426, 485, 484
4040, 796, 1165, 1220, 1175
4041, 1210, 1211, 371, 396
4042, 737, 847, 1391, 1254
4043, 1262, 1251, 1567, 1392
4044, 1273, 1442, 1390, 1272
4045, 1361, 1443, 1442, 1273
4046, 1179, 442, 441, 417
4047, 1361, 1529, 1443, 1531
4048, 304, 1545, 279, 1547
4049, 709, 845, 1274, 846
4050, 711, 713, 1361, 1086
4051, 1466, 393, 418, 417
4052, 1333, 713, 1332, 1348
4053, 1100, 858, 1005, 540
4054, 419, 923, 443, 444
4055, 1104, 563, 1436, 1380
4056, 921, 394, 395, 419
4057, 1070, 1210, 396, 1211
4058, 1104, 1380, 538, 563
4059, 1153, 692, 687, 686
4060, 1104, 860, 857, 1321
4061, 1104, 857, 540, 539
4062, 755, 1490, 1438, 753
4063, 1120, 754, 1077, 1121
4064, 395, 1070, 420, 396
4065, 1412, 409, 384, 385
4066, 1134, 1013, 399, 400
4067, 1489, 1076, 679, 671
4068, 704, 1122, 1098, 1489
4069, 1520, 408, 383, 384
4070, 799, 1134, 802, 1486
4071, 772, 924, 766, 765
4072, 1181, 423, 447, 422
4073, 759, 1240, 256, 257
4074, 1185, 399, 423, 398
4075, 1489, 1295, 67, 68
4076, 1489, 1295, 68, 1122
4077, 1141, 1311, 1199, 1200
4078, 1126, 382, 358, 383
4079, 1055, 1052, 1057, 1119
4080, 821, 832, 825, 827
4081, 1520, 408, 384, 409
4082, 1488, 404, 40, 379
4083, 1411, 80, 1397, 1539
4084, 830, 1061, 1338, 1238
4085, 1588, 435, 459, 434
4086, 1337, 426, 402, 427
4087, 822, 830, 1238, 1061
4088, 804, 779, 1336, 765
4089, 388, 1409, 413, 1177
4090, 762, 760, 258, 257
4091, 1469, 426, 450, 425
4092, 1337, 426, 427, 451
4093, 1516, 1570, 1576, 1195
4094, 1011, 426, 425, 401
4095, 1516, 1570, 463, 464
4096, 1303, 550, 525, 526
4097, 46, 1553, 1010, 1054
4098, 828, 455, 430, 431
4099, 1516, 1576, 465, 1195
4100, 990, 1349, 841, 1339
4101, 1496, 1411, 1539, 80
4102, 1488, 429, 41, 404
4103, 257, 760, 759, 762
4104, 1119, 465, 1516, 440
4105, 753, 1216, 1491, 749
4106, 1438, 612, 1437, 1554
4107, 670, 669, 693, 1078
4108, 766, 428, 39, 40
4109, 1074, 1075, 1078, 744
4110, 427, 428, 1335, 452
4111, 1356, 425, 449, 424
4112, 603, 1053, 1586, 856
4113, 1474, 511, 536, 535
4114, 383, 1127, 1520, 1513
4115, 383, 1126, 1352, 1127
4116, 385, 1414, 1045, 1046
4117, 1047, 1045, 360, 335
4118, 1588, 436, 460, 435
4119, 1513, 1520, 383, 384
4120, 1537, 1268, 174, 175
4121, 1513, 1520, 384, 1046
4122, 1353, 1545, 306, 305
4123, 1013, 424, 399, 400
4124, 1127, 1050, 776, 1126
4125, 985, 984, 1353, 1357
4126, 1563, 780, 1354, 776
4127, 405, 406, 1159, 430
4128, 1338, 452, 453, 1585
4129, 920, 422, 447, 446
4130, 1353, 306, 1546, 1357
4131, 1353, 306, 1357, 307
4132, 1189, 759, 760, 761
4133, 1015, 804, 805, 1136
4134, 1063, 1355, 1456, 1184
4135, 1497, 1268, 173, 174
4136, 454, 827, 1306, 829
4137, 952, 1267, 956, 955
4138, 1205, 875, 474, 499
4139, 1205, 874, 1355, 875
4140, 1133, 1011, 1182, 1013
4141, 1159, 432, 431, 407
4142, 1355, 875, 874, 1456
4143, 782, 905, 783, 1305
4144, 1214, 437, 412, 413
4145, 916, 808, 922, 925
4146, 784, 1418, 1301, 1303
4147, 1299, 990, 989, 991
4148, 828, 456, 455, 431
4149, 923, 1260, 418, 443
4150, 1210, 396, 371, 372
4151, 1508, 469, 1030, 1346
4152, 1497, 149, 1537, 174
4153, 757, 758, 989, 991
4154, 1403, 490, 465, 466
4155, 461, 436, 460, 1588
4156, 923, 919, 877, 1508
4157, 1508, 1192, 1402, 877
4158, 1470, 435, 434, 410
4159, 1346, 1030, 877, 1557
4160, 1407, 412, 437, 436
4161, 1052, 1192, 923, 918
4162, 919, 444, 1030, 1508
4163, 1427, 1430, 1429, 1453
4164, 1427, 1256, 1416, 1253
4165, 1426, 460, 484, 459
4166, 1083, 993, 994, 1082
4167, 594, 569, 1082, 1083
4168, 1117, 1282, 1116, 1287
4169, 1347, 462, 461, 437
4170, 1083, 1580, 595, 1328
4171, 993, 1083, 994, 995
4172, 1496, 1537, 1497, 149
4173, 1108, 1402, 876, 999
4174, 879, 1003, 997, 1004
4175, 1465, 438, 413, 414
4176, 1557, 996, 1423, 1425
4177, 1214, 438, 463, 462
4178, 537, 1321, 513, 512
4179, 1398, 1255, 1253, 1416
4180, 1465, 439, 438, 414
4181, 520, 1423, 521, 1557
4182, 930, 558, 533, 534
4183, 1104, 538, 1321, 539
4184, 993, 995, 841, 1349
4185, 1193, 491, 467, 492
4186, 1002, 1455, 1312, 1423
4187, 1176, 440, 439, 415
4188, 1403, 466, 491, 490
4189, 1359, 1415, 1525, 1555
4190, 1423, 1312, 546, 1424
4191, 1315, 1114, 1463, 1581
4192, 996, 997, 519, 1423
4193, 519, 544, 520, 1423
4194, 1179, 417, 441, 416
4195, 1525, 1558, 1555, 126
4196, 1178, 416, 415, 391
4197, 1030, 917, 446, 445
4198, 1423, 521, 1425, 546
4199, 1423, 521, 1557, 1425
4200, 1120, 977, 974, 976
4201, 837, 751, 747, 1349
4202, 1395, 1072, 975, 1458
4203, 921, 420, 419, 395
4204, 1120, 1073, 977, 1226
4205, 1120, 1121, 1077, 1122
4206, 1121, 977, 975, 974
4207, 1120, 1095, 1077, 1097
4208, 1493, 427, 403, 428
4209, 1299, 1304, 1300, 1327
4210, 598, 1300, 1400, 599
4211, 1304, 1083, 1454, 1328
4212, 988, 757, 1298, 989
4213, 1436, 1492, 1459, 589
4214, 820, 988, 992, 1445
4215, 1380, 1321, 860, 1104
4216, 1320, 1380, 1460, 1319
4217, 757, 758, 991, 719
4218, 1022, 1290, 1025, 929
4219, 1355, 473, 448, 449
4220, 1460, 1319, 562, 561
4221, 1461, 618, 1463, 617
4222, 825, 1464, 456, 457
4223, 1525, 126, 1526, 1558
4224, 1555, 1415, 1530, 1253
4225, 719, 1299, 758, 991
4226, 1119, 1195, 465, 466
4227, 988, 1323, 1296, 1445
4228, 597, 572, 596, 1454
4229, 1002, 1312, 1455, 995
4230, 988, 1323, 1399, 1296
4231, 1083, 995, 1312, 1002
4232, 1454, 1424, 572, 1312
4233, 1336, 779, 767, 765
4234, 1423, 1312, 1002, 545
4235, 1102, 1492, 1436, 589
4236, 1236, 42, 829, 454
4237, 1180, 448, 473, 472
4238, 1180, 1355, 1184, 1456
4239, 1312, 547, 1424, 572
4240, 1423, 546, 1312, 545
4241, 1306, 42, 41, 429
4242, 1054, 1583, 579, 47
4243, 1516, 464, 440, 465
4244, 546, 547, 1424, 1312
4245, 1456, 472, 497, 496
4246, 1314, 1325, 1105, 647
4247, 817, 1288, 1154, 770
4248, 1337, 451, 427, 452
4249, 991, 770, 817, 1154
4250, 1244, 933, 936, 1243
4251, 1356, 450, 475, 474
4252, 1243, 936, 1245, 1241
4253, 888, 845, 1277, 1358
4254, 241, 1244, 1542, 266
4255, 1469, 426, 451, 450
4256, 1107, 493, 492, 468
4257, 1555, 126, 1558, 121
4258, 889, 1572, 872, 1578
4259, 888, 936, 933, 1243
4260, 1308, 476, 451, 452
4261, 871, 889, 935, 872
4262, 1191, 1258, 717, 741
4263, 949, 947, 1156, 235
4264, 1335, 428, 40, 453
4265, 795, 1190, 210, 209
4266, 1124, 1470, 1588, 1343
4267, 1214, 462, 437, 438
4268, 1475, 433, 458, 457
4269, 41, 1338, 453, 1585
4270, 234, 947, 259, 235
4271, 947, 259, 235, 949
4272, 823, 479, 454, 455
4273, 453, 477, 1585, 452
4274, 455, 829, 827, 454
4275, 1156, 1190, 236, 235
4276, 825, 456, 431, 432
4277, 1237, 1236, 43, 42
4278, 1099, 690, 692, 686
4279, 1289, 506, 482, 507
4280, 886, 894, 949, 872
4281, 1234, 433, 432, 408
4282, 1237, 503, 43, 1307
4283, 886, 1156, 887, 1358
4284, 1580, 1324, 1325, 620
4285, 1343, 483, 458, 459
4286, 1234, 1352, 408, 407
4287, 988, 1444, 1297, 1298
4288, 1222, 992, 1448, 691
4289, 1104, 564, 539, 540
4290, 1222, 1448, 992, 819
4291, 814, 1099, 1097, 1144
4292, 1343, 458, 433, 434
4293, 751, 749, 753, 1089
4294, 1167, 370, 395, 394
4295, 816, 1097, 814, 1151
4296, 1464, 826, 823, 480
4297, 754, 756, 816, 1097
4298, 820, 1445, 992, 1446
4299, 820, 1106, 1445, 1446
4300, 992, 988, 1444, 1297
4301, 1234, 409, 434, 433
4302, 1012, 628, 1524, 856
4303, 1152, 75, 1150, 1313
4304, 1120, 1096, 1097, 1151
4305, 814, 1152, 746, 819
4306, 1407, 411, 436, 435
4307, 1180, 472, 447, 448
4308, 1152, 1313, 640, 75
4309, 1321, 513, 514, 538
4310, 1181, 422, 397, 398
4311, 755, 744, 1078, 753
4312, 3, 1313, 656, 1387
4313, 1555, 1415, 125, 127
4314, 1019, 509, 484, 485
4315, 1216, 661, 1462, 701
4316, 1490, 1216, 666, 665
4317, 1588, 460, 459, 435
4318, 1439, 1440, 1076, 693
4319, 1112, 1216, 1114, 663
4320, 1347, 461, 436, 437
4321, 1581, 619, 1325, 58
4322, 1216, 701, 1114, 663
4323, 1490, 1438, 65, 1440
4324, 825, 828, 823, 821
4325, 920, 446, 421, 422
4326, 1216, 661, 1491, 1462
4327, 699, 1325, 648, 1323
4328, 1325, 648, 1323, 1105
4329, 447, 1180, 448, 423
4330, 1580, 1325, 1581, 619
4331, 913, 1022, 826, 1393
4332, 909, 913, 1286, 914
4333, 1508, 444, 469, 468
4334, 1382, 1343, 1026, 1393
4335, 1518, 487, 462, 463
4336, 1025, 508, 533, 532
4337, 1026, 508, 1025, 507
4338, 1382, 484, 1019, 1026
4339, 1581, 58, 1325, 700
4340, 1021, 534, 1381, 1023
4341, 888, 1277, 1542, 1358
4342, 1402, 1557, 763, 1346
4343, 1026, 508, 483, 484
4344, 940, 893, 866, 900
4345, 891, 790, 252, 855
4346, 1343, 1393, 831, 1475
4347, 1518, 463, 488, 487
4348, 467, 1193, 1107, 1194
4349, 950, 946, 761, 759
4350, 1516, 464, 463, 439
4351, 866, 1163, 950, 867
4352, 1087, 1396, 1169, 1246
4353, 1394, 511, 510, 486
4354, 1348, 1534, 716, 1543
4355, 1530, 1555, 1558, 121
4356, 713, 1332, 1348, 1345
4357, 1473, 1275, 1272, 706
4358, 1194, 442, 466, 441
4359, 1314, 1325, 647, 700
4360, 713, 1361, 1342, 710
4361, 1117, 1001, 1287, 1116
4362, 713, 1561, 1086, 707
4363, 1306, 42, 429, 454
4364, 717, 1362, 1348, 1532
4365, 1362, 1348, 1534, 716
4366, 717, 1257, 1373, 707
4367, 1508, 877, 1030, 919
4368, 1166, 393, 368, 369
4369, 478, 1238, 1306, 1585
4370, 1066, 373, 398, 397
4371, 877, 1557, 1030, 1564
4372, 1193, 467, 491, 466
4373, 412, 1409, 1413, 1408
4374, 877, 1402, 1557, 1564
4375, 880, 1103, 1100, 567
4376, 877, 918, 917, 919
4377, 391, 1178, 392, 367
4378, 1180, 920, 447, 917
4379, 877, 917, 1184, 1456
4380, 877, 875, 876, 1564
4381, 1194, 467, 443, 468
4382, 1470, 1229, 1412, 1401
4383, 1030, 917, 1456, 471
4384, 1030, 470, 445, 446
4385, 1557, 496, 1030, 1564
4386, 1417, 1072, 1458, 1457
4387, 978, 1056, 1408, 973
4388, 1470, 409, 1401, 1412
4389, 1360, 1155, 1359, 1453
4390, 1234, 1343, 1475, 433
4391, 1343, 1475, 433, 458
4392, 1081, 591, 1461, 1271
4393, 1124, 1128, 831, 1393
4394, 1219, 1525, 1558, 1555
4395, 1456, 447, 472, 471
4396, 1229, 1124, 1034, 1131
4397, 1124, 1588, 1470, 1347
4398, 1131, 825, 1475, 831
4399, 832, 1088, 830, 824
4400, 1528, 524, 523, 499
4401, 708, 718, 1276, 887
4402, 875, 473, 497, 472
4403, 914, 1587, 1307, 1236
4404, 1168, 1370, 1173, 1172
4405, 1258, 1191, 1087, 741
4406, 1378, 1316, 1319, 1474
4407, 1468, 501, 500, 476
4408, 1025, 929, 930, 1023
4409, 1391, 1360, 1390, 737
4410, 717, 718, 1257, 707
4411, 1026, 507, 482, 483
4412, 735, 1034, 805, 1115
4413, 1358, 845, 1277, 1276
4414, 1282, 1541, 1117, 1226
4415, 717, 1348, 1333, 1532
4416, 900, 893, 866, 1163
4417, 713, 1561, 707, 1333
4418, 228, 32, 1364, 253
4419, 1576, 1518, 488, 1484
4420, 1270, 198, 1268, 199
4421, 1355, 474, 473, 449
4422, 1364, 204, 1565, 32
4423, 1236, 454, 479, 43
4424, 882, 1576, 1130, 1196
4425, 1576, 1195, 882, 1403
4426, 1518, 1576, 464, 1570
4427, 1576, 1195, 1403, 465
4428, 1477, 1169, 1173, 1146
4429, 1205, 475, 500, 499
4430, 1516, 465, 1576, 464
4431, 772, 773, 774, 764
4432, 1530, 1415, 127, 1416
4433, 775, 1069, 376, 401
4434, 781, 833, 783, 907
4435, 446, 917, 471, 447
4436, 478, 477, 1585, 453
4437, 765, 775, 1011, 778
4438, 1456, 496, 471, 472
4439, 1009, 775, 1069, 376
4440, 505, 1290, 480, 504
4441, 1512, 444, 419, 420
4442, 839, 1148, 1172, 1219
4443, 1370, 1173, 1172, 840
4444, 1194, 467, 442, 443
4445, 1308, 477, 478, 502
4446, 1308, 501, 477, 502
4447, 1351, 1020, 1382, 1378
4448, 1470, 1412, 1407, 410
4449, 1030, 1456, 496, 471
4450, 1370, 840, 1172, 1540
4451, 1168, 1170, 741, 1169
4452, 959, 953, 1148, 1326
4453, 455, 1464, 480, 456
4454, 1199, 946, 1246, 1087
4455, 715, 1171, 712, 716
4456, 1213, 1516, 1195, 1570
4457, 1312, 1002, 545, 570
4458, 115, 1326, 1398, 1369
4459, 1237, 503, 42, 43
4460, 1051, 1179, 1194, 1119
4461, 480, 1464, 481, 456
4462, 1044, 1049, 1127, 1046
4463, 978, 1048, 1414, 1412
4464, 1057, 1056, 1213, 1123
4465, 1285, 1188, 1169, 1246
4466, 1303, 550, 549, 525
4467, 1290, 481, 505, 480
4468, 1049, 1412, 1229, 1401
4469, 1048, 1414, 1412, 1046
4470, 1045, 1046, 360, 385
4471, 53, 694, 635, 1444
4472, 1444, 626, 1533, 51
4473, 839, 115, 1530, 121
4474, 1426, 485, 460, 461
4475, 413, 1408, 1409, 412
4476, 1394, 510, 485, 486
4477, 839, 1558, 114, 121
4478, 1566, 1239, 1246, 1396
4479, 1239, 231, 256, 255
4480, 757, 624, 758, 625
4481, 757, 719, 991, 720
4482, 1484, 857, 514, 515
4483, 1426, 485, 484, 460
4484, 625, 600, 719, 720
4485, 1444, 720, 1533, 626
4486, 1026, 509, 508, 484
4487, 1566, 232, 1189, 759
4488, 1078, 677, 672, 670
4489, 820, 988, 1445, 748
4490, 1100, 566, 541, 542
4491, 989, 990, 748, 987
4492, 1517, 486, 461, 462
4493, 974, 583, 976, 584
4494, 1381, 559, 534, 535
4495, 1494, 559, 975, 584
4496, 1517, 462, 487, 486
4497, 839, 840, 114, 1558
4498, 1161, 405, 381, 406
4499, 1104, 564, 563, 539
4500, 1379, 1494, 1023, 559
4501, 1468, 475, 451, 476
4502, 1146, 1477, 1149, 1173
4503, 1450, 1447, 1562, 146
4504, 1494, 976, 582, 583
4505, 975, 976, 977, 1494
4506, 987, 1154, 991, 817
4507, 1043, 719, 1418, 1305
4508, 1043, 574, 1300, 573
4509, 784, 1419, 1301, 788
4510, 1430, 144, 82, 1449
4511, 712, 1171, 1526, 716
4512, 1427, 1254, 1450, 1256
4513, 854, 1198, 853, 850
4514, 1209, 897, 851, 1481
4515, 1568, 1450, 171, 1451
4516, 1576, 489, 488, 464
4517, 1375, 1510, 1028, 295
4518, 1351, 1128, 910, 1317
4519, 1476, 333, 1047, 725
4520, 1435, 292, 317, 316
4521, 1245, 269, 294, 293
4522, 869, 965, 964, 962
4523, 1241, 244, 1245, 243
4524, 1197, 853, 896, 900
4525, 937, 1377, 1157, 1250
4526, 1245, 269, 293, 268
4527, 854, 1142, 1141, 1207
4528, 948, 762, 258, 283
4529, 1183, 246, 1249, 1567
4530, 760, 762, 948, 761
4531, 854, 1207, 890, 1142
4532, 1331, 286, 285, 261
4533, 1244, 267, 292, 291
4534, 1441, 290, 289, 265
4535, 1001, 530, 531, 1000
4536, 1331, 237, 895, 262
4537, 1137, 1291, 1367, 954
4538, 1174, 1329, 855, 250
4539, 1435, 315, 290, 291
4540, 861, 251, 275, 250
4541, 854, 277, 855, 891
4542, 1186, 1482, 1187, 903
4543, 1257, 1373, 707, 1503
4544, 765, 778, 779, 764
4545, 981, 1201, 985, 986
4546, 37, 1547, 1574, 773
4547, 806, 732, 1233, 728
4548, 250, 855, 861, 251
4549, 297, 322, 298, 1482
4550, 1205, 499, 474, 475
4551, 939, 982, 940, 868
4552, 1566, 207, 1189, 232
4553, 986, 773, 1007, 1574
4554, 1388, 1305, 575, 576
4555, 1303, 1388, 551, 1039
4556, 875, 474, 498, 473
4557, 782, 786, 906, 915
4558, 1418, 719, 1043, 574
4559, 1418, 575, 1305, 719
4560, 1564, 1456, 877, 875
4561, 1388, 1039, 1389, 551
4562, 1418, 1303, 550, 549
4563, 1353, 306, 331, 330
4564, 1021, 510, 534, 509
4565, 1511, 527, 1042, 1309
4566, 909, 913, 912, 1284
4567, 1039, 551, 1303, 526
4568, 116, 1525, 1345, 1155
4569, 1389, 1041, 553, 1042
4570, 1040, 1511, 1042, 915
4571, 1025, 508, 532, 507
4572, 1042, 45, 1040, 1041
4573, 787, 911, 874, 876
4574, 1375, 271, 272, 296
4575, 908, 578, 1389, 1041
4576, 1375, 272, 1482, 297
4577, 610, 1439, 1437, 1295
4578, 1504, 1425, 522, 547
4579, 823, 1587, 504, 1290
4580, 1439, 1489, 1076, 1295
4581, 1511, 503, 1307, 528
4582, 820, 746, 1313, 819
4583, 875, 499, 498, 474
4584, 1094, 1099, 1151, 1153
4585, 828, 455, 823, 829
4586, 913, 1587, 914, 1236
4587, 1389, 577, 553, 578
4588, 1425, 497, 522, 521
4589, 1511, 44, 528, 1307
4590, 1144, 683, 1099, 1097
4591, 1237, 478, 42, 503
4592, 1476, 333, 309, 334
4593, 1480, 1482, 904, 903
4594, 1110, 653, 1314, 649
4595, 745, 744, 747, 1114
4596, 1077, 679, 1076, 672
4597, 1110, 649, 1113, 653
4598, 358, 333, 357, 726
4599, 1077, 1121, 1295, 1122
4600, 1236, 43, 42, 454
4601, 1077, 1144, 1097, 1098
4602, 865, 1476, 725, 308
4603, 840, 1149, 813, 1173
4604, 1474, 511, 535, 510
4605, 1173, 1535, 1505, 1477
4606, 1173, 1169, 1505, 1371
4607, 725, 333, 727, 308
4608, 1504, 875, 497, 1564
4609, 826, 1289, 1022, 1290
4610, 823, 479, 480, 504
4611, 1000, 530, 555, 554
4612, 1197, 1200, 1203, 1202
4613, 727, 332, 308, 333
4614, 931, 532, 557, 556
4615, 826, 825, 831, 1289
4616, 1511, 527, 502, 503
4617, 1370, 157, 1371, 1506
4618, 1004, 518, 542, 517
4619, 823, 1236, 479, 1587
4620, 826, 1290, 481, 1289
4621, 479, 1587, 504, 823
4622, 1290, 506, 505, 481
4623, 1280, 1245, 1250, 294
4624, 1380, 562, 538, 563
4625, 488, 1484, 1509, 513
4626, 824, 826, 831, 1393
4627, 913, 1587, 823, 1290
4628, 1025, 531, 929, 506
4629, 1289, 506, 481, 482
4630, 1374, 1183, 246, 1249
4631, 1022, 1025, 1023, 929
4632, 1026, 1022, 1393, 1289
4633, 914, 915, 1511, 1286
4634, 1117, 554, 1000, 555
4635, 487, 488, 1518, 1509
4636, 1025, 506, 929, 1290
4637, 377, 1008, 376, 775
4638, 1432, 349, 1235, 1486
4639, 1006, 1068, 1134, 1066
4640, 799, 897, 1486, 801
4641, 184, 1227, 183, 1188
4642, 1019, 510, 509, 485
4643, 1068, 1210, 1235, 1066
4644, 1237, 1309, 1204, 502
4645, 930, 557, 532, 533
4646, 930, 559, 558, 534
4647, 1110, 1112, 655, 658
4648, 1563, 330, 1354, 355
4649, 1394, 511, 486, 487
4650, 527, 1042, 1309, 1389
4651, 1394, 487, 512, 511
4652, 908, 1305, 883, 770
4653, 1040, 1587, 504, 44
4654, 1511, 1309, 1042, 915
4655, 1163, 1199, 1240, 1200
4656, 1563, 1547, 304, 329
4657, 1150, 75, 690, 74
4658, 865, 863, 878, 862
4659, 1162, 1161, 1126, 780
4660, 799, 1009, 1134, 1432
4661, 538, 514, 1321, 539
4662, 1484, 489, 513, 488
4663, 1048, 1413, 1045, 979
4664, 1425, 522, 547, 546
4665, 968, 972, 973, 979
4666, 1374, 272, 1375, 271
4667, 1044, 1049, 1036, 1127
4668, 1282, 1541, 1288, 1553
4669, 861, 300, 275, 276
4670, 948, 283, 258, 259
4671, 1541, 1151, 1294, 1226
4672, 1541, 1117, 1583, 1553
4673, 1321, 1474, 512, 537
4674, 1375, 296, 272, 297
4675, 1541, 1224, 1583, 579
4676, 1519, 1541, 604, 1224
4677, 921, 923, 418, 419
4678, 923, 418, 419, 443
4679, 857, 514, 515, 539
4680, 1563, 1485, 354, 1354
4681, 1134, 400, 1069, 1013
4682, 917, 919, 420, 445
4683, 1546, 281, 1240, 1573
4684, 1070, 420, 921, 395
4685, 920, 445, 420, 421
4686, 1432, 374, 1235, 349
4687, 1068, 1134, 1235, 1486
4688, 1068, 1134, 1066, 1235
4689, 373, 372, 1066, 1235
4690, 1005, 541, 540, 516
4691, 444, 1030, 445, 919
4692, 1235, 348, 1486, 349
4693, 1380, 1321, 538, 537
4694, 1302, 572, 547, 548
4695, 1176, 1516, 439, 440
4696, 1196, 1195, 1576, 1570
4697, 1130, 1317, 1196, 1125
4698, 1195, 1119, 1194, 466
4699, 860, 1380, 1319, 1321
4700, 1516, 464, 1576, 1570
4701, 1423, 997, 519, 544
4702, 794, 227, 252, 251
4703, 33, 32, 253, 1565
4704, 1563, 1354, 354, 355
4705, 1517, 487, 1394, 486
4706, 965, 966, 312, 962
4707, 441, 466, 1194, 1119
4708, 1504, 498, 522, 497
4709, 1423, 546, 545, 521
4710, 1380, 537, 538, 562
4711, 1576, 1484, 1403, 882
4712, 1528, 499, 523, 498
4713, 1195, 1403, 466, 1193
4714, 598, 1300, 597, 1400
4715, 775, 1011, 778, 1069
4716, 599, 1300, 719, 574
4717, 1002, 569, 544, 545
4718, 1129, 1588, 1347, 461
4719, 1082, 593, 568, 569
4720, 1493, 765, 775, 1337
4721, 965, 869, 873, 962
4722, 1015, 1017, 1136, 830
4723, 1546, 1357, 306, 281
4724, 1485, 771, 38, 772
4725, 1587, 44, 479, 504
4726, 840, 813, 103, 110
4727, 1336, 1335, 767, 1488
4728, 1135, 1340, 1336, 1136
4729, 1206, 525, 500, 501
4730, 1135, 1306, 1335, 1488
4731, 978, 1408, 1056, 1407
4732, 1495, 392, 1166, 1466
4733, 1565, 1310, 229, 204
4734, 1587, 1236, 479, 1307
4735, 806, 922, 1070, 920
4736, 916, 923, 919, 918
4737, 1466, 393, 1166, 394
4738, 1146, 1366, 1363, 1365
4739, 1148, 1368, 103, 1527
4740, 1389, 551, 526, 527
4741, 908, 770, 883, 1010
4742, 1231, 395, 921, 394
4743, 716, 1543, 1526, 1345
4744, 1332, 1333, 163, 1561
4745, 1511, 503, 528, 527
4746, 1348, 1543, 1344, 1534
4747, 1125, 1128, 1317, 1218
4748, 954, 1137, 1140, 1367
4749, 1540, 110, 1536, 840
4750, 1026, 483, 1289, 1475
4751, 1290, 1022, 1025, 1289
4752, 528, 552, 1042, 527
4753, 1025, 929, 531, 532
4754, 1001, 505, 529, 504
4755, 1001, 506, 530, 505
4756, 1083, 595, 594, 570
4757, 1137, 790, 227, 228
4758, 1020, 1023, 1284, 1022
4759, 1343, 1124, 1129, 1588
4760, 787, 999, 910, 876
4761, 32, 1364, 253, 1565
4762, 1001, 1290, 505, 504
4763, 1150, 746, 1313, 1387
4764, 753, 749, 1459, 1417
4765, 834, 860, 785, 881
4766, 1565, 33, 204, 229
4767, 1026, 508, 507, 483
4768, 1040, 45, 504, 529
4769, 1309, 526, 501, 502
4770, 682, 1144, 683, 680
4771, 1078, 669, 693, 1440
4772, 755, 1078, 1490, 753
4773, 1099, 692, 1152, 1153
4774, 1120, 816, 754, 1073
4775, 1094, 1153, 687, 686
4776, 378, 38, 766, 403
4777, 1291, 1364, 32, 204
4778, 1479, 322, 1483, 323
4779, 842, 818, 817, 1212
4780, 402, 1337, 1493, 401
4781, 1206, 1204, 501, 500
4782, 815, 1541, 1151, 1224
4783, 1173, 1149, 813, 1535
4784, 1151, 1153, 1224, 1519
4785, 1120, 1096, 1293, 1095
4786, 1094, 1153, 1151, 1519
4787, 1000, 531, 555, 530
4788, 1542, 1243, 1277, 888
4789, 1160, 942, 1027, 1377
4790, 866, 868, 940, 867
4791, 1312, 571, 570, 546
4792, 1389, 552, 551, 527
4793, 873, 1575, 878, 872
4794, 1410, 1404, 957, 955
4795, 1265, 935, 1031, 315
4796, 873, 872, 935, 1572
4797, 994, 544, 568, 543
4798, 1474, 536, 1319, 535
4799, 1018, 534, 533, 509
4800, 403, 924, 1493, 766
4801, 852, 326, 851, 301
4802, 930, 533, 558, 557
4803, 1404, 1405, 152, 1539
4804, 896, 899, 853, 903
4805, 1021, 535, 534, 510
4806, 896, 1197, 986, 1198
4807, 1584, 324, 1433, 1481
4808, 1480, 1584, 324, 299
4809, 1367, 1137, 1140, 203
4810, 1002, 570, 569, 545
4811, 1104, 539, 563, 538
4812, 1404, 152, 1406, 177
4813, 1370, 1173, 840, 1506
4814, 1474, 512, 537, 536
4815, 1250, 1280, 294, 1028
4816, 1474, 512, 536, 511
4817, 1507, 328, 36, 353
4818, 1406, 1140, 177, 178
4819, 1157, 1027, 1279, 1028
4820, 1507, 37, 353, 36
4821, 1301, 573, 549, 574
4822, 293, 1280, 1245, 292
4823, 1319, 560, 535, 536
4824, 1280, 317, 1281, 292
4825, 1460, 1458, 562, 1380
4826, 1280, 1279, 319, 1028
4827, 1279, 1280, 317, 1281
4828, 1404, 1539, 1369, 1405
4829, 1502, 1358, 1156, 895
4830, 893, 894, 950, 892
4831, 416, 415, 1179, 1178
4832, 1004, 541, 517, 542
4833, 872, 1331, 1578, 1575
4834, 1507, 774, 1007, 1008
4835, 873, 966, 1578, 1572
4836, 1507, 353, 352, 328
4837, 1504, 1301, 548, 1528
4838, 809, 902, 942, 1160
4839, 928, 934, 899, 940
4840, 892, 1199, 791, 1087
4841, 862, 982, 868, 867
4842, 1515, 581, 1117, 556
4843, 841, 1349, 1304, 1339
4844, 913, 1236, 823, 1587
4845, 1521, 1562, 147, 172
4846, 1406, 1367, 30, 1292
4847, 1521, 147, 1447, 97
4848, 1020, 1023, 1092, 1284
4849, 1521, 10, 147, 97
4850, 1388, 576, 575, 551
4851, 582, 1494, 931, 976
4852, 1515, 581, 1294, 580
4853, 554, 1553, 1287, 46
4854, 1054, 603, 46, 47
4855, 1521, 1447, 1562, 1522
4856, 1147, 1405, 1404, 1369
4857, 905, 770, 991, 1305
4858, 603, 856, 1586, 602
4859, 1104, 565, 564, 540
4860, 1319, 561, 536, 537
4861, 1066, 1210, 372, 397
4862, 372, 1066, 1235, 1210
4863, 1017, 1337, 765, 1335
4864, 1100, 540, 541, 565
4865, 1100, 565, 541, 566
4866, 1054, 1224, 579, 1583
4867, 1134, 1013, 1066, 399
4868, 799, 1486, 802, 801
4869, 1134, 1235, 374, 373
4870, 1117, 554, 1583, 1553
4871, 1290, 1587, 504, 1001
4872, 1004, 516, 517, 541
4873, 488, 1576, 464, 1518
4874, 1576, 489, 1484, 488
4875, 1347, 1517, 462, 1556
4876, 1140, 178, 1367, 203
4877, 997, 519, 544, 543
4878, 545, 1002, 1423, 544
4879, 1406, 1367, 178, 30
4880, 1570, 1518, 463, 464
4881, 1517, 1518, 462, 1556
4882, 1518, 1556, 463, 462
4883, 985, 1546, 1353, 1545
4884, 892, 893, 1163, 950
4885, 1405, 29, 95, 1527
4886, 153, 29, 95, 1405
4887, 1406, 1367, 1140, 178
4888, 1201, 1203, 1545, 1547
4889, 1163, 1546, 1203, 1240
4890, 560, 1379, 559, 975
4891, 1545, 281, 305, 280
4892, 1504, 523, 547, 522
4893, 1353, 1545, 1546, 306
4894, 1368, 959, 1326, 1369
4895, 524, 1528, 523, 548
4896, 1529, 166, 1383, 1442
4897, 572, 571, 1312, 547
4898, 1017, 1338, 1014, 1337
4899, 1553, 1117, 554, 1287
4900, 1147, 1369, 1368, 1405
4901, 1312, 595, 570, 571
4902, 1240, 280, 281, 1203
4903, 1150, 688, 74, 690
4904, 709, 737, 846, 1274
4905, 893, 926, 892, 1163
4906, 1258, 947, 887, 892
4907, 1301, 549, 548, 524
4908, 960, 1397, 1514, 1398
4909, 795, 1188, 208, 1189
4910, 1277, 1542, 1358, 1472
4911, 1418, 549, 550, 574
4912, 1290, 1001, 505, 506
4913, 1358, 1542, 1577, 1502
4914, 1219, 712, 1558, 1525
4915, 1040, 529, 554, 46
4916, 883, 577, 601, 576
4917, 866, 894, 950, 893
4918, 957, 1404, 1539, 1369
4919, 1545, 279, 1547, 1203
4920, 1201, 1546, 1545, 1203
4921, 1303, 550, 526, 551
4922, 1442, 166, 1383, 1385
4923, 306, 281, 305, 1545
4924, 1203, 280, 1545, 279
4925, 908, 1010, 46, 1553
4926, 514, 1321, 539, 857
4927, 1389, 551, 552, 576
4928, 1203, 280, 281, 1545
4929, 553, 552, 1042, 528
4930, 1389, 576, 552, 577
4931, 1389, 552, 553, 577
4932, 255, 1200, 280, 1240
4933, 547, 571, 1312, 546
4934, 1200, 280, 1240, 1203
4935, 1528, 1301, 548, 524
4936, 998, 568, 567, 543
4937, 1547, 985, 986, 773
4938, 1124, 1343, 1393, 831
4939, 873, 872, 1572, 1578
4940, 1024, 1526, 1540, 1171
4941, 554, 530, 1001, 1000
4942, 1157, 936, 1245, 1281
4943, 856, 628, 627, 603
4944, 1223, 1524, 628, 49
4945, 1117, 1583, 554, 579
4946, 815, 1224, 1151, 1153
4947, 1000, 929, 931, 531
4948, 401, 1069, 1011, 775
4949, 799, 1009, 1432, 897
4950, 309, 1330, 308, 1476
4951, 1390, 1071, 1272, 1385
4952, 1422, 172, 1269, 1421
4953, 46, 1586, 603, 1054
4954, 948, 284, 1330, 283
4955, 908, 1389, 915, 1041
4956, 1117, 556, 580, 555
4957, 1293, 582, 606, 581
4958, 682, 1093, 681, 1097
4959, 982, 867, 865, 1357
4960, 865, 1573, 867, 951
4961, 865, 984, 1476, 864
4962, 1301, 573, 548, 549
4963, 865, 308, 725, 1357
4964, 1104, 1436, 1090, 1380
4965, 1390, 1272, 1442, 1385
4966, 1578, 1572, 966, 288
4967, 1509, 859, 857, 1484
4968, 717, 715, 741, 718
4969, 1380, 562, 1319, 537
4970, 1120, 974, 1122, 1095
4971, 933, 935, 1281, 936
4972, 1540, 123, 1024, 104
4973, 558, 559, 930, 1494
4974, 757, 1444, 1448, 992
4975, 862, 866, 878, 951
4976, 1494, 559, 583, 558
4977, 1494, 584, 583, 559
4978, 1442, 191, 1443, 166
4979, 1099, 686, 689, 690
4980, 1578, 1331, 895, 262
4981, 1319, 536, 561, 560
4982, 1044, 726, 983, 1047
4983, 341, 1032, 1033, 342
4984, 1381, 560, 559, 535
4985, 976, 931, 1283, 1494
4986, 1110, 744, 1114, 1112
4987, 720, 601, 719, 1305
4988, 1032, 1435, 316, 1065
4989, 1032, 1279, 317, 1281
4990, 1032, 1031, 1027, 1281
4991, 1319, 537, 562, 561
4992, 1031, 1032, 1435, 1281
4993, 1400, 1296, 55, 623
4994, 1032, 1279, 1033, 342
4995, 705, 70, 1093, 1095
4996, 1558, 840, 114, 1540
4997, 110, 1536, 91, 1540
4998, 1033, 1279, 1027, 1029
4999, 1506, 110, 813, 840
5000, 822, 1238, 1237, 1061
5001, 1137, 958, 202, 227
5002, 1172, 1171, 1540, 1558
5003, 1037, 786, 915, 914
5004, 913, 1587, 1286, 914
5005, 1034, 1340, 832, 1136
5006, 1362, 1498, 1372, 1552
5007, 763, 1346, 1107, 1402
5008, 957, 1397, 1369, 1539
5009, 1312, 1328, 1454, 1083
5010, 909, 1286, 915, 914
5011, 824, 1393, 913, 826
5012, 1511, 1286, 1587, 914
5013, 1518, 1556, 1570, 463
5014, 1196, 1556, 1213, 1570
5015, 992, 1313, 1446, 640
5016, 1556, 1570, 463, 1214
5017, 1102, 589, 564, 565
5018, 564, 1102, 1104, 1436
5019, 1291, 1367, 1292, 31
5020, 991, 841, 1299, 990
5021, 1213, 1570, 1556, 1214
5022, 958, 1140, 202, 955
5023, 592, 591, 1461, 1103
5024, 1296, 634, 55, 54
5025, 1140, 955, 177, 202
5026, 437, 462, 1214, 1347
5027, 604, 579, 48, 1224
5028, 1305, 601, 719, 576
5029, 998, 543, 994, 568
5030, 720, 625, 757, 719
5031, 1517, 461, 1129, 1347
5032, 1103, 591, 566, 567
5033, 1367, 1292, 31, 30
5034, 1366, 1146, 1477, 1149
5035, 1147, 1149, 1292, 1406
5036, 1082, 594, 1084, 593
5037, 1310, 1199, 1311, 1239
5038, 1291, 1366, 1365, 1363
5039, 1079, 1080, 789, 1363
5040, 1149, 1292, 1406, 30
5041, 952, 959, 953, 954
5042, 994, 569, 568, 544
5043, 952, 955, 957, 1140
5044, 1423, 996, 1455, 1425
5045, 1021, 1381, 534, 535
5046, 709, 847, 742, 846
5047, 952, 740, 1145, 797
5048, 1079, 1080, 1363, 1169
5049, 990, 748, 1315, 1339
5050, 1566, 1239, 1396, 230
5051, 1324, 620, 595, 596
5052, 719, 600, 575, 576
5053, 1302, 548, 573, 572
5054, 1312, 572, 596, 571
5055, 1566, 1246, 1239, 759
5056, 1300, 598, 573, 574
5057, 1566, 1246, 1189, 207
5058, 572, 596, 1454, 1312
5059, 1339, 1328, 1349, 1304
5060, 1566, 1246, 207, 206
5061, 1566, 1246, 759, 1189
5062, 1410, 957, 1404, 1539
5063, 719, 601, 600, 576
5064, 1418, 550, 575, 574
5065, 883, 601, 577, 602
5066, 1220, 1270, 1165, 1551
5067, 961, 1268, 1270, 1269
5068, 1252, 1421, 1422, 1269
5069, 1302, 1454, 572, 1300
5070, 1145, 1326, 960, 1253
5071, 952, 1139, 961, 1267
5072, 1374, 1250, 1249, 270
5073, 961, 1139, 1220, 1270
5074, 1254, 1420, 1252, 1251
5075, 1254, 1252, 1420, 1450
5076, 851, 1480, 861, 1584
5077, 935, 933, 1281, 1435
5078, 1300, 599, 598, 574
5079, 1112, 658, 662, 655
5080, 1586, 1053, 1010, 856
5081, 1246, 1199, 1396, 1239
5082, 960, 957, 956, 1397
5083, 956, 1255, 1497, 1422
5084, 1187, 274, 861, 1480
5085, 1256, 1416, 1255, 1452
5086, 1041, 45, 46, 578
5087, 1255, 1422, 1562, 1522
5088, 1018, 1026, 508, 1025
5089, 1255, 1497, 1422, 1522
5090, 796, 903, 927, 944
5091, 574, 719, 599, 575
5092, 1173, 1535, 813, 1506
5093, 908, 46, 1287, 1553
5094, 577, 578, 883, 602
5095, 1300, 597, 572, 573
5096, 1173, 1477, 1149, 1535
5097, 1149, 1148, 840, 1527
5098, 1207, 1311, 254, 1142
5099, 883, 769, 601, 602
5100, 720, 627, 1533, 626
5101, 596, 1328, 1454, 1312
5102, 1095, 69, 1122, 678
5103, 991, 770, 1154, 720
5104, 768, 1553, 1010, 1288
5105, 1374, 1183, 247, 246
5106, 768, 770, 1288, 1010
5107, 1541, 579, 580, 604
5108, 1148, 840, 1527, 103
5109, 959, 1148, 1147, 1368
5110, 1148, 120, 839, 840
5111, 1148, 839, 120, 1368
5112, 1012, 768, 1224, 1054
5113, 738, 715, 741, 953
5114, 1370, 1372, 1371, 157
5115, 1543, 123, 1024, 1526
5116, 1540, 1172, 1558, 840
5117, 1172, 1173, 1148, 840
5118, 1344, 1543, 113, 89
5119, 1085, 1220, 1221, 1251
5120, 1544, 135, 90, 22
5121, 1348, 1543, 1345, 1344
5122, 988, 1105, 748, 1339
5123, 1224, 48, 1012, 1054
5124, 706, 1086, 1471, 707
5125, 974, 584, 608, 583
5126, 974, 609, 608, 584
5127, 840, 1172, 1558, 839
5128, 1219, 1555, 1359, 1525
5129, 1395, 561, 586, 585
5130, 1253, 1415, 1359, 1555
5131, 1359, 1427, 1416, 1253
5132, 975, 585, 584, 560
5133, 1458, 586, 611, 610
5134, 1458, 1460, 561, 1395
5135, 740, 953, 1079, 954
5136, 1219, 712, 1172, 1558
5137, 1348, 1334, 1534, 1344
5138, 713, 1561, 1332, 1342
5139, 1342, 710, 1155, 1345
5140, 1251, 1551, 1567, 1548
5141, 1457, 563, 588, 587
5142, 1077, 1295, 1489, 1122
5143, 1086, 1471, 707, 1561
5144, 710, 1345, 716, 1526
5145, 713, 710, 1345, 716
5146, 1459, 613, 588, 589
5147, 1457, 1417, 1554, 1459
5148, 1457, 588, 1436, 1459
5149, 1164, 1183, 247, 1186
5150, 1090, 1417, 1380, 1436
5151, 1436, 589, 588, 564
5152, 1320, 1090, 1417, 1380
5153, 1452, 1398, 124, 128
5154, 1436, 1417, 1459, 1492
5155, 1436, 1089, 1090, 1417
5156, 1102, 565, 566, 590
5157, 1102, 565, 590, 589
5158, 173, 1422, 1268, 1497
5159, 1436, 1492, 1089, 1417
5160, 858, 879, 860, 836
5161, 1427, 1254, 1256, 1253
5162, 565, 564, 1102, 1104
5163, 825, 1475, 457, 432
5164, 832, 825, 1131, 831
5165, 832, 1340, 1131, 1230
5166, 1098, 705, 678, 682
5167, 945, 1248, 1374, 1250
5168, 1139, 200, 1268, 1267
5169, 832, 1340, 1230, 1158
5170, 1144, 689, 683, 680
5171, 824, 914, 911, 1061
5172, 1103, 1461, 592, 1082
5173, 1217, 1402, 877, 876
5174, 825, 831, 1289, 1475
5175, 1103, 592, 591, 567
5176, 1125, 1088, 1132, 1218
5177, 1451, 1427, 1254, 1450
5178, 1427, 1430, 1453, 105
5179, 1131, 1234, 1475, 825
5180, 1083, 570, 594, 569
5181, 1052, 1217, 1062, 1218
5182, 1524, 1533, 627, 50
5183, 863, 962, 963, 310
5184, 963, 336, 962, 964
5185, 145, 81, 82, 1449
5186, 1357, 1573, 283, 282
5187, 856, 1524, 627, 628
5188, 11, 146, 97, 81
5189, 335, 1476, 1047, 963
5190, 334, 335, 1476, 1047
5191, 1047, 1476, 984, 864
5192, 578, 908, 46, 1041
5193, 869, 863, 962, 963
5194, 1450, 1562, 1447, 1452
5195, 1400, 622, 597, 598
5196, 1047, 360, 1046, 1513
5197, 929, 1000, 1116, 1001
5198, 968, 969, 723, 1118
5199, 1324, 621, 620, 596
5200, 834, 835, 881, 785
5201, 1400, 623, 598, 599
5202, 1557, 520, 519, 495
5203, 1197, 1198, 1207, 1202
5204, 1111, 658, 659, 673
5205, 451, 1014, 1337, 1469
5206, 878, 872, 1575, 1331
5207, 1444, 635, 53, 52
5208, 719, 575, 600, 599
5209, 424, 1469, 425, 1011
5210, 1325, 700, 58, 57
5211, 1356, 450, 1469, 451
5212, 1452, 1416, 128, 105
5213, 1469, 1011, 1014, 1337
5214, 1207, 34, 1142, 254
5215, 1400, 624, 623, 599
5216, 720, 601, 626, 625
5217, 854, 1141, 853, 1198
5218, 1029, 1232, 1167, 344
5219, 769, 601, 602, 626
5220, 1279, 1028, 344, 319
5221, 1001, 505, 530, 529
5222, 1511, 1307, 1587, 44
5223, 1314, 649, 653, 647
5224, 1279, 1033, 342, 343
5225, 1200, 1240, 255, 1311
5226, 1280, 319, 1279, 318
5227, 1027, 1029, 1279, 1028
5228, 1485, 1354, 1162, 354
5229, 1336, 765, 767, 1335
5230, 726, 332, 333, 357
5231, 288, 1577, 1578, 1572
5232, 1461, 593, 617, 592
5233, 1054, 579, 48, 47
5234, 1583, 554, 47, 46
5235, 1126, 1161, 1162, 381
5236, 383, 1126, 1127, 358
5237, 1082, 1461, 592, 593
5238, 1533, 51, 50, 632
5239, 1357, 727, 1353, 332
5240, 725, 1357, 727, 1353
5241, 856, 627, 769, 602
5242, 981, 939, 777, 983
5243, 1354, 1162, 354, 355
5244, 1075, 677, 673, 676
5245, 1457, 1436, 563, 1380
5246, 1102, 590, 566, 591
5247, 1032, 1281, 317, 1435
5248, 1277, 241, 1542, 240
5249, 1578, 895, 263, 262
5250, 1101, 1089, 1436, 1492
5251, 888, 1243, 1277, 845
5252, 1308, 1238, 478, 1585
5253, 1120, 1226, 976, 1293
5254, 1237, 1238, 42, 478
5255, 1184, 1063, 877, 1456
5256, 586, 975, 585, 610
5257, 1356, 1182, 424, 449
5258, 1104, 564, 1436, 563
5259, 1113, 659, 660, 656
5260, 1225, 73, 1519, 687
5261, 1225, 48, 604, 2
5262, 1308, 451, 1014, 1338
5263, 1237, 502, 1511, 1309
5264, 1271, 1462, 616, 1467
5265, 1103, 568, 592, 567
5266, 1468, 1061, 1204, 1308
5267, 641, 1106, 1445, 657
5268, 1553, 1054, 46, 1583
5269, 1308, 1338, 452, 451
5270, 1225, 1224, 1519, 604
5271, 1294, 605, 580, 581
5272, 1084, 594, 618, 593
5273, 1308, 452, 1338, 1585
5274, 750, 816, 815, 818
5275, 785, 1318, 912, 1351
5276, 785, 1351, 912, 910
5277, 1122, 69, 608, 609
5278, 1515, 580, 1117, 581
5279, 1448, 631, 1444, 696
5280, 1524, 629, 50, 49
5281, 797, 1220, 1139, 1138
5282, 994, 995, 1083, 1002
5283, 1320, 1380, 1417, 1460
5284, 1522, 1514, 1411, 119
5285, 1522, 79, 119, 78
5286, 1091, 1320, 1089, 1417
5287, 1091, 1395, 1320, 1417
5288, 977, 1379, 1494, 1283
5289, 148, 1422, 173, 1497
5290, 1255, 1452, 1398, 1514
5291, 1168, 715, 953, 741
5292, 1266, 341, 365, 1065
5293, 1293, 607, 606, 582
5294, 1285, 1396, 205, 206
5295, 1285, 1188, 182, 1371
5296, 1285, 207, 1246, 206
5297, 1065, 341, 1032, 1033
5298, 1396, 1169, 1363, 1080
5299, 1310, 1500, 1363, 1396
5300, 1398, 115, 1397, 124
5301, 204, 1364, 1565, 1310
5302, 1580, 620, 619, 595
5303, 1452, 1398, 1514, 124
5304, 1310, 204, 1500, 205
5305, 1349, 1580, 1328, 1339
5306, 1162, 1488, 404, 1158
5307, 1159, 430, 827, 405
5308, 843, 993, 1455, 995
5309, 1131, 1229, 1234, 1230
5310, 975, 609, 584, 585
5311, 1166, 1233, 1029, 1278
5312, 1485, 1162, 379, 354
5313, 1158, 767, 1162, 1488
5314, 1162, 404, 1488, 379
5315, 1178, 1266, 367, 391
5316, 825, 456, 432, 457
5317, 367, 1178, 392, 1495
5318, 678, 704, 1122, 1098
5319, 998, 880, 567, 568
5320, 915, 914, 1511, 1309
5321, 1075, 1111, 1387, 673
5322, 975, 610, 609, 585
5323, 1234, 1475, 432, 433
5324, 1304, 1299, 841, 1339
5325, 1428, 1451, 1427, 1254
5326, 1492, 614, 590, 615
5327, 710, 1359, 1155, 1525
5328, 1440, 612, 65, 66
5329, 1525, 125, 1415, 122
5330, 1067, 1210, 806, 1211
5331, 1264, 969, 1065, 1265
5332, 971, 365, 1266, 390
5333, 1005, 540, 858, 857
5334, 996, 1557, 1564, 1425
5335, 1525, 122, 1155, 116
5336, 909, 912, 785, 1284
5337, 1581, 1114, 1463, 651
5338, 1458, 587, 586, 562
5339, 1059, 1015, 1016, 1063
5340, 1445, 1446, 639, 637
5341, 1216, 749, 747, 1462
5342, 1462, 62, 615, 616
5343, 1114, 1467, 60, 650
5344, 1114, 60, 1463, 651
5345, 1439, 67, 611, 66
5346, 1110, 1314, 654, 1114
5347, 745, 1114, 747, 1315
5348, 1084, 1081, 1349, 1083
5349, 1462, 63, 614, 615
5350, 745, 649, 1106, 1113
5351, 1071, 1272, 216, 1275
5352, 1491, 64, 614, 63
5353, 1529, 1443, 1442, 1361
5354, 1581, 1314, 1325, 1315
5355, 1005, 516, 1004, 541
5356, 1289, 481, 1464, 482
5357, 1254, 1451, 1450, 1568
5358, 1178, 390, 1266, 391
5359, 858, 1104, 860, 857
5360, 1263, 1071, 1487, 218
5361, 879, 858, 1005, 998
5362, 1100, 565, 1104, 540
5363, 1348, 716, 1345, 1543
5364, 776, 773, 1563, 780
5365, 1525, 1345, 1155, 710
5366, 1005, 857, 515, 540
5367, 1403, 857, 515, 1005
5368, 1409, 412, 388, 413
5369, 1101, 858, 1436, 1090
5370, 1461, 616, 591, 592
5371, 437, 1214, 412, 1407
5372, 860, 1317, 859, 1316
5373, 1086, 1471, 1531, 1473
5374, 1056, 1123, 1347, 1214
5375, 857, 882, 1484, 859
5376, 1531, 190, 1473, 189
5377, 1581, 59, 618, 619
5378, 838, 1212, 842, 1092
5379, 1461, 617, 593, 618
5380, 1083, 1081, 1349, 993
5381, 1149, 1535, 1527, 813
5382, 1458, 611, 1437, 610
5383, 1147, 1149, 1406, 1405
5384, 1084, 619, 618, 594
5385, 1149, 30, 1406, 29
5386, 1149, 1535, 1366, 154
5387, 1149, 1292, 30, 154
5388, 1149, 1405, 29, 1406
5389, 1308, 1014, 1061, 1338
5390, 1225, 1153, 1223, 77
5391, 768, 1541, 1553, 1288
5392, 1399, 597, 622, 621
5393, 1282, 1553, 908, 1287
5394, 1541, 604, 1224, 579
5395, 1117, 1226, 1116, 1282
5396, 1458, 611, 586, 587
5397, 856, 883, 1010, 1586
5398, 1283, 1226, 977, 1212
5399, 1282, 1226, 1212, 1288
5400, 1515, 976, 1226, 1293
5401, 1283, 931, 1226, 1116
5402, 931, 581, 557, 582
5403, 1091, 1089, 753, 1417
5404, 843, 993, 835, 1455
5405, 644, 55, 1323, 698
5406, 1318, 1351, 1317, 1316
5407, 1100, 858, 1101, 880
5408, 758, 600, 625, 624
5409, 1101, 880, 1081, 1102
5410, 1320, 1089, 1417, 1090
5411, 1089, 1492, 749, 1417
5412, 974, 583, 608, 607
5413, 75, 1152, 1222, 640
5414, 1531, 165, 1443, 190
5415, 1391, 1261, 1263, 1487
5416, 1448, 632, 633, 631
5417, 1444, 625, 626, 52
5418, 1263, 1487, 219, 218
5419, 1241, 1250, 936, 1245
5420, 1223, 49, 695, 629
5421, 796, 1174, 903, 1164
5422, 1242, 1263, 219, 218
5423, 1244, 1243, 1277, 1542
5424, 1113, 660, 657, 656
5425, 856, 603, 1053, 628
5426, 737, 1254, 1360, 1359
5427, 1464, 481, 457, 482
5428, 706, 1086, 1473, 1471
5429, 482, 1289, 1475, 1464
5430, 941, 873, 868, 871
5431, 945, 903, 1482, 1186
5432, 1263, 1071, 217, 1275
5433, 888, 933, 1358, 1542
5434, 926, 1199, 892, 1163
5435, 1448, 757, 987, 1154
5436, 1095, 70, 607, 608
5437, 640, 1152, 1222, 992
5438, 1225, 2, 604, 73
5439, 1153, 76, 77, 687
5440, 1519, 605, 1350, 72
5441, 1222, 819, 1152, 1153
5442, 1154, 987, 819, 750
5443, 1323, 699, 644, 648
5444, 1519, 73, 605, 72
5445, 1298, 988, 1296, 1297
5446, 684, 1350, 685, 72
5447, 1297, 1445, 637, 992
5448, 1444, 992, 1297, 636
5449, 686, 1099, 683, 681
5450, 67, 1489, 667, 703
5451, 992, 631, 636, 1444
5452, 637, 1446, 640, 992
5453, 165, 1342, 1531, 1529
5454, 1445, 637, 992, 1446
5455, 990, 841, 1299, 1339
5456, 1081, 1271, 1461, 747
5457, 988, 989, 1399, 1339
5458, 1122, 68, 69, 609
5459, 820, 1313, 1106, 1446
5460, 757, 1298, 989, 758
5461, 905, 817, 991, 770
5462, 770, 1305, 720, 991
5463, 1489, 68, 67, 667
5464, 1295, 68, 609, 610
5465, 1091, 1283, 977, 1212
5466, 1005, 859, 858, 879
5467, 1295, 67, 68, 610
5468, 1381, 1023, 534, 559
5469, 860, 1320, 1318, 1319
5470, 1379, 977, 1494, 975
5471, 1379, 1494, 559, 975
5472, 1467, 61, 616, 617
5473, 1025, 930, 532, 533
5474, 531, 1000, 556, 931
5475, 1284, 1022, 1023, 929
5476, 655, 654, 1112, 1110
5477, 1478, 141, 1383, 1529
5478, 931, 1000, 556, 1116
5479, 1099, 683, 689, 686
5480, 1023, 1381, 1318, 1379
5481, 849, 853, 861, 851
5482, 1075, 675, 677, 676
5483, 1209, 1007, 897, 1008
5484, 1428, 1549, 168, 169
5485, 680, 1098, 682, 1144
5486, 1080, 1087, 1199, 1396
5487, 1490, 668, 702, 664
5488, 300, 1584, 301, 861
5489, 1163, 1573, 1546, 1240
5490, 908, 905, 770, 1288
5491, 941, 967, 943, 1031
5492, 986, 1547, 773, 1574
5493, 1462, 62, 63, 615
5494, 1197, 1141, 853, 900
5495, 978, 1413, 1408, 1407
5496, 64, 1490, 702, 665
5497, 1079, 1169, 741, 1080
5498, 1248, 1221, 938, 944
5499, 260, 948, 878, 949
5500, 886, 949, 1331, 872
5501, 918, 919, 877, 923
5502, 1580, 1084, 594, 619
5503, 1109, 1193, 1192, 1107
5504, 806, 1067, 1066, 1210
5505, 1467, 60, 61, 617
5506, 808, 1260, 923, 1194
5507, 998, 1004, 543, 542
5508, 1078, 674, 670, 666
5509, 1059, 1088, 911, 1061
5510, 803, 778, 804, 1011
5511, 1088, 1132, 1062, 911
5512, 729, 728, 808, 730
5513, 1109, 1218, 1196, 1108
5514, 1051, 808, 1052, 1194
5515, 1074, 677, 675, 672
5516, 874, 877, 876, 1063
5517, 1462, 62, 701, 661
5518, 1216, 665, 662, 666
5519, 1113, 649, 657, 653
5520, 877, 923, 1192, 918
5521, 1325, 57, 58, 620
5522, 974, 583, 607, 582
5523, 806, 728, 1231, 922
5524, 1171, 716, 1543, 1526
5525, 1171, 1362, 1024, 1543
5526, 123, 1024, 1526, 1540
5527, 1399, 622, 56, 621
5528, 1430, 143, 1429, 98
5529, 142, 143, 98, 1478
5530, 651, 1581, 1314, 59
5531, 1215, 1408, 1409, 413
5532, 715, 1362, 1171, 716
5533, 1298, 53, 54, 624
5534, 706, 1086, 709, 1273
5535, 1172, 840, 1148, 839
5536, 1370, 1172, 1171, 1540
5537, 718, 887, 1258, 1257
5538, 1148, 1172, 1146, 1173
5539, 1170, 1169, 1371, 1228
5540, 712, 1526, 1171, 1558
5541, 1033, 1266, 342, 367
5542, 1278, 728, 1495, 1166
5543, 968, 978, 734, 979
5544, 1006, 802, 1068, 1067
5545, 1215, 1408, 973, 1409
5546, 1360, 1478, 1155, 1453
5547, 1533, 627, 51, 626
5548, 1134, 1235, 373, 1066
5549, 1582, 645, 639, 646
5550, 1400, 989, 1327, 1399
5551, 992, 640, 637, 633
5552, 1478, 1453, 112, 1155
5553, 1297, 637, 638, 694
5554, 799, 897, 1432, 1486
5555, 1376, 1483, 1510, 1377
5556, 1029, 1166, 368, 369
5557, 775, 1008, 772, 377
5558, 1533, 629, 632, 50
5559, 820, 1446, 819, 1313
5560, 1323, 1339, 1399, 1324
5561, 1315, 1580, 1349, 1339
5562, 48, 1223, 1225, 1012
5563, 1223, 695, 2, 77
5564, 1519, 73, 604, 605
5565, 1315, 1324, 1580, 1339
5566, 649, 1445, 646, 1582
5567, 815, 1288, 768, 1154
5568, 1350, 72, 605, 606
5569, 1478, 141, 1529, 1431
5570, 834, 1091, 1092, 1320
5571, 1444, 696, 631, 635
5572, 1350, 71, 72, 606
5573, 1106, 1445, 1446, 641
5574, 1315, 1580, 1325, 1581
5575, 1468, 500, 475, 476
5576, 1225, 1519, 73, 604
5577, 1223, 695, 77, 630
5578, 628, 1012, 1223, 48
5579, 1051, 970, 1118, 1178
5580, 1444, 1298, 624, 53
5581, 815, 1541, 1226, 1151
5582, 768, 1053, 1012, 856
5583, 1094, 685, 681, 686
5584, 1096, 607, 70, 71
5585, 1096, 71, 606, 607
5586, 1225, 1224, 1153, 1519
5587, 1524, 627, 1533, 720
5588, 1012, 856, 1053, 628
5589, 1012, 1154, 768, 720
5590, 856, 1010, 768, 1053
5591, 1120, 1293, 1151, 1226
5592, 1225, 73, 77, 2
5593, 1295, 975, 610, 609
5594, 974, 1122, 608, 609
5595, 1095, 1096, 607, 70
5596, 1095, 69, 70, 608
5597, 1117, 580, 556, 581
5598, 884, 993, 1455, 835
5599, 763, 518, 1004, 493
5600, 976, 974, 582, 583
5601, 1282, 1541, 1226, 1288
5602, 1094, 685, 686, 687
5603, 1489, 1098, 704, 679
5604, 1519, 684, 687, 73
5605, 884, 836, 993, 835
5606, 1293, 582, 974, 607
5607, 1438, 613, 64, 65
5608, 884, 835, 1455, 996
5609, 1438, 65, 612, 613
5610, 1095, 705, 70, 69
5611, 1315, 1339, 1105, 1324
5612, 987, 992, 988, 757
5613, 820, 748, 1445, 1106
5614, 1089, 1271, 749, 1492
5615, 1116, 1000, 1117, 1001
5616, 749, 1271, 1462, 1492
5617, 681, 1097, 683, 682
5618, 815, 1012, 768, 1224
5619, 1098, 682, 679, 680
5620, 1353, 984, 725, 1357
5621, 982, 984, 865, 864
5622, 1008, 1007, 897, 774
5623, 1077, 679, 672, 680
5624, 1457, 587, 1458, 562
5625, 1489, 671, 679, 667
5626, 1491, 64, 613, 614
5627, 1008, 771, 1507, 774
5628, 1554, 588, 612, 1457
5629, 681, 1093, 71, 685
5630, 1519, 1350, 605, 1294
5631, 1121, 975, 1295, 1122
5632, 1151, 1293, 1350, 1294
5633, 1098, 678, 679, 682
5634, 1305, 769, 770, 720
5635, 1305, 720, 991, 719
5636, 1463, 59, 60, 618
5637, 1299, 1304, 1327, 1339
5638, 796, 1175, 1220, 1138
5639, 1478, 98, 142, 15
5640, 1216, 1491, 749, 1462
5641, 1439, 703, 66, 693
5642, 788, 1454, 1455, 1424
5643, 65, 1490, 668, 702
5644, 550, 1303, 1388, 551
5645, 1440, 668, 66, 65
5646, 908, 1586, 883, 578
5647, 1444, 51, 1533, 696
5648, 1300, 1304, 1454, 1327
5649, 1439, 703, 693, 671
5650, 1076, 671, 670, 672
5651, 1478, 143, 98, 1429
5652, 1254, 1251, 1568, 1420
5653, 1387, 673, 659, 3
5654, 1370, 1171, 1024, 1540
5655, 796, 1259, 903, 1174
5656, 1152, 690, 75, 692
5657, 1176, 1119, 1516, 440
5658, 1324, 57, 620, 621
5659, 749, 1492, 1462, 1459
5660, 1076, 670, 671, 693
5661, 912, 1128, 824, 910
5662, 1056, 973, 1035, 1055
5663, 1161, 406, 1159, 405
5664, 865, 1476, 984, 725
5665, 669, 1490, 1078, 664
5666, 1489, 68, 667, 704
5667, 906, 1284, 907, 1212
5668, 693, 1078, 1076, 670
5669, 1078, 664, 666, 670
5670, 1271, 1462, 615, 616
5671, 726, 333, 1047, 358
5672, 1161, 1159, 1352, 1230
5673, 662, 658, 1111, 674
5674, 1581, 58, 59, 619
5675, 614, 1492, 1462, 615
5676, 678, 1122, 68, 69
5677, 1127, 1230, 1352, 1401
5678, 1036, 1230, 1401, 1229
5679, 1582, 645, 1296, 638
5680, 1457, 1458, 587, 612
5681, 961, 1269, 1422, 1268
5682, 717, 1258, 1190, 1257
5683, 1324, 621, 56, 57
5684, 1139, 1220, 1270, 1138
5685, 1301, 1038, 1504, 1419
5686, 1458, 612, 1437, 611
5687, 1325, 58, 619, 620
5688, 1453, 122, 1155, 1415
5689, 1237, 1307, 1511, 503
5690, 1491, 661, 665, 63
5691, 1216, 663, 662, 665
5692, 1099, 1150, 690, 689
5693, 1581, 618, 1463, 1084
5694, 1468, 1204, 1205, 500
5695, 1425, 996, 1455, 1419
5696, 1399, 55, 56, 622
5697, 1205, 1355, 474, 875
5698, 1110, 654, 653, 655
5699, 701, 1467, 650, 61
5700, 1147, 1368, 1148, 1149
5701, 1112, 663, 655, 662
5702, 1037, 874, 911, 1061
5703, 645, 698, 1582, 1296
5704, 1150, 688, 689, 675
5705, 218, 1243, 1242, 1263
5706, 1296, 54, 55, 623
5707, 1580, 595, 1324, 620
5708, 1400, 623, 622, 598
5709, 1427, 1256, 1452, 1416
5710, 1315, 1325, 1580, 1324
5711, 1369, 102, 1368, 1405
5712, 618, 619, 1084, 1581
5713, 1152, 76, 692, 75
5714, 1225, 687, 77, 73
5715, 1101, 1081, 837, 1271
5716, 623, 1400, 622, 55
5717, 841, 1304, 1349, 995
5718, 1216, 1462, 1114, 701
5719, 1314, 652, 647, 653
5720, 1580, 1324, 595, 1328
5721, 1314, 652, 653, 654
5722, 621, 56, 1399, 1324
5723, 1114, 651, 654, 60
5724, 1349, 1083, 1580, 1084
5725, 1304, 1083, 995, 1454
5726, 1323, 1582, 648, 644
5727, 1110, 653, 660, 655
5728, 1298, 54, 623, 624
5729, 1323, 1324, 56, 57
5730, 1350, 1519, 684, 1094
5731, 1139, 200, 1267, 201
5732, 1426, 1129, 461, 1588
5733, 1517, 1394, 1426, 486
5734, 1426, 1588, 461, 460
5735, 72, 1519, 684, 1350
5736, 1582, 646, 649, 648
5737, 621, 1327, 596, 1324
5738, 1426, 459, 1588, 460
5739, 1126, 381, 1162, 356
5740, 1120, 816, 1073, 1226
5741, 1296, 634, 638, 645
5742, 1298, 697, 54, 53
5743, 1444, 53, 624, 625
5744, 1426, 459, 1343, 1588
5745, 1074, 1078, 672, 1076
5746, 1444, 625, 52, 53
5747, 860, 836, 1090, 858
5748, 1582, 638, 639, 645
5749, 1457, 588, 612, 587
5750, 1444, 51, 52, 626
5751, 1176, 1177, 1178, 415
5752, 1176, 1055, 1215, 1213
5753, 1408, 1215, 1214, 413
5754, 1582, 645, 646, 648
5755, 1465, 1516, 438, 439
5756, 957, 955, 1404, 1140
5757, 1051, 1194, 1052, 1119
5758, 1465, 1214, 413, 438
5759, 1176, 1177, 415, 414
5760, 597, 1327, 596, 621
5761, 958, 1139, 201, 226
5762, 1543, 1526, 113, 123
5763, 1446, 642, 656, 641
5764, 942, 1233, 1569, 1068
5765, 1214, 1465, 1516, 438
5766, 1444, 696, 52, 51
5767, 1297, 638, 637, 639
5768, 1533, 632, 696, 51
5769, 992, 631, 633, 637
5770, 1335, 427, 1338, 1337
5771, 803, 1015, 1017, 804
5772, 1274, 1390, 1487, 1071
5773, 1013, 806, 803, 1006
5774, 1075, 1150, 675, 688
5775, 1197, 1163, 1201, 1203
5776, 1335, 767, 40, 766
5777, 765, 767, 1335, 766
5778, 1017, 1011, 1337, 1014
5779, 627, 769, 1524, 856
5780, 847, 1221, 1262, 1251
5781, 1222, 76, 630, 77
5782, 1532, 161, 1534, 1334
5783, 1297, 636, 637, 694
5784, 1119, 1213, 1516, 1195
5785, 1533, 627, 50, 51
5786, 1544, 1024, 90, 1498
5787, 636, 992, 1297, 637
5788, 1176, 1516, 1465, 439
5789, 1369, 1405, 108, 102
5790, 1534, 1498, 135, 160
5791, 1177, 1055, 970, 973
5792, 1177, 390, 1178, 415
5793, 971, 390, 1177, 389
5794, 1176, 1215, 414, 1465
5795, 691, 1222, 630, 632
5796, 945, 1186, 1374, 1183
5797, 943, 1031, 935, 1281
5798, 198, 1551, 223, 1270
5799, 958, 955, 202, 201
5800, 1448, 633, 632, 691
5801, 1459, 589, 614, 613
5802, 1425, 1504, 1302, 547
5803, 992, 633, 691, 640
5804, 1147, 957, 1369, 1404
5805, 900, 1201, 1163, 867
5806, 1445, 641, 646, 639
5807, 1187, 903, 1164, 1186
5808, 1446, 637, 643, 639
5809, 1368, 103, 1527, 102
5810, 1222, 76, 691, 630
5811, 1223, 695, 49, 2
5812, 1423, 545, 520, 521
5813, 1326, 1398, 1253, 1530
5814, 1147, 1149, 1405, 1368
5815, 720, 769, 626, 601
5816, 1074, 675, 680, 672
5817, 1124, 1470, 1058, 1347
5818, 1270, 1175, 224, 1138
5819, 1059, 1063, 1016, 874
5820, 1124, 1129, 1588, 1347
5821, 1094, 684, 685, 687
5822, 605, 1519, 1541, 604
5823, 704, 678, 1122, 68
5824, 1194, 1195, 1193, 1109
5825, 1119, 1196, 1213, 1195
5826, 1556, 1123, 1347, 1129
5827, 1095, 678, 705, 69
5828, 1098, 679, 678, 704
5829, 1196, 1576, 1195, 882
5830, 1179, 1194, 1119, 441
5831, 703, 1489, 667, 671
5832, 979, 972, 1409, 1434
5833, 1051, 1178, 1118, 1260
5834, 668, 664, 1490, 669
5835, 1393, 1382, 1129, 1128
5836, 1217, 877, 1063, 876
5837, 1440, 668, 693, 66
5838, 1490, 702, 665, 664
5839, 1495, 417, 1178, 392
5840, 392, 1466, 1495, 417
5841, 978, 1049, 1412, 1058
5842, 1382, 1130, 1394, 1129
5843, 740, 953, 738, 741
5844, 1382, 1128, 1130, 1129
5845, 879, 1003, 999, 997
5846, 1181, 1185, 1182, 423
5847, 1382, 1129, 1394, 1426
5848, 1284, 1001, 929, 1287
5849, 1125, 1123, 1130, 1129
5850, 1216, 661, 663, 665
5851, 1438, 65, 1440, 612
5852, 881, 1317, 1108, 882
5853, 859, 1316, 1130, 1509
5854, 1074, 1075, 1150, 675
5855, 1427, 1254, 1360, 1429
5856, 1414, 1412, 410, 1407
5857, 756, 1075, 746, 1150
5858, 1463, 651, 60, 59
5859, 1414, 978, 1407, 1413
5860, 1413, 1045, 979, 1434
5861, 1114, 654, 650, 60
5862, 1114, 650, 654, 663
5863, 834, 1089, 1091, 1320
5864, 1045, 1434, 386, 361
5865, 1035, 1057, 1058, 1056
5866, 1414, 1412, 385, 410
5867, 1074, 675, 1150, 1144
5868, 1314, 651, 652, 654
5869, 1462, 701, 62, 61
5870, 1314, 700, 647, 652
5871, 1387, 1313, 74, 3
5872, 1581, 700, 59, 58
5873, 649, 657, 646, 1445
5874, 1325, 57, 699, 700
5875, 1003, 1108, 1402, 1107
5876, 819, 815, 1153, 1154
5877, 1094, 1153, 1519, 687
5878, 1094, 1519, 1151, 1350
5879, 1323, 644, 699, 56
5880, 56, 644, 55, 1323
5881, 1582, 644, 645, 648
5882, 1073, 1226, 1212, 977
5883, 1356, 1014, 1060, 1468
5884, 1296, 54, 697, 634
5885, 1011, 775, 1337, 401
5886, 1560, 1211, 1569, 346
5887, 758, 600, 624, 599
5888, 1296, 634, 645, 698
5889, 1296, 55, 634, 698
5890, 1582, 644, 698, 645
5891, 1313, 74, 642, 640
5892, 1011, 401, 1337, 426
5893, 1013, 1182, 424, 1011
5894, 1016, 1469, 1011, 1014
5895, 796, 1164, 944, 1165
5896, 223, 248, 1175, 1165
5897, 1069, 400, 1011, 1013
5898, 1469, 1011, 426, 425
5899, 1296, 697, 638, 634
5900, 1298, 694, 697, 53
5901, 772, 766, 1485, 764
5902, 1444, 696, 635, 52
5903, 883, 1305, 769, 770
5904, 694, 635, 1444, 636
5905, 1174, 1138, 225, 224
5906, 1010, 770, 883, 856
5907, 803, 1016, 1011, 1014
5908, 1448, 696, 632, 631
5909, 776, 726, 1354, 1353
5910, 351, 1209, 327, 326
5911, 1209, 1584, 1433, 1481
5912, 1012, 1154, 1223, 1153
5913, 897, 1481, 1433, 1486
5914, 1524, 49, 50, 628
5915, 1433, 1481, 324, 349
5916, 1223, 630, 632, 629
5917, 1524, 50, 627, 628
5918, 1584, 325, 1433, 324
5919, 1223, 695, 630, 629
5920, 1433, 349, 1486, 1481
5921, 1285, 1246, 1396, 206
5922, 632, 1448, 1223, 1533
5923, 1574, 1579, 1202, 328
5924, 1093, 70, 705, 71
5925, 1093, 705, 682, 681
5926, 1304, 1328, 1454, 1327
5927, 1202, 1322, 1579, 1198
5928, 851, 326, 1584, 301
5929, 1294, 581, 606, 605
5930, 648, 700, 1325, 699
5931, 849, 302, 852, 301
5932, 854, 1207, 1322, 890
5933, 1198, 1579, 1202, 1574
5934, 647, 648, 700, 1325
5935, 961, 956, 1422, 1255
5936, 1315, 1349, 1580, 1084
5937, 1485, 38, 771, 37
5938, 713, 712, 710, 716
5939, 1579, 1208, 1574, 1198
5940, 506, 929, 1001, 531
5941, 1446, 643, 642, 641
5942, 1580, 595, 619, 594
5943, 1251, 1421, 1551, 1548
5944, 1018, 533, 1025, 508
5945, 1078, 677, 670, 674
5946, 929, 930, 1023, 931
5947, 559, 930, 1494, 1023
5948, 930, 534, 1023, 559
5949, 930, 931, 532, 557
5950, 930, 534, 1018, 1023
5951, 1323, 699, 57, 56
5952, 1075, 677, 674, 673
5953, 643, 637, 1446, 640
5954, 1111, 673, 674, 658
5955, 1271, 616, 615, 591
5956, 1421, 197, 1551, 1548
5957, 1313, 74, 640, 75
5958, 930, 557, 1494, 931
5959, 1181, 1070, 397, 422
5960, 1448, 992, 1444, 631
5961, 1524, 1154, 720, 1448
5962, 1421, 172, 1420, 1562
5963, 806, 1133, 1181, 1013
5964, 1387, 656, 3, 659
5965, 1421, 197, 1420, 172
5966, 1313, 3, 642, 74
5967, 3, 676, 1387, 673
5968, 1075, 676, 688, 675
5969, 806, 1070, 1181, 920
5970, 1008, 771, 772, 377
5971, 1045, 963, 335, 1047
5972, 1063, 1184, 918, 805
5973, 1423, 544, 520, 545
5974, 1264, 971, 364, 365
5975, 1285, 1363, 1477, 1500
5976, 1008, 771, 377, 352
5977, 1009, 1134, 375, 1069
5978, 1499, 210, 185, 186
5979, 1502, 213, 238, 237
5980, 1367, 203, 30, 31
5981, 1262, 220, 1392, 1567
5982, 1321, 513, 538, 537
5983, 1008, 1007, 1507, 327
5984, 1423, 1557, 520, 519
5985, 1508, 469, 1346, 468
5986, 948, 283, 259, 284
5987, 896, 898, 986, 901
5988, 1030, 496, 495, 471
5989, 999, 996, 763, 1402
5990, 1249, 1241, 1245, 1250
5991, 1047, 359, 358, 334
5992, 1209, 1009, 350, 351
5993, 1289, 1464, 826, 825
5994, 578, 46, 1586, 603
5995, 1389, 1041, 578, 553
5996, 1047, 984, 725, 726
5997, 1054, 628, 47, 48
5998, 350, 1209, 1433, 1009
5999, 1343, 483, 459, 484
6000, 1563, 305, 1353, 330
6001, 1011, 425, 400, 401
6002, 1100, 1103, 1102, 566
6003, 1083, 595, 1312, 1328
6004, 1461, 616, 592, 617
6005, 1362, 1532, 1501, 1534
6006, 579, 48, 1224, 1054
6007, 1586, 578, 908, 46
6008, 1312, 571, 596, 595
6009, 1300, 598, 597, 573
6010, 997, 763, 519, 518
6011, 843, 1455, 1454, 995
6012, 1009, 351, 1008, 376
6013, 1235, 349, 374, 373
6014, 1033, 367, 343, 368
6015, 628, 1053, 1054, 603
6016, 1166, 392, 368, 393
6017, 1157, 1280, 1281, 1245
6018, 769, 626, 602, 627
6019, 345, 1510, 1028, 1569
6020, 1027, 1160, 943, 942
6021, 1236, 914, 1237, 1307
6022, 1053, 628, 1054, 1012
6023, 1368, 120, 1148, 103
6024, 628, 1054, 1012, 48
6025, 1168, 1170, 1169, 1371
6026, 856, 603, 627, 602
6027, 1240, 281, 280, 256
6028, 812, 1031, 941, 943
6029, 1577, 263, 239, 264
6030, 1231, 395, 1232, 1211
6031, 1028, 1157, 1280, 1279
6032, 1207, 254, 35, 34
6033, 1227, 1498, 160, 159
6034, 1190, 1227, 185, 184
6035, 1054, 603, 1053, 1586
6036, 1525, 1555, 1415, 125
6037, 1584, 300, 324, 299
6038, 1586, 602, 578, 603
6039, 1571, 338, 313, 314
6040, 1040, 45, 529, 46
6041, 1027, 1032, 1281, 1279
6042, 1040, 1587, 1001, 504
6043, 1232, 1167, 345, 370
6044, 883, 602, 578, 1586
6045, 839, 1530, 1558, 121
6046, 1166, 1232, 1167, 1029
6047, 1167, 1029, 369, 1166
6048, 1530, 115, 1326, 1398
6049, 1041, 1287, 1040, 906
6050, 1551, 1165, 222, 223
6051, 603, 628, 47, 1054
6052, 1269, 173, 1422, 1268
6053, 492, 1403, 516, 1004
6054, 1147, 1140, 1404, 1406
6055, 784, 1301, 1038, 1303
6056, 1056, 1214, 1347, 1407
6057, 1290, 480, 504, 823
6058, 1059, 911, 874, 1061
6059, 1101, 1089, 1492, 1271
6060, 1236, 479, 1307, 43
6061, 1081, 1082, 1461, 1103
6062, 1456, 497, 1564, 496
6063, 1126, 332, 357, 356
6064, 1184, 1133, 1180, 920
6065, 950, 951, 867, 1573
6066, 986, 1198, 1574, 1208
6067, 1513, 383, 358, 359
6068, 961, 1422, 956, 1268
6069, 884, 1455, 995, 1002
6070, 1410, 1267, 175, 176
6071, 542, 1005, 998, 1004
6072, 1270, 1175, 223, 224
6073, 774, 799, 897, 1009
6074, 1139, 1138, 225, 226
6075, 1270, 223, 1175, 1165
6076, 1520, 409, 1401, 408
6077, 860, 1319, 1316, 1321
6078, 1488, 41, 40, 404
6079, 1004, 492, 1107, 493
6080, 626, 769, 720, 627
6081, 1105, 647, 648, 649
6082, 1585, 478, 453, 41
6083, 806, 1070, 1231, 1211
6084, 42, 1238, 1306, 478
6085, 1308, 476, 452, 477
6086, 1128, 1393, 1124, 1129
6087, 1308, 1585, 477, 452
6088, 310, 335, 311, 962
6089, 857, 539, 515, 540
6090, 1005, 540, 515, 516
6091, 1277, 845, 1243, 1275
6092, 1557, 521, 520, 496
6093, 1308, 503, 502, 478
6094, 1504, 498, 523, 522
6095, 726, 1047, 1513, 358
6096, 725, 308, 1476, 333
6097, 1025, 532, 531, 507
6098, 1308, 477, 1585, 478
6099, 1511, 1042, 528, 44
6100, 1551, 1567, 1548, 222
6101, 479, 454, 1236, 823
6102, 1307, 43, 528, 503
6103, 1139, 199, 1268, 200
6104, 1357, 727, 308, 725
6105, 1251, 1567, 1551, 1165
6106, 1066, 397, 372, 373
6107, 865, 725, 984, 1357
6108, 332, 1354, 1126, 726
6109, 862, 868, 982, 864
6110, 1127, 1046, 1520, 1513
6111, 941, 868, 873, 721
6112, 44, 43, 1307, 479
6113, 1421, 1548, 1420, 197
6114, 1458, 611, 587, 612
6115, 1268, 175, 1267, 200
6116, 1424, 546, 1425, 547
6117, 950, 951, 1573, 762
6118, 1537, 1267, 1268, 175
6119, 1550, 211, 1499, 1373
6120, 1492, 590, 614, 589
6121, 44, 1042, 45, 1040
6122, 1511, 527, 528, 1042
6123, 1270, 1269, 1268, 198
6124, 1040, 44, 504, 45
6125, 1303, 549, 524, 525
6126, 1388, 575, 550, 551
6127, 948, 951, 762, 283
6128, 947, 1189, 795, 760
6129, 950, 762, 1573, 1240
6130, 1268, 1269, 173, 198
6131, 1270, 198, 1551, 1269
6132, 1389, 527, 1042, 552
6133, 889, 1358, 1577, 895
6134, 1100, 998, 858, 880
6135, 1250, 269, 270, 294
6136, 1232, 1166, 1233, 1029
6137, 1478, 1384, 1155, 1431
6138, 1453, 117, 1415, 1416
6139, 251, 252, 855, 276
6140, 1190, 185, 209, 184
6141, 1281, 317, 1435, 292
6142, 1555, 1530, 1558, 1219
6143, 1538, 1334, 1534, 136
6144, 1137, 227, 203, 228
6145, 1405, 153, 152, 83
6146, 1276, 1257, 707, 1503
6147, 1453, 1415, 117, 122
6148, 1384, 1478, 1429, 1383
6149, 710, 1526, 1525, 1345
6150, 1431, 140, 17, 86
6151, 1441, 290, 1435, 315
6152, 1033, 1266, 341, 342
6153, 1389, 552, 1042, 553
6154, 328, 1579, 1202, 303
6155, 1048, 1049, 1046, 1412
6156, 328, 35, 1202, 36
6157, 1043, 573, 1300, 1302
6158, 461, 1347, 1517, 462
6159, 1037, 914, 1061, 911
6160, 1208, 1579, 328, 327
6161, 832, 1340, 1135, 1136
6162, 1576, 489, 465, 490
6163, 1194, 466, 442, 467
6164, 1181, 398, 423, 422
6165, 1061, 874, 1468, 1204
6166, 1351, 1128, 1382, 1393
6167, 1508, 468, 443, 444
6168, 1482, 298, 297, 273
6169, 1202, 303, 35, 328
6170, 1356, 1060, 1355, 1468
6171, 1237, 1308, 1061, 1238
6172, 1142, 229, 34, 33
6173, 1322, 890, 34, 278
6174, 896, 900, 899, 901
6175, 771, 378, 377, 353
6176, 1480, 1481, 323, 324
6177, 1187, 249, 274, 273
6178, 17, 1431, 139, 140
6179, 958, 1329, 1138, 226
6180, 889, 1578, 895, 1577
6181, 890, 278, 33, 34
6182, 1155, 1345, 116, 106
6183, 1142, 34, 229, 254
6184, 232, 257, 760, 759
6185, 889, 1358, 1542, 1577
6186, 854, 790, 890, 891
6187, 891, 253, 277, 252
6188, 860, 1320, 1319, 1380
6189, 1331, 262, 261, 237
6190, 826, 831, 1393, 1289
6191, 1501, 1498, 1534, 160
6192, 949, 259, 235, 260
6193, 1026, 1475, 1343, 483
6194, 1196, 1213, 1195, 1570
6195, 791, 789, 1080, 1199
6196, 1279, 343, 318, 319
6197, 1238, 1306, 829, 42
6198, 1343, 1475, 458, 483
6199, 1588, 1343, 1426, 1129
6200, 1394, 1474, 1378, 510
6201, 942, 1510, 1569, 1028
6202, 1359, 1155, 1525, 1415
6203, 833, 843, 783, 841
6204, 1432, 350, 375, 374
6205, 1441, 266, 291, 290
6206, 1361, 1086, 1531, 1443
6207, 1055, 1215, 1056, 973
6208, 1205, 525, 524, 500
6209, 261, 260, 1331, 236
6210, 1114, 1467, 1463, 60
6211, 1387, 688, 676, 3
6212, 1535, 156, 1505, 155
6213, 1239, 255, 230, 231
6214, 1205, 499, 1528, 875
6215, 1510, 1483, 322, 321
6216, 1213, 1214, 1556, 1123
6217, 1167, 369, 345, 370
6218, 1317, 1382, 1316, 1351
6219, 1382, 1026, 1343, 484
6220, 372, 1235, 1560, 1210
6221, 344, 1029, 369, 1167
6222, 1158, 825, 1159, 1230
6223, 1127, 358, 1513, 383
6224, 1167, 344, 345, 369
6225, 1211, 370, 346, 371
6226, 1231, 394, 1167, 395
6227, 1519, 1294, 1541, 1151
6228, 796, 1175, 1164, 1165
6229, 380, 1162, 405, 381
6230, 760, 258, 233, 234
6231, 1162, 405, 381, 1161
6232, 949, 260, 235, 236
6233, 759, 257, 256, 232
6234, 1310, 204, 205, 229
6235, 127, 1398, 115, 1530
6236, 93, 92, 813, 131
6237, 1561, 1333, 713, 1332
6238, 1219, 1253, 1359, 1555
6239, 1258, 1247, 1191, 1190
6240, 1071, 193, 1487, 218
6241, 1342, 165, 164, 140
6242, 1342, 163, 138, 139
6243, 1342, 1531, 164, 165
6244, 1385, 191, 166, 167
6245, 1385, 167, 192, 191
6246, 1275, 845, 706, 1277
6247, 166, 1443, 1442, 1529
6248, 810, 942, 732, 1233
6249, 997, 1004, 518, 543
6250, 1532, 1534, 161, 160
6251, 1531, 1561, 164, 189
6252, 948, 260, 284, 259
6253, 1344, 1341, 1332, 1538
6254, 876, 1108, 910, 1217
6255, 979, 1413, 1434, 1409
6256, 920, 917, 420, 445
6257, 454, 1236, 823, 829
6258, 438, 1214, 463, 1516
6259, 877, 1456, 1030, 917
6260, 825, 828, 827, 1159
6261, 1029, 344, 1279, 1028
6262, 823, 480, 479, 455
6263, 430, 431, 1159, 828
6264, 1067, 1211, 1068, 1210
6265, 1185, 1013, 1182, 424
6266, 1260, 417, 1179, 1178
6267, 443, 1194, 1192, 923
6268, 875, 473, 498, 497
6269, 726, 1047, 333, 725
6270, 1465, 1214, 1213, 1215
6271, 1109, 1194, 1052, 1192
6272, 1518, 1484, 1576, 1130
6273, 1471, 1561, 189, 188
6274, 310, 863, 1330, 1476
6275, 1220, 1269, 1270, 1551
6276, 1086, 1561, 1531, 1471
6277, 1274, 846, 845, 1263
6278, 1451, 1549, 169, 1568
6279, 1333, 188, 1373, 187
6280, 1166, 1266, 1278, 1033
6281, 1542, 1472, 240, 239
6282, 1577, 240, 264, 239
6283, 960, 956, 1514, 1397
6284, 1244, 266, 241, 242
6285, 1521, 1522, 79, 97
6286, 839, 1369, 120, 1368
6287, 1245, 268, 243, 244
6288, 1244, 266, 242, 267
6289, 1521, 172, 1422, 1562
6290, 1410, 1404, 151, 1539
6291, 956, 1268, 1497, 1537
6292, 1549, 1386, 168, 193
6293, 1447, 1522, 1452, 1562
6294, 709, 707, 708, 718
6295, 1450, 1562, 171, 146
6296, 1164, 1186, 247, 248
6297, 1496, 1497, 1523, 149
6298, 1421, 1562, 1422, 172
6299, 1562, 171, 146, 147
6300, 244, 1241, 1249, 1242
6301, 1277, 1472, 1473, 215
6302, 1482, 1375, 1186, 272
6303, 656, 1387, 1313, 1106
6304, 860, 1104, 1090, 1380
6305, 1313, 656, 1446, 642
6306, 1298, 1296, 54, 697
6307, 1494, 582, 557, 558
6308, 967, 935, 1031, 1265
6309, 619, 1084, 1581, 1580
6310, 752, 838, 1091, 818
6311, 975, 584, 559, 560
6312, 757, 991, 1154, 720
6313, 1293, 606, 1350, 1294
6314, 1494, 558, 583, 582
6315, 320, 295, 319, 1028
6316, 1445, 639, 1582, 638
6317, 1323, 56, 1399, 55
6318, 826, 1393, 1022, 1289
6319, 1321, 1509, 514, 513
6320, 1086, 1561, 1342, 1531
6321, 1245, 292, 268, 293
6322, 239, 1542, 1577, 240
6323, 1183, 246, 1567, 247
6324, 1247, 1189, 946, 1246
6325, 1472, 1473, 215, 214
6326, 1530, 1558, 1219, 839
6327, 1333, 1373, 186, 187
6328, 1272, 190, 1443, 191
6329, 1562, 1420, 1252, 1450
6330, 1544, 1498, 90, 135
6331, 1544, 1543, 1534, 1344
6332, 1370, 1506, 132, 157
6333, 1266, 367, 1166, 1495
6334, 1273, 1272, 1443, 1442
6335, 1479, 1481, 348, 323
6336, 1538, 89, 1344, 88
6337, 1332, 1334, 137, 162
6338, 1341, 1345, 1431, 106
6339, 793, 790, 1143, 794
6340, 904, 897, 801, 1481
6341, 1551, 197, 1269, 198
6342, 1239, 1310, 230, 1311
6343, 1277, 241, 1244, 1542
6344, 889, 1577, 1441, 1572
6345, 144, 1451, 1449, 1430
6346, 712, 1558, 1525, 1526
6347, 1220, 1270, 1175, 1165
6348, 1383, 1386, 1385, 167
6349, 12, 145, 81, 82
6350, 762, 283, 1573, 282
6351, 951, 1573, 762, 283
6352, 1476, 309, 333, 308
6353, 762, 1573, 281, 282
6354, 822, 830, 829, 1238
6355, 822, 1061, 1237, 914
6356, 1182, 1355, 448, 449
6357, 1348, 1532, 1334, 1333
6358, 1232, 345, 1167, 344
6359, 1032, 317, 1279, 342
6360, 1179, 1194, 441, 442
6361, 1056, 1213, 1123, 1214
6362, 774, 799, 801, 897
6363, 721, 868, 873, 870
6364, 1009, 1432, 350, 375
6365, 1213, 1465, 1176, 1516
6366, 423, 1180, 448, 1182
6367, 398, 1066, 397, 1181
6368, 1016, 1014, 1356, 1469
6369, 920, 917, 445, 446
6370, 1060, 1308, 1014, 1061
6371, 445, 919, 420, 444
6372, 923, 919, 444, 1512
6373, 830, 1238, 1306, 829
6374, 422, 447, 1181, 920
6375, 1508, 444, 923, 919
6376, 1260, 443, 1194, 442
6377, 917, 471, 447, 1456
6378, 1352, 383, 408, 407
6379, 1214, 412, 1407, 1408
6380, 942, 1510, 1479, 1569
6381, 1357, 332, 308, 727
6382, 1059, 1062, 1063, 876
6383, 803, 778, 736, 804
6384, 1353, 331, 1354, 330
6385, 798, 731, 801, 802
6386, 1134, 399, 1066, 374
6387, 1009, 376, 1069, 375
6388, 1029, 344, 368, 343
6389, 1584, 301, 861, 851
6390, 773, 774, 1007, 1507
6391, 1507, 352, 327, 328
6392, 1485, 773, 37, 771
6393, 1134, 1066, 373, 374
6394, 1347, 436, 1407, 437
6395, 807, 1133, 920, 806
6396, 395, 1070, 1211, 1231
6397, 1520, 1401, 1352, 408
6398, 1549, 194, 1487, 193
6399, 1241, 243, 1242, 244
6400, 1263, 1248, 847, 938
6401, 1383, 1386, 167, 168
6402, 1273, 1384, 1360, 1390
6403, 1362, 716, 1543, 1171
6404, 1383, 1385, 166, 167
6405, 768, 1054, 1553, 1224
6406, 1288, 1282, 1553, 908
6407, 775, 377, 772, 924
6408, 1553, 1054, 1583, 1224
6409, 1541, 605, 604, 580
6410, 1499, 1532, 186, 185
6411, 720, 1524, 769, 1012
6412, 1448, 720, 1524, 1533
6413, 1313, 1446, 640, 642
6414, 1350, 1094, 685, 1093
6415, 1153, 692, 76, 687
6416, 1300, 597, 1400, 1327
6417, 908, 1389, 883, 1305
6418, 596, 597, 1454, 1327
6419, 758, 599, 719, 600
6420, 1323, 698, 1582, 644
6421, 1445, 638, 1582, 1296
6422, 1328, 595, 1312, 596
6423, 1444, 636, 1297, 694
6424, 1339, 1399, 1324, 1327
6425, 1105, 1325, 648, 647
6426, 1335, 766, 40, 428
6427, 632, 1222, 630, 1223
6428, 767, 40, 379, 1488
6429, 1137, 228, 1291, 1364
6430, 1371, 1505, 156, 181
6431, 1405, 102, 1527, 95
6432, 29, 1406, 1405, 153
6433, 1496, 6, 151, 150
6434, 766, 378, 924, 772
6435, 1530, 1555, 127, 1415
6436, 1071, 192, 1386, 193
6437, 1071, 191, 1385, 192
6438, 1450, 1452, 1447, 1449
6439, 945, 944, 903, 1186
6440, 353, 1507, 352, 771
6441, 1493, 428, 1335, 427
6442, 1433, 1009, 1432, 350
6443, 873, 721, 967, 941
6444, 771, 38, 772, 378
6445, 1199, 1239, 1240, 1311
6446, 1479, 1481, 1486, 348
6447, 1203, 279, 1200, 280
6448, 1432, 1486, 1433, 349
6449, 1359, 714, 1219, 712
6450, 1166, 1495, 367, 392
6451, 865, 1357, 283, 308
6452, 1486, 348, 1481, 349
6453, 1067, 1233, 802, 1068
6454, 767, 766, 1485, 39
6455, 1232, 1211, 395, 370
6456, 1192, 1108, 1107, 1402
6457, 1213, 1516, 1570, 1214
6458, 318, 1279, 1280, 317
6459, 877, 918, 1184, 917
6460, 1118, 1260, 1178, 1495
6461, 1234, 1401, 1230, 1229
6462, 1050, 1230, 1161, 1127
6463, 1233, 1569, 1211, 1232
6464, 812, 1032, 1033, 1065
6465, 979, 980, 968, 972
6466, 1485, 766, 772, 38
6467, 1066, 399, 1185, 398
6468, 1118, 1178, 1266, 1495
6469, 1263, 217, 1243, 1275
6470, 944, 1164, 1186, 1183
6471, 1493, 1337, 402, 427
6472, 1370, 1372, 1228, 1371
6473, 1255, 1398, 1452, 1416
6474, 714, 739, 715, 718
6475, 863, 963, 864, 1476
6476, 811, 1044, 733, 777
6477, 1233, 1067, 1211, 1068
6478, 1408, 413, 1214, 412
6479, 389, 971, 388, 1177
6480, 1215, 1177, 414, 413
6481, 1158, 1488, 404, 827
6482, 1029, 1033, 368, 1166
6483, 1495, 1266, 1278, 1166
6484, 1409, 413, 1177, 1215
6485, 1348, 1344, 1332, 1334
6486, 1556, 1130, 1196, 1123
6487, 1135, 1306, 1488, 827
6488, 1557, 1346, 1402, 877
6489, 877, 1030, 919, 917
6490, 1557, 495, 1030, 496
6491, 1030, 1346, 470, 495
6492, 1272, 1473, 190, 215
6493, 444, 919, 420, 1512
6494, 1030, 1456, 1564, 496
6495, 1030, 917, 471, 446
6496, 1460, 560, 1319, 561
6497, 1024, 100, 1552, 104
6498, 1071, 1275, 216, 217
6499, 929, 1284, 1290, 1001
6500, 996, 876, 1564, 1402
6501, 1468, 1204, 476, 1308
6502, 823, 829, 455, 454
6503, 1072, 1379, 975, 977
6504, 1071, 1487, 193, 1386
6505, 1318, 1351, 1316, 1378
6506, 1025, 930, 929, 532
6507, 821, 1135, 1306, 830
6508, 1347, 437, 1407, 1214
6509, 1019, 1026, 484, 509
6510, 877, 1564, 1030, 1456
6511, 1543, 1362, 1024, 1534
6512, 1561, 1373, 1503, 707
6513, 1171, 1526, 1543, 1024
6514, 1394, 512, 1509, 1474
6515, 1509, 1474, 1321, 1316
6516, 1030, 1346, 469, 470
6517, 1192, 443, 1508, 468
6518, 1107, 1194, 468, 467
6519, 916, 808, 923, 918
6520, 1082, 593, 569, 594
6521, 1504, 1425, 1564, 497
6522, 877, 876, 1402, 1564
6523, 1557, 519, 494, 495
6524, 1549, 1391, 1568, 1451
6525, 100, 1498, 90, 1024
6526, 36, 1547, 1574, 37
6527, 1574, 37, 1507, 36
6528, 773, 1547, 329, 37
6529, 1203, 1547, 1202, 279
6530, 728, 925, 1466, 1231
6531, 1242, 1262, 220, 219
6532, 767, 766, 39, 40
6533, 1563, 1353, 1354, 330
6534, 1133, 1182, 1016, 1184
6535, 1050, 780, 1161, 1158
6536, 1322, 303, 35, 1202
6537, 937, 945, 899, 1377
6538, 1563, 1547, 985, 1545
6539, 1563, 354, 1485, 329
6540, 790, 252, 227, 228
6541, 1239, 759, 256, 231
6542, 1164, 248, 1175, 249
6543, 1543, 118, 1024, 123
6544, 1033, 341, 1266, 1065
6545, 1026, 1343, 484, 483
6546, 1234, 1159, 407, 432
6547, 1520, 1401, 1412, 1046
6548, 915, 1042, 1041, 1389
6549, 1177, 1051, 970, 1055
6550, 1058, 1049, 1412, 1229
6551, 822, 829, 823, 1236
6552, 1218, 1196, 1108, 1317
6553, 1508, 923, 1192, 877
6554, 1369, 120, 1368, 102
6555, 1410, 1496, 150, 1537
6556, 6, 151, 96, 80
6557, 151, 96, 80, 1539
6558, 1404, 1539, 152, 151
6559, 1539, 83, 152, 96
6560, 1412, 978, 1407, 1414
6561, 1171, 1540, 1558, 1526
6562, 39, 767, 40, 379
6563, 1306, 41, 1488, 429
6564, 429, 454, 430, 827
6565, 814, 1151, 1099, 1153
6566, 1150, 1074, 756, 1075
6567, 605, 1294, 1541, 1519
6568, 1096, 1293, 1350, 1151
6569, 1541, 580, 1294, 605
6570, 1350, 685, 72, 71
6571, 1515, 1293, 581, 582
6572, 1515, 1116, 931, 556
6573, 1293, 1350, 606, 1096
6574, 1519, 72, 684, 73
6575, 1524, 1533, 629, 1223
6576, 1226, 1541, 1117, 1515
6577, 1541, 1553, 1583, 1224
6578, 1093, 71, 705, 681
6579, 974, 608, 1095, 607
6580, 890, 1142, 34, 33
6581, 1310, 1396, 230, 205
6582, 1239, 1199, 1396, 1310
6583, 1566, 1239, 231, 759
6584, 1547, 279, 36, 1202
6585, 304, 1547, 279, 36
6586, 958, 201, 1139, 955
6587, 1477, 155, 1505, 180
6588, 1500, 1477, 180, 179
6589, 1505, 1477, 1169, 1173
6590, 1148, 1527, 1149, 1368
6591, 1535, 131, 1506, 156
6592, 1139, 1138, 224, 225
6593, 1370, 1372, 157, 132
6594, 1370, 132, 1536, 1372
6595, 1031, 1265, 315, 1065
6596, 949, 236, 1156, 1331
6597, 966, 962, 1575, 312
6598, 937, 899, 1160, 1377
6599, 1169, 1246, 1191, 1087
6600, 798, 1006, 802, 799
6601, 963, 964, 335, 336
6602, 1409, 972, 363, 362
6603, 968, 1264, 971, 972
6604, 1531, 189, 1471, 1561
6605, 1531, 1443, 1473, 190
6606, 1342, 1531, 1561, 164
6607, 168, 1428, 1429, 1386
6608, 1255, 1253, 1416, 1256
6609, 1442, 1529, 1384, 1383
6610, 86, 16, 85, 1478
6611, 1431, 141, 1529, 140
6612, 1442, 1361, 1384, 1529
6613, 141, 1529, 166, 1383
6614, 1453, 112, 1155, 122
6615, 1327, 1399, 621, 597
6616, 1540, 1370, 1552, 1024
6617, 55, 1400, 622, 1399
6618, 1302, 1300, 1043, 1454
6619, 1324, 595, 1328, 596
6620, 720, 600, 601, 625
6621, 1077, 1122, 1489, 1098
6622, 883, 601, 769, 1305
6623, 1083, 595, 1580, 594
6624, 1083, 1580, 1084, 594
6625, 1156, 237, 1331, 236
6626, 188, 1373, 1503, 1561
6627, 1499, 186, 1532, 1373
6628, 1333, 1373, 188, 1561
6629, 1502, 895, 237, 238
6630, 1550, 1190, 1499, 211
6631, 1502, 212, 1503, 213
6632, 1149, 29, 1527, 129
6633, 101, 94, 28, 129
6634, 129, 94, 28, 29
6635, 1368, 1527, 1405, 102
6636, 1535, 1477, 1366, 154
6637, 714, 707, 717, 713
6638, 1527, 1149, 813, 840
6639, 1527, 29, 95, 94
6640, 130, 1535, 131, 813
6641, 613, 1554, 588, 612
6642, 1350, 1094, 1093, 1151
6643, 974, 1122, 609, 975
6644, 1112, 654, 655, 663
6645, 1490, 665, 666, 664
6646, 1002, 569, 1083, 994
6647, 1436, 588, 563, 564
6648, 1581, 1463, 618, 59
6649, 1454, 1327, 1328, 596
6650, 1324, 1399, 621, 1327
6651, 1580, 1339, 1324, 1328
6652, 1248, 1249, 1374, 1250
6653, 1577, 288, 263, 264
6654, 1502, 1577, 895, 238
6655, 1578, 287, 966, 1575
6656, 877, 1346, 1402, 1508
6657, 1304, 1327, 1339, 1328
6658, 802, 942, 1479, 1068
6659, 1321, 859, 1509, 1316
6660, 1320, 1460, 1381, 1319
6661, 1003, 763, 1004, 1107
6662, 859, 1130, 1317, 882
6663, 1474, 537, 1319, 536
6664, 1460, 1381, 1395, 1320
6665, 977, 1091, 1072, 1379
6666, 873, 1578, 966, 1575
6667, 812, 1064, 1065, 969
6668, 1357, 281, 1573, 282
6669, 1047, 1513, 358, 359
6670, 1578, 1331, 262, 287
6671, 1118, 723, 810, 969
6672, 965, 1265, 338, 1571
6673, 889, 1572, 1441, 935
6674, 1578, 1331, 287, 1575
6675, 1272, 1473, 1443, 190
6676, 815, 1224, 768, 1541
6677, 763, 1557, 519, 494
6678, 1403, 491, 1193, 492
6679, 1491, 63, 665, 64
6680, 1216, 701, 663, 661
6681, 1436, 589, 1459, 588
6682, 1072, 1458, 1437, 975
6683, 1333, 1334, 162, 161
6684, 1341, 1431, 87, 106
6685, 1332, 1342, 1561, 163
6686, 1332, 1333, 162, 163
6687, 1342, 1561, 163, 164
6688, 707, 1373, 1333, 1561
6689, 780, 1162, 1485, 1354
6690, 366, 1266, 341, 365
6691, 938, 937, 1248, 944
6692, 1193, 1003, 1004, 1107
6693, 364, 363, 971, 1264
6694, 1473, 215, 1272, 1275
6695, 1572, 966, 288, 313
6696, 1571, 313, 1572, 314
6697, 943, 1157, 1281, 936
6698, 1510, 320, 1028, 295
6699, 339, 1264, 1265, 338
6700, 1370, 1506, 1536, 132
6701, 1221, 1183, 1567, 1165
6702, 1227, 1228, 1372, 158
6703, 1499, 186, 1373, 211
6704, 1188, 1189, 207, 208
6705, 1566, 1396, 1246, 206
6706, 1285, 207, 1188, 1246
6707, 712, 710, 716, 1526
6708, 1249, 220, 244, 1242
6709, 981, 1201, 939, 982
6710, 360, 359, 1513, 1047
6711, 1520, 1401, 409, 1412
6712, 946, 759, 1246, 1189
6713, 964, 972, 362, 337
6714, 1409, 1434, 362, 387
6715, 878, 962, 310, 1575
6716, 1485, 773, 329, 37
6717, 1470, 1588, 434, 435
6718, 1059, 1088, 1063, 1062
6719, 1409, 1434, 972, 362
6720, 1215, 1214, 413, 1465
6721, 1335, 40, 767, 1488
6722, 965, 338, 972, 337
6723, 1413, 1434, 387, 386
6724, 1542, 1577, 1502, 239
6725, 214, 1502, 1503, 213
6726, 1550, 1257, 1373, 1499
6727, 1038, 874, 875, 876
6728, 1239, 946, 1246, 1199
6729, 1550, 1502, 237, 212
6730, 1502, 214, 1472, 239
6731, 212, 1503, 188, 1373
6732, 1243, 933, 1542, 1244
6733, 265, 240, 264, 1577
6734, 1402, 1508, 1346, 1107
6735, 1188, 1228, 182, 1371
6736, 1190, 1499, 185, 1501
6737, 983, 1047, 984, 864
6738, 1427, 1254, 1253, 1359
6739, 948, 761, 949, 259
6740, 717, 1532, 1333, 1373
6741, 889, 1578, 1577, 1572
6742, 1285, 1505, 1371, 181
6743, 1333, 163, 1561, 188
6744, 1109, 1195, 1403, 882
6745, 1156, 1190, 1550, 236
6746, 1532, 1333, 186, 161
6747, 753, 749, 1491, 1459
6748, 1440, 1490, 1078, 669
6749, 1076, 671, 672, 679
6750, 1107, 493, 1346, 763
6751, 1438, 1490, 65, 64
6752, 1457, 1437, 612, 1554
6753, 749, 1491, 1459, 1462
6754, 1120, 816, 1151, 1097
6755, 1055, 1057, 1213, 1119
6756, 281, 762, 257, 1240
6757, 281, 1203, 1546, 1240
6758, 1231, 728, 1233, 1166
6759, 1239, 1311, 230, 255
6760, 950, 1239, 759, 1240
6761, 1200, 1311, 255, 254
6762, 1546, 867, 985, 1357
6763, 1278, 1233, 728, 1166
6764, 285, 948, 878, 260
6765, 1515, 1226, 1116, 1117
6766, 1286, 1040, 1587, 1001
6767, 1142, 1311, 254, 229
6768, 1321, 1474, 537, 1319
6769, 1286, 1040, 1001, 1287
6770, 783, 905, 991, 1305
6771, 1041, 908, 46, 1287
6772, 1282, 929, 1283, 1116
6773, 1379, 1381, 559, 1023
6774, 558, 930, 557, 1494
6775, 948, 259, 949, 260
6776, 1187, 1164, 1174, 249
6777, 1515, 1226, 1541, 1294
6778, 557, 582, 1494, 931
6779, 1515, 931, 976, 582
6780, 1287, 1553, 1117, 1282
6781, 1395, 1381, 1460, 560
6782, 1509, 1474, 512, 1321
6783, 787, 1419, 996, 876
6784, 569, 1082, 1083, 994
6785, 857, 1005, 859, 858
6786, 512, 1321, 513, 1509
6787, 761, 946, 947, 1189
6788, 927, 944, 742, 796
6789, 763, 1557, 996, 519
6790, 1417, 1460, 1458, 1395
6791, 974, 584, 976, 975
6792, 1395, 975, 585, 586
6793, 819, 1446, 992, 1313
6794, 880, 993, 1081, 1082
6795, 1395, 585, 560, 561
6796, 561, 1458, 586, 562
6797, 610, 1458, 586, 975
6798, 745, 748, 1106, 1105
6799, 1142, 890, 790, 253
6800, 1437, 1554, 1457, 1072
6801, 1458, 975, 610, 1437
6802, 783, 905, 907, 842
6803, 1457, 1459, 1554, 588
6804, 1323, 1445, 1582, 1296
6805, 768, 1154, 1288, 770
6806, 1106, 641, 1446, 656
6807, 1467, 650, 61, 60
6808, 1114, 701, 650, 663
6809, 1315, 1084, 1581, 1463
6810, 1526, 1345, 113, 116
6811, 1365, 1291, 1367, 1292
6812, 1310, 789, 1364, 1142
6813, 794, 1329, 226, 251
6814, 1410, 1267, 176, 955
6815, 1291, 203, 1367, 31
6816, 274, 861, 250, 1187
6817, 1139, 224, 1270, 199
6818, 1540, 1558, 1526, 123
6819, 753, 1554, 1072, 1417
6820, 743, 751, 747, 749
6821, 905, 1212, 817, 1288
6822, 1298, 1296, 623, 54
6823, 1461, 1271, 591, 616
6824, 1467, 617, 1463, 60
6825, 1439, 1295, 610, 67
6826, 838, 990, 841, 817
6827, 1341, 1332, 137, 138
6828, 1332, 1538, 1334, 1344
6829, 137, 1538, 1334, 1332
6830, 1362, 1501, 1498, 1534
6831, 1344, 113, 1345, 106
6832, 1543, 1345, 1344, 113
6833, 1529, 1342, 1531, 1361
6834, 1298, 638, 1296, 697
6835, 1479, 347, 1560, 1559
6836, 1233, 806, 728, 1231
6837, 1028, 1377, 1157, 1027
6838, 1543, 1526, 1345, 113
6839, 1479, 1559, 322, 347
6840, 1246, 1191, 1087, 1247
6841, 1510, 1377, 942, 1376
6842, 294, 1028, 295, 1250
6843, 1188, 1169, 1228, 1371
6844, 1563, 329, 773, 1547
6845, 806, 1233, 1067, 1211
6846, 1263, 218, 1243, 217
6847, 1560, 1559, 347, 346
6848, 1569, 1211, 345, 346
6849, 1027, 943, 1160, 1157
6850, 865, 1357, 867, 1573
6851, 1070, 396, 1210, 397
6852, 1482, 322, 298, 323
6853, 1544, 90, 1024, 118
6854, 1362, 1501, 1227, 1498
6855, 1187, 1482, 273, 274
6856, 1209, 897, 1481, 1433
6857, 1376, 904, 1479, 1483
6858, 945, 1482, 1375, 1186
6859, 1534, 716, 1543, 1362
6860, 1207, 1200, 279, 254
6861, 929, 1001, 1116, 1287
6862, 1151, 1519, 1224, 1541
6863, 1314, 654, 1114, 651
6864, 1117, 1001, 1000, 554
6865, 556, 581, 557, 931
6866, 1046, 726, 1044, 1047
6867, 1412, 410, 409, 385
6868, 1026, 1393, 1343, 1475
6869, 1476, 1047, 984, 725
6870, 1045, 1413, 1048, 1414
6871, 1045, 1046, 1047, 360
6872, 962, 1575, 312, 311
6873, 964, 1434, 362, 972
6874, 964, 1434, 361, 362
6875, 1045, 360, 964, 361
6876, 980, 972, 979, 965
6877, 962, 1575, 311, 310
6878, 335, 1045, 360, 964
6879, 965, 964, 337, 972
6880, 896, 904, 902, 899
6881, 904, 1483, 1482, 1481
6882, 323, 298, 1482, 1480
6883, 248, 1175, 1165, 1164
6884, 1416, 1359, 1415, 1453
6885, 1187, 273, 1482, 1186
6886, 946, 1189, 761, 759
6887, 1481, 1480, 1584, 324
6888, 1039, 1038, 1206, 1303
6889, 1511, 1587, 1307, 914
6890, 1451, 1568, 170, 171
6891, 1585, 1306, 41, 1338
6892, 1430, 1451, 1427, 1428
6893, 1335, 1338, 453, 41
6894, 1468, 1014, 1308, 451
6895, 824, 912, 1393, 1128
6896, 1335, 1488, 1306, 41
6897, 1220, 1551, 1421, 1269
6898, 1523, 8, 148, 9
6899, 1390, 1386, 1071, 1385
6900, 1263, 1487, 1261, 219
6901, 1549, 1428, 1386, 1391
6902, 717, 1170, 741, 715
6903, 1086, 1473, 1531, 1443
6904, 1071, 1272, 191, 216
6905, 1254, 1428, 1451, 1391
6906, 1386, 1385, 167, 192
6907, 1352, 383, 1127, 1520
6908, 799, 1009, 775, 1069
6909, 979, 965, 972, 964
6910, 963, 1476, 310, 335
6911, 1008, 376, 775, 1009
6912, 1254, 1251, 1391, 1568
6913, 852, 898, 897, 1007
6914, 1207, 890, 1142, 34
6915, 771, 772, 377, 378
6916, 919, 916, 917, 921
6917, 1286, 915, 1511, 1040
6918, 1391, 1568, 1392, 1261
6919, 1557, 1346, 1030, 495
6920, 1425, 497, 496, 1564
6921, 1428, 143, 1430, 144
6922, 13, 1430, 143, 144
6923, 1430, 144, 13, 82
6924, 1449, 144, 82, 145
6925, 1430, 14, 143, 98
6926, 851, 861, 1480, 903
6927, 1429, 1383, 1478, 143
6928, 1242, 1262, 1248, 1249
6929, 813, 1527, 103, 101
6930, 840, 1540, 110, 114
6931, 92, 110, 813, 1506
6932, 92, 813, 131, 1506
6933, 1549, 1261, 194, 1568
6934, 872, 895, 1578, 1331
6935, 1535, 1505, 156, 1506
6936, 753, 1417, 1459, 1554
6937, 755, 1295, 1072, 1437
6938, 1438, 613, 1491, 64
6939, 1459, 1554, 588, 613
6940, 1091, 1073, 977, 1072
6941, 1244, 1245, 292, 267
6942, 1457, 563, 1436, 588
6943, 1492, 1459, 589, 614
6944, 814, 1099, 1150, 1152
6945, 743, 752, 754, 756
6946, 1490, 1491, 753, 1216
6947, 1467, 1462, 701, 1114
6948, 753, 1459, 1491, 1554
6949, 1114, 747, 1467, 1462
6950, 61, 1462, 701, 1467
6951, 1459, 614, 1492, 1462
6952, 1491, 614, 1462, 63
6953, 1462, 616, 1467, 61
6954, 1391, 1386, 1549, 1487
6955, 1548, 1420, 197, 196
6956, 1392, 195, 1568, 196
6957, 243, 218, 1243, 1242
6958, 234, 947, 760, 259
6959, 1163, 950, 1573, 1240
6960, 886, 872, 1331, 895
6961, 1331, 1575, 285, 286
6962, 878, 1331, 1575, 285
6963, 1041, 45, 578, 553
6964, 1041, 45, 553, 1042
6965, 1041, 1040, 46, 45
6966, 1283, 929, 1023, 931
6967, 1041, 1040, 915, 906
6968, 1040, 1286, 1587, 1511
6969, 1511, 1587, 1040, 44
6970, 1511, 1309, 502, 527
6971, 1237, 503, 1511, 502
6972, 44, 1511, 1042, 1040
6973, 1553, 554, 1583, 46
6974, 724, 941, 812, 723
6975, 1069, 1011, 400, 401
6976, 1338, 1337, 452, 451
6977, 1308, 1061, 1238, 1338
6978, 978, 1056, 973, 1035
6979, 1037, 1206, 1204, 1309
6980, 1338, 1306, 41, 1335
6981, 1134, 375, 1069, 400
6982, 1416, 1398, 128, 127
6983, 1384, 1529, 1431, 1478
6984, 1453, 84, 112, 105
6985, 1526, 1558, 126, 123
6986, 737, 1219, 1253, 1359
6987, 1045, 386, 1414, 385
6988, 1470, 434, 1401, 409
6989, 421, 1070, 420, 920
6990, 462, 1214, 1347, 1556
6991, 1520, 1412, 384, 1046
6992, 1412, 1046, 385, 384
6993, 1234, 825, 1159, 432
6994, 1408, 1413, 412, 1407
6995, 1414, 386, 1413, 411
6996, 387, 412, 1409, 1413
6997, 387, 412, 388, 1409
6998, 869, 870, 964, 965
6999, 1196, 1108, 1317, 882
7000, 825, 1464, 457, 1475
7001, 807, 1184, 917, 920
7002, 828, 827, 430, 455
7003, 828, 827, 455, 829
7004, 827, 454, 430, 455
7005, 1546, 867, 1357, 1573
7006, 1352, 1159, 1234, 1230
7007, 825, 1159, 432, 431
7008, 1131, 1343, 831, 1475
7009, 1161, 406, 382, 1159
7010, 827, 1158, 405, 404
7011, 827, 1488, 404, 429
7012, 338, 965, 972, 1264
7013, 1414, 1407, 410, 411
7014, 965, 962, 312, 337
7015, 436, 435, 1347, 1407
7016, 978, 811, 1048, 1049
7017, 1343, 434, 1588, 459
7018, 1571, 967, 1572, 966
7019, 1031, 1032, 1065, 1435
7020, 1445, 1582, 639, 646
7021, 895, 1577, 1578, 263
7022, 1502, 1577, 238, 239
7023, 263, 288, 1577, 1578
7024, 1577, 895, 238, 263
7025, 315, 1571, 339, 1265
7026, 444, 1030, 1508, 469
7027, 916, 922, 807, 920
7028, 925, 923, 1260, 418
7029, 921, 919, 1512, 420
7030, 1466, 728, 1166, 1495
7031, 1572, 314, 1441, 935
7032, 1217, 877, 1192, 918
7033, 1131, 1230, 1234, 825
7034, 1015, 1061, 1060, 1014
7035, 935, 314, 1441, 315
7036, 1557, 1346, 495, 494
7037, 519, 996, 1423, 1557
7038, 843, 1304, 841, 995
7039, 996, 1564, 1557, 1402
7040, 1003, 999, 763, 1402
7041, 1557, 1564, 1425, 496
7042, 1557, 496, 1425, 521
7043, 1343, 1382, 1129, 1393
7044, 1517, 1556, 1347, 1129
7045, 436, 1347, 1588, 461
7046, 1517, 1426, 461, 486
7047, 1048, 1044, 811, 1045
7048, 435, 1347, 1588, 436
7049, 882, 1003, 1109, 1108
7050, 1578, 288, 966, 287
7051, 1394, 485, 1426, 486
7052, 1556, 1214, 463, 462
7053, 1470, 409, 1412, 410
7054, 1470, 410, 1407, 435
7055, 760, 1189, 232, 759
7056, 1190, 185, 1499, 210
7057, 1188, 1228, 183, 182
7058, 878, 285, 1575, 310
7059, 717, 1499, 1501, 1532
7060, 1306, 478, 41, 42
7061, 1585, 478, 41, 1306
7062, 1306, 827, 429, 1488
7063, 1338, 1238, 1585, 1306
7064, 830, 1238, 1338, 1306
7065, 429, 454, 827, 1306
7066, 1306, 454, 829, 42
7067, 1401, 1046, 1520, 1127
7068, 1355, 875, 1456, 473
7069, 966, 312, 1575, 287
7070, 1310, 1080, 1396, 1363
7071, 1396, 1239, 1310, 230
7072, 265, 1542, 1441, 266
7073, 1239, 1240, 256, 759
7074, 1239, 255, 1240, 1311
7075, 946, 1239, 1246, 759
7076, 974, 584, 975, 609
7077, 583, 976, 584, 1494
7078, 1295, 975, 1437, 610
7079, 584, 976, 975, 1494
7080, 1125, 1034, 1057, 1123
7081, 1072, 1295, 975, 1437
7082, 1180, 447, 1456, 917
7083, 611, 1437, 1439, 612
7084, 1295, 609, 1122, 975
7085, 1350, 1294, 606, 605
7086, 1295, 1122, 609, 68
7087, 1405, 153, 83, 95
7088, 1405, 83, 1539, 108
7089, 1405, 1539, 83, 152
7090, 1576, 490, 1484, 489
7091, 1195, 466, 1403, 465
7092, 1527, 1149, 1405, 29
7093, 1536, 1372, 133, 1552
7094, 1536, 1506, 131, 132
7095, 1538, 1544, 1344, 89
7096, 1362, 1552, 1024, 1498
7097, 1576, 1403, 1484, 490
7098, 840, 110, 1536, 1506
7099, 1540, 1558, 123, 114
7100, 1024, 1552, 100, 1498
7101, 133, 100, 91, 1552
7102, 24, 133, 100, 91
7103, 1586, 1010, 46, 908
7104, 1054, 46, 1583, 47
7105, 1576, 465, 1403, 490
7106, 1293, 1120, 1151, 1096
7107, 905, 1288, 817, 770
7108, 906, 1040, 1286, 1287
7109, 1197, 1141, 1207, 1198
7110, 1329, 251, 855, 250
7111, 1202, 1201, 1547, 1203
7112, 892, 848, 887, 1258
7113, 1243, 1275, 217, 242
7114, 1199, 1396, 1310, 1080
7115, 1201, 985, 1546, 867
7116, 1208, 328, 1507, 327
7117, 1021, 1474, 1319, 535
7118, 1521, 1422, 1497, 1522
7119, 1420, 171, 1562, 172
7120, 1420, 1568, 1450, 171
7121, 1521, 9, 147, 10
7122, 1521, 9, 1523, 148
7123, 173, 172, 1269, 1422
7124, 1386, 168, 1383, 1429
7125, 1447, 1449, 81, 146
7126, 143, 1428, 1429, 168
7127, 1315, 1324, 1105, 1325
7128, 1323, 699, 1325, 57
7129, 651, 1314, 1581, 1114
7130, 1490, 1216, 665, 1491
7131, 1314, 700, 1581, 1325
7132, 59, 1581, 1314, 700
7133, 1324, 1325, 620, 57
7134, 1580, 620, 1325, 619
7135, 1384, 1385, 1442, 1383
7136, 1110, 1112, 1111, 744
7137, 1581, 1463, 59, 651
7138, 1314, 59, 652, 651
7139, 1400, 1298, 623, 624
7140, 575, 1418, 574, 719
7141, 989, 1399, 1339, 1327
7142, 1400, 1298, 1296, 623
7143, 1305, 576, 719, 575
7144, 576, 883, 1305, 601
7145, 757, 1298, 758, 624
7146, 1094, 687, 1519, 684
7147, 1551, 223, 1270, 1165
7148, 1255, 1522, 1562, 1452
7149, 1165, 1567, 222, 247
7150, 1551, 1548, 197, 222
7151, 1139, 1138, 1270, 224
7152, 1183, 1567, 1165, 247
7153, 1174, 1175, 224, 249
7154, 1174, 1164, 1175, 249
7155, 776, 726, 1353, 984
7156, 965, 966, 313, 312
7157, 1441, 1435, 290, 291
7158, 1354, 1162, 355, 356
7159, 1118, 1178, 970, 1266
7160, 764, 1485, 780, 767
7161, 965, 962, 337, 964
7162, 962, 335, 311, 336
7163, 331, 1354, 332, 1353
7164, 1493, 775, 765, 924
7165, 1571, 338, 965, 313
7166, 962, 964, 336, 337
7167, 533, 930, 534, 1018
7168, 908, 770, 1010, 1288
7169, 592, 1082, 568, 1103
7170, 1462, 747, 1467, 1271
7171, 1276, 1358, 1257, 1502
7172, 1525, 1526, 116, 1345
7173, 945, 1377, 1375, 1483
7174, 1374, 247, 1183, 1186
7175, 1374, 270, 1375, 1250
7176, 1510, 1375, 1483, 296
7177, 1374, 1186, 272, 247
7178, 1375, 1186, 272, 1374
7179, 875, 1564, 1456, 497
7180, 1504, 1425, 497, 522
7181, 875, 1456, 472, 497
7182, 875, 472, 1456, 473
7183, 1355, 875, 473, 474
7184, 784, 1305, 1043, 1418
7185, 1504, 497, 875, 498
7186, 1504, 1425, 1419, 1564
7187, 1490, 669, 1440, 668
7188, 1491, 1459, 613, 1554
7189, 755, 1072, 753, 1437
7190, 1491, 1459, 614, 613
7191, 1491, 1462, 614, 1459
7192, 1216, 665, 1491, 661
7193, 1462, 63, 661, 1491
7194, 62, 1462, 63, 661
7195, 612, 1437, 1439, 1440
7196, 1075, 1111, 673, 674
7197, 1150, 1387, 1313, 74
7198, 870, 980, 965, 967
7199, 1391, 1261, 1549, 1568
7200, 1472, 214, 1503, 1471
7201, 1472, 214, 1502, 1503
7202, 1525, 1415, 1155, 122
7203, 1503, 1561, 1471, 188
7204, 1018, 508, 1026, 509
7205, 1289, 1022, 1025, 1026
7206, 1475, 482, 458, 483
7207, 783, 842, 841, 905
7208, 484, 1426, 459, 1343
7209, 507, 506, 1025, 1289
7210, 457, 482, 458, 1475
7211, 1464, 1289, 1475, 825
7212, 1393, 1289, 831, 1475
7213, 1290, 481, 1289, 506
7214, 826, 481, 1290, 480
7215, 826, 1289, 481, 1464
7216, 1531, 189, 1473, 1471
7217, 1272, 1443, 1442, 191
7218, 1472, 1473, 214, 1471
7219, 706, 1277, 1473, 1275
7220, 216, 1277, 1275, 215
7221, 1273, 1272, 1473, 1443
7222, 844, 1254, 1252, 1251
7223, 1489, 704, 1122, 68
7224, 1391, 1549, 1261, 1487
7225, 1549, 1568, 194, 169
7226, 1451, 1568, 169, 170
7227, 1261, 194, 1568, 195
7228, 1392, 1261, 1568, 195
7229, 1220, 1251, 1551, 1165
7230, 1548, 1392, 1420, 196
7231, 1420, 1568, 171, 196
7232, 707, 713, 1333, 717
7233, 1256, 1255, 1562, 1452
7234, 1549, 1487, 194, 1261
7235, 1390, 1487, 1071, 1386
7236, 1071, 1386, 192, 1385
7237, 1263, 217, 1071, 218
7238, 850, 1208, 1579, 1198
7239, 1251, 1392, 1568, 1420
7240, 1487, 194, 1261, 219
7241, 1244, 933, 1281, 936
7242, 1071, 1272, 1385, 191
7243, 726, 1353, 984, 725
7244, 979, 964, 972, 1434
7245, 1409, 973, 972, 979
7246, 1490, 1491, 64, 1438
7247, 1265, 1065, 340, 315
7248, 1264, 340, 1065, 365
7249, 969, 971, 1266, 970
7250, 1392, 220, 1261, 195
7251, 1197, 900, 1201, 1163
7252, 1392, 1420, 196, 1568
7253, 1548, 1567, 1392, 221
7254, 1392, 1567, 220, 221
7255, 1391, 1251, 1392, 1568
7256, 1251, 1548, 1392, 1420
7257, 1548, 221, 1392, 196
7258, 1251, 1548, 1567, 1392
7259, 1548, 1567, 221, 222
7260, 1551, 222, 1165, 1567
7261, 1421, 1551, 197, 1269
7262, 1293, 607, 974, 1095
7263, 1093, 1098, 1097, 682
7264, 1093, 1098, 682, 705
7265, 698, 1582, 1296, 1323
7266, 1293, 607, 1096, 606
7267, 1350, 606, 1096, 71
7268, 974, 1095, 608, 1122
7269, 1095, 608, 1122, 69
7270, 1097, 1144, 683, 682
7271, 1095, 1098, 705, 678
7272, 744, 1114, 1112, 1216
7273, 754, 1076, 1077, 1295
7274, 1094, 1099, 1097, 1151
7275, 1095, 678, 1122, 1098
7276, 1225, 687, 1153, 77
7277, 757, 1154, 1448, 720
7278, 1293, 1095, 1096, 607
7279, 611, 610, 1439, 1437
7280, 1097, 1151, 1096, 1093
7281, 1366, 1477, 179, 154
7282, 1363, 1500, 204, 179
7283, 1363, 1500, 179, 1366
7284, 1363, 1477, 1500, 1366
7285, 1147, 957, 1404, 1140
7286, 1149, 1527, 1535, 129
7287, 1149, 1366, 1535, 1477
7288, 1253, 1530, 1398, 1416
7289, 1530, 1416, 127, 1398
7290, 741, 1080, 1169, 1087
7291, 1429, 168, 1383, 143
7292, 1427, 1449, 105, 1452
7293, 717, 1190, 1227, 1501
7294, 1439, 612, 66, 611
7295, 1413, 1409, 387, 1434
7296, 1414, 1045, 1046, 1048
7297, 1414, 385, 1412, 1046
7298, 978, 979, 1413, 1048
7299, 1077, 1489, 679, 1098
7300, 722, 777, 811, 733
7301, 753, 1417, 1089, 749
7302, 671, 1439, 703, 1489
*Elset, elset=ROBOT_EXTERIOR_S1
30, 47, 68, 171, 237, 299, 345, 360, 404, 418, 501, 544, 546, 667, 872, 937
1023, 1055, 1129, 1159, 1183, 1184, 1202, 1205, 1250, 1323, 1356, 1385, 1408, 1449, 1499, 1527
1608, 1610, 1617, 1618, 1621, 1627, 1629, 1635, 1636, 1650, 1657, 1665, 1685, 1686, 1687, 1688
1693, 1702, 1704, 1707, 1708, 1709, 1718, 1722, 1724, 1728, 1731, 1734, 1746, 1748, 1749, 1759
1761, 1763, 1764, 1775, 1782, 1787, 1789, 1794, 1804, 1814, 1816, 1820, 1823, 1826, 1828, 1831
1837, 1841, 1849, 1861, 1863, 1866, 1868, 1870, 1872, 1875, 1882, 1886, 1888, 1890, 1895, 1899
1901, 1917, 1918, 1919, 1922, 1923, 1926, 1928, 1929, 1930, 1931, 1933, 1935, 1941, 1946, 1949
1951, 1952, 1955, 1961, 1963, 1964, 1967, 1978, 1979, 1981, 1982, 1988, 1990, 1993, 1996, 1997
1998, 2013, 2016, 2031, 2038, 2042, 2054, 2059, 2063, 2066, 2073, 2077, 2078, 2082, 2084, 2087
2089, 2095, 2096, 2100, 2115, 2118, 2119, 2122, 2137, 2141, 2144, 2145, 2148, 2149, 2155, 2162
2165, 2169, 2171, 2172, 2173, 2176, 2177, 2182, 2186, 2195, 2200, 2206, 2208, 2219, 2220, 2221
2226, 2228, 2230, 2235, 2238, 2242, 2250, 2254, 2258, 2262, 2266, 2267, 2268, 2274, 2279, 2281
2284, 2286, 2293, 2294, 2295, 2299, 2303, 2315, 2317, 2323, 2324, 2332, 2334, 2338, 2340, 2343
2351, 2352, 2353, 2357, 2358, 2362, 2367, 2370, 2371, 2374, 2379, 2382, 2384, 2385, 2386, 2387
2393, 2398, 2399, 2401, 2407, 2410, 2414, 2415, 2418, 2421, 2422, 2423, 2428, 2434, 2437, 2439
2440, 2444, 2445, 2450, 2455, 2462, 2464, 2467, 2471, 2476, 2478, 2481, 2484, 2489, 2494, 2495
2498, 2504, 2505, 2508, 2510, 2511, 2517, 2518, 2520, 2526, 2528, 2536, 2538, 2540, 2541, 2544
2547, 2549, 2559, 2560, 2570, 2571, 2574, 2578, 2584, 2592, 2595, 2599, 2609, 2610, 2613, 2614
2615, 2618, 2626, 2630, 2637, 2639, 2640, 2641, 2645, 2648, 2653, 2657, 2658, 2663, 2664, 2668
2671, 2675, 2676, 2677, 2681, 2683, 2687, 2692, 2700, 2704, 2707, 2715, 2724, 2725, 2726, 2737
2741, 2742, 2745, 2754, 2755, 2759, 2764, 2767, 2771, 2774, 2777, 2780, 2785, 2787, 2788, 2789
2800, 2803, 2806, 2808, 2809, 2818, 2829, 2830, 2832, 2838, 2842, 2848, 2851, 2853, 2857, 2860
2864, 2866, 2869, 2873, 2874, 2877, 2887, 2889, 2892, 2893, 2898, 2907, 2908, 2920, 2923, 2933
2935, 2938, 2940, 2944, 2951, 2954, 2955, 2959, 2965, 2969, 2979, 2980, 2986, 3005, 3007, 3009
3019, 3021, 3032, 3033, 3034, 3038, 3039, 3041, 3046, 3053, 3054, 3058, 3060, 3070, 3074, 3076
3081, 3089, 3090, 3091, 3093, 3103, 3116, 3118, 3123, 3124, 3127, 3128, 3129, 3131, 3132, 3139
3145, 3150, 3152, 3156, 3160, 3166, 3172, 3173, 3181, 3182, 3184, 3186, 3188, 3205, 3207, 3208
3209, 3211, 3214, 3217, 3220, 3226, 3229, 3234, 3238, 3242, 3252, 3262, 3265, 3266, 3269, 3273
3274, 3276, 3277, 3285, 3296, 3301, 3303, 3305, 3306, 3308, 3309, 3323, 3325, 3326, 3336, 3341
3344, 3347, 3348, 3360, 3372, 3373, 3375, 3376, 3388, 3395, 3400, 3411, 3417, 3420, 3422, 3423
3426, 3428, 3429, 3432, 3434, 3443, 3446, 3448, 3451, 3455, 3463, 3464, 3470, 3476, 3477, 3481
3482, 3484, 3485, 3489, 3491, 3492, 3494, 3508, 3509, 3527, 3528, 3533, 3535, 3537, 3541, 3545
3549, 3552, 3554, 3559, 3561, 3565, 3566, 3573, 3578, 3585, 3589, 3591, 3600, 3610, 3613, 3616
3617, 3627, 3628, 3634, 3635, 3646, 3655, 3658, 3662, 3665, 3675, 3676, 3682, 3683, 3686, 3687
3690, 3693, 3701, 3704, 3705, 3708, 3709, 3711, 3712, 3714, 3716, 3718, 3722, 3733, 3739, 3746
3748, 3749, 3757, 3759, 3760, 3766, 3767, 3769, 3774, 3775, 3777, 3782, 3788, 3789, 3790, 3791
3797, 3798, 3810, 3817, 3834, 3836, 3838, 3839, 3842, 3847, 3848, 3855, 3856, 3867, 3875, 3876
3877, 3879, 3899, 3903, 3906, 3912, 3919, 3923, 3924, 3934, 3936, 3937, 3940, 3942, 3951, 3952
3953, 3959, 3963, 3965, 3967, 3971, 3983, 3995, 4002, 4004, 4005, 4009, 4023, 4024, 4025, 4028
4033, 4036, 4046, 4051, 4056, 4059, 4065, 4069, 4072, 4074, 4078, 4081, 4082, 4085, 4086, 4091
4092, 4094, 4096, 4098, 4102, 4108, 4111, 4113, 4118, 4123, 4129, 4141, 4144, 4148, 4150, 4154
4158, 4160, 4165, 4169, 4175, 4177, 4180, 4182, 4185, 4187, 4188, 4194, 4196, 4203, 4208, 4219
4237, 4241, 4243, 4245, 4248, 4251, 4255, 4256, 4260, 4264, 4267, 4268, 4272, 4276, 4278, 4279
4281, 4285, 4289, 4292, 4294, 4301, 4306, 4307, 4309, 4310, 4314, 4317, 4320, 4325, 4333, 4335
4336, 4343, 4347, 4350, 4353, 4358, 4363, 4368, 4370, 4372, 4381, 4384, 4395, 4400, 4402, 4407
4411, 4421, 4423, 4429, 4438, 4441, 4444, 4445, 4446, 4459, 4466, 4467, 4474, 4476, 4479, 4483
4486, 4488, 4490, 4492, 4494, 4496, 4498, 4499, 4501, 4516, 4520, 4521, 4526, 4532, 4533, 4534
4539, 4540, 4550, 4556, 4563, 4564, 4571, 4574, 4583, 4587, 4588, 4591, 4592, 4600, 4604, 4610
4611, 4613, 4614, 4616, 4618, 4622, 4624, 4629, 4642, 4645, 4646, 4649, 4651, 4657, 4662, 4664
4669, 4670, 4674, 4678, 4679, 4685, 4690, 4694, 4702, 4708, 4709, 4710, 4712, 4717, 4719, 4725
4729, 4740, 4745, 4754, 4755, 4756, 4766, 4767, 4768, 4769, 4787, 4791, 4792, 4797, 4799, 4802
4805, 4810, 4811, 4814, 4816, 4817, 4820, 4821, 4823, 4832, 4836, 4850, 4854, 4859, 4860, 4864
4865, 4872, 4877, 4891, 4892, 4901, 4903, 4907, 4911, 4915, 4916, 4921, 4927, 4930, 4931, 4936
4943, 4956, 4957, 4962, 4976, 4977, 4979, 4981, 4984, 4991, 5017, 5024, 5032, 5042, 5051, 5052
5053, 5054, 5056, 5063, 5064, 5065, 5078, 5079, 5086, 5095, 5107, 5125, 5126, 5129, 5132, 5133
5141, 5146, 5151, 5156, 5157, 5166, 5170, 5175, 5180, 5195, 5199, 5201, 5202, 5204, 5207, 5208
5210, 5215, 5216, 5219, 5221, 5223, 5230, 5232, 5233, 5234, 5238, 5244, 5246, 5259, 5261, 5265
5271, 5272, 5277, 5280, 5285, 5293, 5302, 5310, 5316, 5322, 5326, 5328, 5338, 5342, 5345, 5349
5352, 5368, 5370, 5377, 5379, 5384, 5392, 5396, 5402, 5408, 5412, 5416, 5417, 5420, 5424, 5427
5436, 5438, 5439, 5443, 5444, 5458, 5463, 5464, 5467, 5472, 5479, 5482, 5487, 5493, 5505, 5508
5515, 5517, 5518, 5519, 5521, 5522, 5527, 5533, 5547, 5549, 5551, 5553, 5558, 5563, 5564, 5568
5571, 5572, 5575, 5577, 5583, 5584, 5585, 5592, 5596, 5597, 5602, 5604, 5607, 5609, 5610, 5619
5623, 5625, 5626, 5633, 5636, 5641, 5645, 5649, 5650, 5653, 5656, 5658, 5660, 5666, 5669, 5674
5683, 5687, 5690, 5691, 5696, 5698, 5701, 5704, 5706, 5708, 5713, 5714, 5719, 5721, 5723, 5727
5728, 5736, 5741, 5742, 5743, 5746, 5748, 5749, 5750, 5754, 5763, 5766, 5767, 5768, 5769, 5781
5783, 5785, 5800, 5801, 5803, 5806, 5808, 5810, 5811, 5812, 5816, 5821, 5827, 5828, 5837, 5838
5850, 5858, 5861, 5862, 5868, 5869, 5870, 5872, 5874, 5879, 5881, 5884, 5887, 5888, 5889, 5890
5891, 5899, 5900, 5902, 5908, 5914, 5916, 5917, 5919, 5924, 5925, 5929, 5941, 5942, 5945, 5951
5952, 5954, 5955, 5957, 5964, 5966, 5968, 5973, 5978, 5979, 5980, 5982, 5986, 5988, 5991, 5997
5999, 6001, 6004, 6008, 6009, 6013, 6014, 6016, 6018, 6026, 6027, 6029, 6032, 6037, 6038, 6039
6040, 6063, 6067, 6078, 6081, 6082, 6085, 6089, 6090, 6092, 6093, 6094, 6097, 6102, 6106, 6114
6120, 6124, 6125, 6126, 6135, 6140, 6144, 6162, 6163, 6164, 6167, 6168, 6169, 6172, 6175, 6177
6181, 6183, 6187, 6189, 6192, 6196, 6204, 6205, 6208, 6211, 6213, 6217, 6224, 6225, 6230, 6232
6233, 6234, 6241, 6242, 6244, 6245, 6252, 6262, 6268, 6282, 6284, 6287, 6288, 6299, 6307, 6311
6314, 6321, 6352, 6378, 6388, 6391, 6409, 6415, 6433, 6520, 6523, 6540, 6570, 6574, 6578, 6620
6644, 6645, 6647, 6653, 6679, 6680, 6749, 6795, 6807, 6808, 6852, 6867, 6898, 6963, 6984, 7004
7060, 7121, 7138, 7162, 7206, 7294
*Elset, elset=ROBOT_EXTERIOR_S2
1146, 1523, 1627, 1654, 1800, 1842, 1870, 1930, 2106, 2140, 2241, 2257, 2277, 2307, 2347, 2485
2579, 2706, 2867, 2939, 3028, 3350, 3425, 3584, 3677, 3913, 4029, 4054, 4064, 4178, 4270, 4329
4377, 4435, 4440, 4453, 4461, 4770, 4895, 5091, 5188, 5256, 5446, 5449, 5450, 5496, 5617, 5629
5643, 5676, 5699, 5716, 5760, 5795, 5831, 5910, 6178, 6229, 6349, 6371, 6556, 6562, 6585, 6634
6641, 6690, 6796, 6922, 7102, 7194
*Elset, elset=ROBOT_EXTERIOR_S3
134, 1142, 1323, 1539, 1625, 1741, 1745, 1880, 1911, 1981, 2156, 2176, 2194, 2216, 2220, 2227
2234, 2274, 2275, 2276, 2300, 2314, 2327, 2348, 2425, 2430, 2717, 2784, 2972, 3227, 3294, 3468
3505, 3512, 3639, 3745, 3776, 3787, 3943, 3955, 3984, 4011, 4110, 4127, 4273, 4418, 4436, 4661
4752, 4776, 4897, 4929, 4933, 5094, 5405, 5673, 5823, 5834, 5904, 5930, 5953, 5967, 5994, 6112
6139, 6156, 6209
*Elset, elset=ROBOT_EXTERIOR_S4
501, 940, 1143, 1610, 1636, 1655, 1699, 1790, 1826, 1929, 1931, 2115, 2199, 2208, 2291, 2302
2319, 2335, 2339, 3008, 3082, 3236, 3288, 3972, 4107, 4155, 4193, 4228, 4471, 4549, 4598, 4703
4923, 5027, 5873, 5880, 5934, 6051, 6088, 6315, 6564, 6610, 6633, 6733, 6865, 6997, 7210
*Nset, nset=ROBOT_CEL_BODY, generate
1, 1588, 1
*Elset, elset=ROBOT_CEL_BODY, generate
1, 7302, 1
*Elset, elset=ROBOT_SOLID_ALL, generate
1, 7302, 1
*Surface, type=ELEMENT, name=ROBOT_SOLID_SURF
ROBOT_EXTERIOR_S1, S1
ROBOT_EXTERIOR_S2, S2
ROBOT_EXTERIOR_S3, S3
ROBOT_EXTERIOR_S4, S4
*Solid Section, elset=ROBOT_CEL_BODY, material=MAT_ROBOT_RIGID
,
*End Part
**  
**
** ASSEMBLY
**
*Assembly, name=Assembly
*Instance, name=Pipe_WALL_HELPER-1, part=Pipe_WALL_HELPER
*End Instance
**  
*Instance, name=Pipe_TERMINAL_STOP-1, part=Pipe_TERMINAL_STOP
*End Instance
**  
*Instance, name=Pipe_TERMINAL_STOP_HIGH-1, part=Pipe_TERMINAL_STOP_HIGH
*End Instance
**  
*Elset, elset=PIPE_TERMINAL_STOP_CEL_ALL, instance=Pipe_TERMINAL_STOP-1, generate
1, 75, 1
*Elset, elset=PIPE_TERMINAL_STOP_HIGH_CEL_ALL, instance=Pipe_TERMINAL_STOP_HIGH-1, generate
1, 23, 1
*Elset, elset=PIPE_WALL_HELPER_CEL_ALL, instance=Pipe_WALL_HELPER-1, generate
1, 764, 1
**  
*Instance, name=Pipe_SOLID-1, part=Pipe_SOLID
*End Instance
**  
*Instance, name=Robot_SOLID-1, part=Robot_SOLID
*End Instance
**  
*Elset, elset=PIPE_SOLID_CEL_ALL, instance=Pipe_SOLID-1, generate
1, 5203, 1
*Elset, elset=ROBOT_SOLID_CEL_ALL, instance=Robot_SOLID-1, generate
1, 7302, 1
**  
*Node
      1,  -5.80302477,  -9.99273777,  -5.95533371
*Node
      2, -7.468174204284, -3.676918015967, -9.550745259298
*Nset, nset=RP_PIPE
 1,
*Nset, nset=RP_ROBOT
 2,
*Elset, elset=PIPE_RIGID_ALL
PIPE_SOLID_CEL_ALL,
PIPE_WALL_HELPER_CEL_ALL,
PIPE_TERMINAL_STOP_CEL_ALL,
PIPE_TERMINAL_STOP_HIGH_CEL_ALL,
*Rigid Body, ref node=RP_PIPE, elset=PIPE_RIGID_ALL
** Constraint: RB_PIPE
** Constraint: RB_ROBOT
*Rigid Body, ref node=RP_ROBOT, elset=ROBOT_SOLID_CEL_ALL
*End Assembly
** Reduced-Hydro: CEL fluid part, material, initialization and CEL contact were removed.
** 
** MATERIALS
** 
*Material, name=MAT_PIPE_RIGID
*Density
 1e-09,
*Elastic
 1e+06, 0.3
*Material, name=MAT_ROBOT_RIGID
*Density
7.80906654321e-09, 
*Elastic
 1e+06, 0.3
** 
** INTERACTION PROPERTIES
** 
*Surface Interaction, name=PROP_CEL_HARD
*Friction
0.03,
*Surface Behavior, pressure-overclosure=HARD
*Contact Damping, definition=CRITICAL DAMPING FRACTION, tangent fraction=0.0
0.5
** 
** BOUNDARY CONDITIONS
** 
** Name: BC_PIPE_FIXED Type: Symmetry/Antisymmetry/Encastre
*Boundary
RP_PIPE, ENCASTRE
** ----------------------------------------------------------------
** 
** STEP: Step_Drive
** 
*Contact
*Contact Inclusions
ROBOT_SOLID-1.ROBOT_SOLID_SURF, Pipe_WALL_HELPER-1.PIPE_WALL_HELPER_SURF
*Contact Property Assignment
ROBOT_SOLID-1.ROBOT_SOLID_SURF, Pipe_WALL_HELPER-1.PIPE_WALL_HELPER_SURF, PROP_CEL_HARD
** REDUCED-HYDRO BASELINE; CEL REMOVED; production external Magpylib retained.
** FREE-TRANSLATION PARAMETERS: phase=248.0 deg; cone=30 deg; Bias40; gradient=6.000 mT=0.006000 T; server-side analytic field
** SOCKET BASELINE JOB: Job_RouteA_CEL_Socket_ConnectorFixed_Capsule_0p003
** Local centerline frame at COM RP (metadata only); COM translations constrained in calibration
** COM-fixed RP_ROBOT = (-7.468174204284, -3.676918015967, -9.550745259298) mm; volume-weighted mesh COM
** tangent-X = (-0.928048296, 0.179421111, -0.326396119)
** transported-Y = (0.140416425, 0.988230515, -0.0606933022)
** binormal-Z = (0.312362773, -0.102386426, -0.944429202)
** CSF rho=1.0007e-09 tonne/mm^3; mu=7.1e-10 N*s/mm^2; c0=1480000 mm/s
*Step, name=Step_Drive, nlgeom=YES
*Dynamic, Explicit, DIRECT
1.0e-7, 0.033333333
*Bulk Viscosity
0.06, 1.2
** 
** BOUNDARY CONDITIONS
** 
** REDUCED-HYDRO LOAD INTERFACE: magnetic Socket loads plus dissipative body-following hydro loads.
** SOCKET_* remain production Magpylib loads; HYDRO_* are local dissipative loads from RP V/VR sensors.
** DOF 1..3: Fx,Fy,Fz [N]; DOF 4..6: Mx,My,Mz [N*mm].
** Abaqus uses *CLOAD for both concentrated forces and moments;
** CFORCE/CMOMENT are output quantities, not input keywords.
*Amplitude, name=SOCKET_FX, definition=USER
*Amplitude, name=SOCKET_FY, definition=USER
*Amplitude, name=SOCKET_FZ, definition=USER
*Amplitude, name=SOCKET_MX, definition=USER
*Amplitude, name=SOCKET_MY, definition=USER
*Amplitude, name=SOCKET_MZ, definition=USER
*Cload, amplitude=SOCKET_FX
RP_ROBOT, 1, 1.
*Cload, amplitude=SOCKET_FY
RP_ROBOT, 2, 1.
*Cload, amplitude=SOCKET_FZ
RP_ROBOT, 3, 1.
*Cload, amplitude=SOCKET_MX
RP_ROBOT, 4, 1.
*Cload, amplitude=SOCKET_MY
RP_ROBOT, 5, 1.
*Cload, amplitude=SOCKET_MZ
RP_ROBOT, 6, 1.
*Amplitude, name=HYDRO_FX, definition=USER
*Amplitude, name=HYDRO_FY, definition=USER
*Amplitude, name=HYDRO_FZ, definition=USER
*Amplitude, name=HYDRO_MX, definition=USER
*Amplitude, name=HYDRO_MY, definition=USER
*Amplitude, name=HYDRO_MZ, definition=USER
*Cload, amplitude=HYDRO_FX
RP_ROBOT, 1, 1.
*Cload, amplitude=HYDRO_FY
RP_ROBOT, 2, 1.
*Cload, amplitude=HYDRO_FZ
RP_ROBOT, 3, 1.
*Cload, amplitude=HYDRO_MX
RP_ROBOT, 4, 1.
*Cload, amplitude=HYDRO_MY
RP_ROBOT, 5, 1.
*Cload, amplitude=HYDRO_MZ
RP_ROBOT, 6, 1.
** 
** OUTPUT REQUESTS
** 
*Restart, write, number interval=1, time marks=NO
** 
** FIELD OUTPUT: F-Output-1
** 
** IMPACT ENERGY DIAGNOSTIC: preserve all existing physics; save visualization/contact fields every 25 us; RP and contact-resultant history remains every increment.
*Output, field, time interval=1.0e-4, time marks=NO
*Node Output
U
*Node Output, nset=RP_ROBOT
U, UR, V, VR, A, AR, CF, RF, RM
*Contact Output, general contact
CSTRESS, CFORCE
*Contact Output, surface=ROBOT_SOLID-1.ROBOT_SOLID_SURF
CDISP
*Output, history, frequency=1
*Node Output, nset=RP_ROBOT
COORD, U, UR, V, VR, A, AR, CF, RF, RM
*Contact Output, surface=ROBOT_SOLID-1.ROBOT_SOLID_SURF
CFN, CFS, CFT
*Contact Output, surface=Pipe_WALL_HELPER-1.PIPE_WALL_HELPER_SURF
CFN, CFS, CFT
*Output, history, time interval=5.0e-5
*Energy Output, variable=ALL
*Output, history, frequency=1, sensor, name=RP_U1
*Node Output, nset=RP_ROBOT
U1
*Output, history, frequency=1, sensor, name=RP_U2
*Node Output, nset=RP_ROBOT
U2
*Output, history, frequency=1, sensor, name=RP_U3
*Node Output, nset=RP_ROBOT
U3
*Output, history, frequency=1, sensor, name=RP_UR1
*Node Output, nset=RP_ROBOT
UR1
*Output, history, frequency=1, sensor, name=RP_UR2
*Node Output, nset=RP_ROBOT
UR2
*Output, history, frequency=1, sensor, name=RP_UR3
*Node Output, nset=RP_ROBOT
UR3
*Output, history, frequency=1, sensor, name=RP_V1
*Node Output, nset=RP_ROBOT
V1
*Output, history, frequency=1, sensor, name=RP_V2
*Node Output, nset=RP_ROBOT
V2
*Output, history, frequency=1, sensor, name=RP_V3
*Node Output, nset=RP_ROBOT
V3
*Output, history, frequency=1, sensor, name=RP_VR1
*Node Output, nset=RP_ROBOT
VR1
*Output, history, frequency=1, sensor, name=RP_VR2
*Node Output, nset=RP_ROBOT
VR2
*Output, history, frequency=1, sensor, name=RP_VR3
*Node Output, nset=RP_ROBOT
VR3
*End Step
