** ROUTEA HEAD-TAIL MAGNETIC ROCKING EXISTENCE PROOF
** ROBOT_LOCAL_ROCKING; B0=10mT; alpha_B0=14.343111711438deg; f=5Hz; phase=0; G=0
** CLEAN INITIAL POSE: robot HEAD-to-TAIL axis aligned with straight local tangent
** ROBOT SHAPE/RIGIDITY, ONE-WALL GENERAL CONTACT, mu=0.03, zeta=0.50, dt=1e-7, AND REDUCED HYDRO UNCHANGED
** STRAIGHT-PIPE CONTROL; ONLY PIPE_WALL_HELPER AND FIELD CENTERLINE GEOMETRY CHANGED
** SAME ROBOT/MESH/CONTACT/REDUCED-HYDRO/dt/B/f/cone/bias/G/ramp/phase AS 3CYCLE
** PRODUCTION ROBOT-LOCAL FRAME VALIDATION; EXACTLY THREE 30 HZ CYCLES
** ROBOT_LOCAL_TANGENT; B0=10mT; cone=30deg; Bias=0; G=0; ramp=1ms
** MAGNETIC DRIVE FRAME AUDIT - SCREENING ONLY
** L2.4 D0.815 coarse rigid carrier; one 30 Hz cycle; G=0
** FIELD_MODE=LOCAL_TANGENT_CONE; cone=30.0 deg
** SCREENING ONLY - NOT AN AUTHORITATIVE DESIGN
** CASE GEO_240; global 0.10 mm C3D4 rigid mesh; fixed direct dt=1e-7 s
** FROZEN L2300 WALL-SUPPORTED SCREENING: 29141 C3D4; threshold-aware 5 um acceptance
** CAD L=2.300000 mm D=0.815000 mm; no mesh scaling or refinement
** R014 exterior mesh analytic-field probe; 10 mg; D055; gradient 6 mT; Bias40; forward
** RESTORED ROBOT: _robot_true_R014_source.inp mesh; exact 6 mg; 2.01 mm wall helper offset=0.005 mm
** HIGH-WOBBLE 6 ms PROBE: only damping 0.055 -> 0.020; all other physics unchanged
** BOUNDED MEDIUM PROBE: 6 ms; no geometry/physics change; output 2 us
** COPEN PRECHECK: physics unchanged; robot exterior-only surface output added
** ROBOT CONTACT SANITIZED: TRUE EXTERIOR FACES ONLY
** ROBOT PART TRANSPLANTED FROM UNROUNDED BASE; no stacked fillet
** donor=_robot_true_R014_source.inp
** High-end robot-only stop added; CEL remains open; band=0.8 mm, faces=23
** CAPSULE/FILLET VARIANT; rf=0.1 mm; source=CEL_CurrentCenterline_Cone15_Z110_PolarityPlus_Mu003_Damp055_AfterBendReverse_015.inp
** MATRIX VARIANT: mu003
** Z=110 mm single-variable probe; 5 Hz fixed; m_robot=1.168e-3 A*m^2; adaptive-lead=0.
** POLARITY-PLUS CLOSED-LOOP 0.03 s: +robot_axis_global end assumed N; adaptive-lead=0.
** FULL 3D LIVE-MAGNETIC FORCE/TORQUE CLOSED-LOOP: the force is projected onto the local DXF tangent; torque remains live from Magpylib; endpoint caps are retained in the wall helper; duration=0.008333 s
** FULL 3D LIVE-MAGNETIC FORCE/TORQUE CLOSED-LOOP: the force is projected onto the local DXF tangent; torque remains live from Magpylib; endpoint caps are retained in the wall helper; duration=0.006 s
** FULL 3D LIVE-MAGNETIC FORCE/TORQUE CLOSED-LOOP: the force is projected onto the local DXF tangent; torque remains live from Magpylib; endpoint caps are retained in the wall helper; duration=0.008333 s
** Terminal robot-only outlet stop added at low-s end; CEL remains open; cap_band=0.8 mm, faces=75
** FULL 3D LIVE-MAGNETIC FORCE/TORQUE CLOSED-LOOP: the force is projected onto the local DXF tangent; torque remains live from Magpylib; endpoint caps are retained in the wall helper; duration=0.008333 s
** FORWARD-ONLY DIAGNOSTIC: live Magpylib force projected onto the local DXF pipe tangent; magnetic torque is disabled; 0.010 s probe
** WALL/CEL FACTORIAL DIAGNOSTIC; only contact inclusions changed
** CEL boundary-wall probe: Pipe_SOLID retained as fixed mass but excluded from contact; helper R3D4 wall offset=0.2 mm, end caps removed=98
*Heading
** AUTHORIZED 8.333 ms WALL-ON WOBBLE-SURVIVAL PROBE: Wobble_F30_G6L45_WallOn_Free_0083_WobbleSurvival; G6/L45; f=30 Hz
** WALL-ON FREE-TRANSLATION PROBE: Wobble_F30_G6L45_WallOn_Free_0083_WobbleSurvival; spin=30 Hz; duration=8.333 ms
** WALL/CEL FACTORIAL: Wobble_F30_G6L45_WallOn_Free_0083_WobbleSurvival; Wall=ON; CEL=ON; 1.8 ms; phase=248 deg; gradient=6.000 mT=0.006000 T; spin=30 Hz
** FREE-TRANSLATION PROBE: F30; cone30; B=10 mT; Wall-ON; CEL-ON; translations fixed, rotations free
** Robot refined contact mesh, centerline translation + tangent-following orientation
** Job name: Job_RouteA_CEL_SOLID_robotfine Model name: RouteA_SolidCEL_Probe
** Generated by: Abaqus/CAE 2025
*Preprint, echo=NO, model=NO, history=NO, contact=NO
**
** PARTS
**
**  
*Part, name=Pipe_WALL_HELPER
*Node
1, -19.2778697489, -2.56472286113, -11.4865091191
2, -19.3034056993, -2.7224333001, -11.4133571423
3, -19.3207725728, -2.89462529144, -11.3829566679
4, -19.3287868459, -3.06956423552, -11.397379438
5, -19.326902359, -3.23532833238, -11.4556425647
6, -19.3152475367, -3.38062103277, -11.553775512
7, -19.294616636, -3.49554087926, -11.6850906819
8, -19.2664156186, -3.57225627423, -11.8406391625
9, -19.2325663373, -3.60553919028, -12.0098205819
10, -19.1953755647, -3.5931214517, -12.181105506
11, -19.1573777904, -3.53584930685, -12.3428211503
12, -19.1211625, -3.43762575774, -12.4839468608
13, -19.0891977056, -3.30514457694, -12.5948651536
14, -19.0636617552, -3.14743413797, -12.6680171303
15, -19.0462948816, -2.97524214662, -12.6984176047
16, -19.0382806086, -2.80030320255, -12.6839948346
17, -19.0401650955, -2.63453910568, -12.625731708
18, -19.0518199178, -2.48924640529, -12.5275987606
19, -19.0724508185, -2.3743265588, -12.3962835907
20, -19.1006518359, -2.29761116383, -12.2407351101
21, -19.1345011172, -2.26432824778, -12.0715536907
22, -19.1716918898, -2.27674598636, -11.9002687666
23, -19.2096896641, -2.33401813121, -11.7385531224
24, -19.2459049545, -2.43224168032, -11.5974274119
25, -19.0826137568, -2.57708926607, -11.4450100878
26, -19.1081497072, -2.73479970504, -11.371858111
27, -19.1255165808, -2.90699169639, -11.3414576367
28, -19.1335308538, -3.08193064047, -11.3558804068
29, -19.1316463669, -3.24769473733, -11.4141435334
30, -19.1199915446, -3.39298743772, -11.5122764807
31, -19.0993606439, -3.50790728421, -11.6435916506
32, -19.0711596266, -3.58462267918, -11.7991401312
33, -19.0373103453, -3.61790559523, -11.9683215507
34, -19.0001195726, -3.60548785665, -12.1396064747
35, -18.9621217983, -3.5482157118, -12.301322119
36, -18.9259065079, -3.44999216269, -12.4424478295
37, -18.8939417136, -3.31751098188, -12.5533661223
38, -18.8684057632, -3.15980054291, -12.626518099
39, -18.8510388896, -2.98760855157, -12.6569185734
40, -18.8430246165, -2.81266960749, -12.6424958033
41, -18.8449091035, -2.64690551063, -12.5842326767
42, -18.8565639257, -2.50161281024, -12.4860997293
43, -18.8771948264, -2.38669296375, -12.3547845595
44, -18.9053958438, -2.30997756878, -12.1992360788
45, -18.9392451251, -2.27669465273, -12.0300546594
46, -18.9764358978, -2.28911239131, -11.8587697353
47, -19.014433672, -2.34638453616, -11.6970540911
48, -19.0506489625, -2.44460808527, -11.5559283806
49, -18.8873577648, -2.58945567102, -11.4035110565
50, -18.9128937152, -2.74716610999, -11.3303590797
51, -18.9302605887, -2.91935810134, -11.2999586054
52, -18.9382748618, -3.09429704541, -11.3143813755
53, -18.9363903749, -3.26006114228, -11.3726445021
54, -18.9247355526, -3.40535384267, -11.4707774495
55, -18.9041046519, -3.52027368916, -11.6020926193
56, -18.8759036345, -3.59698908413, -11.7576410999
57, -18.8420543532, -3.63027200018, -11.9268225194
58, -18.8048635806, -3.6178542616, -12.0981074435
59, -18.7668658063, -3.56058211675, -12.2598230877
60, -18.7306505159, -3.46235856764, -12.4009487982
61, -18.6986857215, -3.32987738683, -12.511867091
62, -18.6731497711, -3.17216694786, -12.5850190678
63, -18.6557828975, -2.99997495652, -12.6154195421
64, -18.6477686245, -2.82503601244, -12.600996772
65, -18.6496531114, -2.65927191558, -12.5427336454
66, -18.6613079337, -2.51397921519, -12.4446006981
67, -18.6819388344, -2.3990593687, -12.3132855282
68, -18.7101398518, -2.32234397373, -12.1577370476
69, -18.7439891331, -2.28906105767, -11.9885556281
70, -18.7811799057, -2.30147879626, -11.817270704
71, -18.81917768, -2.35875094111, -11.6555550598
72, -18.8553929704, -2.45697449022, -11.5144293493
73, -18.6921017727, -2.60182207597, -11.3620120252
74, -18.7176377231, -2.75953251494, -11.2888600485
75, -18.7350045967, -2.93172450629, -11.2584595741
76, -18.7430188697, -3.10666345036, -11.2728823442
77, -18.7411343828, -3.27242754723, -11.3311454708
78, -18.7294795605, -3.41772024761, -11.4292784182
79, -18.7088486598, -3.53264009411, -11.5605935881
80, -18.6806476425, -3.60935548907, -11.7161420687
81, -18.6467983612, -3.64263840513, -11.8853234881
82, -18.6096075885, -3.63022066655, -12.0566084122
83, -18.5716098142, -3.57294852169, -12.2183240564
84, -18.5353945238, -3.47472497259, -12.3594497669
85, -18.5034297295, -3.34224379178, -12.4703680597
86, -18.4778937791, -3.18453335281, -12.5435200365
87, -18.4605269055, -3.01234136147, -12.5739205108
88, -18.4525126324, -2.83740241739, -12.5594977407
89, -18.4543971194, -2.67163832053, -12.5012346141
90, -18.4660519416, -2.52634562014, -12.4031016668
91, -18.4866828423, -2.41142577365, -12.2717864969
92, -18.5148838597, -2.33471037868, -12.1162380163
93, -18.548733141, -2.30142746262, -11.9470565969
94, -18.5859239137, -2.3138452012, -11.7757716728
95, -18.6239216879, -2.37111734606, -11.6140560285
96, -18.6601369784, -2.46934089517, -11.472930318
97, -18.4968457807, -2.61418848092, -11.3205129939
98, -18.5223817311, -2.77189891989, -11.2473610172
99, -18.5397486046, -2.94409091124, -11.2169605428
100, -18.5477628777, -3.11902985531, -11.2313833129
101, -18.5458783908, -3.28479395217, -11.2896464395
102, -18.5342235685, -3.43008665256, -11.3877793869
103, -18.5135926678, -3.54500649905, -11.5190945568
104, -18.4853916504, -3.62172189402, -11.6746430374
105, -18.4515423691, -3.65500481008, -11.8438244568
106, -18.4143515965, -3.6425870715, -12.0151093809
107, -18.3763538222, -3.58531492664, -12.1768250251
108, -18.3401385318, -3.48709137754, -12.3179507357
109, -18.3081737374, -3.35461019673, -12.4288690285
110, -18.282637787, -3.19689975776, -12.5020210052
111, -18.2652709134, -3.02470776641, -12.5324214796
112, -18.2572566404, -2.84976882234, -12.5179987095
113, -18.2591411273, -2.68400472548, -12.4597355828
114, -18.2707959496, -2.53871202509, -12.3616026355
115, -18.2914268503, -2.4237921786, -12.2302874656
116, -18.3196278677, -2.34707678363, -12.074738985
117, -18.353477149, -2.31379386757, -11.9055575656
118, -18.3906679216, -2.32621160615, -11.7342726415
119, -18.4286656959, -2.38348375101, -11.5725569972
120, -18.4648809863, -2.48170730012, -11.4314312867
121, -18.3015897886, -2.62655488587, -11.2790139626
122, -18.327125739, -2.78426532484, -11.2058619859
123, -18.3444926126, -2.95645731619, -11.1754615115
124, -18.3525068856, -3.13139626026, -11.1898842816
125, -18.3506223987, -3.29716035712, -11.2481474083
126, -18.3389675764, -3.44245305751, -11.3462803556
127, -18.3183366757, -3.557372904, -11.4775955255
128, -18.2901356584, -3.63408829897, -11.6331440061
129, -18.2562863771, -3.66737121503, -11.8023254255
130, -18.2190956044, -3.65495347645, -11.9736103496
131, -18.1810978301, -3.59768133159, -12.1353259939
132, -18.1448825397, -3.49945778249, -12.2764517044
133, -18.1129177454, -3.36697660168, -12.3873699972
134, -18.087381795, -3.20926616271, -12.4605219739
135, -18.0700149214, -3.03707417136, -12.4909224483
136, -18.0620006483, -2.86213522729, -12.4764996782
137, -18.0638851353, -2.69637113043, -12.4182365516
138, -18.0755399575, -2.55107843004, -12.3201036042
139, -18.0961708582, -2.43615858355, -12.1887884343
140, -18.1243718756, -2.35944318858, -12.0332399537
141, -18.1582211569, -2.32616027252, -11.8640585343
142, -18.1954119296, -2.3385780111, -11.6927736102
143, -18.2334097038, -2.39585015596, -11.5310579659
144, -18.2696249943, -2.49407370506, -11.3899322554
145, -18.1063337966, -2.63892129082, -11.2375149314
146, -18.131869747, -2.79663172979, -11.1643629546
147, -18.1492366205, -2.96882372114, -11.1339624802
148, -18.1572508936, -3.14376266521, -11.1483852503
149, -18.1553664067, -3.30952676207, -11.206648377
150, -18.1437115844, -3.45481946246, -11.3047813243
151, -18.1230806837, -3.56973930895, -11.4360964942
152, -18.0948796663, -3.64645470392, -11.5916449748
153, -18.061030385, -3.67973761998, -11.7608263942
154, -18.0238396124, -3.6673198814, -11.9321113183
155, -17.9858418381, -3.61004773654, -12.0938269626
156, -17.9496265477, -3.51182418744, -12.2349526731
157, -17.9176617533, -3.37934300663, -12.3458709659
158, -17.8921258029, -3.22163256766, -12.4190229426
159, -17.8747589293, -3.04944057631, -12.449423417
160, -17.8667446563, -2.87450163224, -12.4350006469
161, -17.8686291432, -2.70873753538, -12.3767375203
162, -17.8802839655, -2.56344483499, -12.2786045729
163, -17.9009148662, -2.4485249885, -12.147289403
164, -17.9291158836, -2.37180959353, -11.9917409224
165, -17.9629651649, -2.33852667747, -11.822559503
166, -18.0001559375, -2.35094441605, -11.6512745789
167, -18.0381537118, -2.40821656091, -11.4895589347
168, -18.0743690022, -2.50644011001, -11.3484332242
169, -17.9110778045, -2.65128769577, -11.1960159001
170, -17.9366137549, -2.80899813474, -11.1228639233
171, -17.9539806285, -2.98119012608, -11.092463449
172, -17.9619949016, -3.15612907016, -11.1068862191
173, -17.9601104146, -3.32189316702, -11.1651493457
174, -17.9484555924, -3.46718586741, -11.263282293
175, -17.9278246916, -3.5821057139, -11.3945974629
176, -17.8996236743, -3.65882110887, -11.5501459435
177, -17.865774393, -3.69210402493, -11.7193273629
178, -17.8285836203, -3.67968628635, -11.890612287
179, -17.790585846, -3.62241414149, -12.0523279313
180, -17.7543705556, -3.52419059238, -12.1934536418
181, -17.7224057613, -3.39170941158, -12.3043719346
182, -17.6968698109, -3.23399897261, -12.3775239113
183, -17.6795029373, -3.06180698126, -12.4079243857
184, -17.6714886642, -2.88686803719, -12.3935016156
185, -17.6733731512, -2.72110394032, -12.335238489
186, -17.6850279734, -2.57581123994, -12.2371055416
187, -17.7056588742, -2.46089139344, -12.1057903718
188, -17.7338598915, -2.38417599848, -11.9502418911
189, -17.7677091728, -2.35089308242, -11.7810604717
190, -17.8048999455, -2.363310821, -11.6097755476
191, -17.8428977197, -2.42058296586, -11.4480599034
192, -17.8791130102, -2.51880651496, -11.3069341929
193, -17.7158218125, -2.66365410072, -11.1545168688
194, -17.7413577629, -2.82136453969, -11.081364892
195, -17.7587246364, -2.99355653103, -11.0509644177
196, -17.7667389095, -3.16849547511, -11.0653871878
197, -17.7648544226, -3.33425957197, -11.1236503144
198, -17.7531996003, -3.47955227236, -11.2217832618
199, -17.7325686996, -3.59447211885, -11.3530984316
200, -17.7043676822, -3.67118751382, -11.5086469122
201, -17.6705184009, -3.70447042988, -11.6778283317
202, -17.6333276283, -3.69205269129, -11.8491132558
203, -17.595329854, -3.63478054644, -12.0108289
204, -17.5591145636, -3.53655699733, -12.1519546105
205, -17.5271497692, -3.40407581653, -12.2628729033
206, -17.5016138188, -3.24636537756, -12.3360248801
207, -17.4842469452, -3.07417338621, -12.3664253544
208, -17.4762326722, -2.89923444214, -12.3520025843
209, -17.4781171591, -2.73347034527, -12.2937394577
210, -17.4897719814, -2.58817764488, -12.1956065104
211, -17.5104028821, -2.47325779839, -12.0642913405
212, -17.5386038995, -2.39654240343, -11.9087428599
213, -17.5724531808, -2.36325948737, -11.7395614404
214, -17.6096439534, -2.37567722595, -11.5682765163
215, -17.6476417277, -2.43294937081, -11.4065608721
216, -17.6838570181, -2.53117291991, -11.2654351616
217, -17.5205658204, -2.67602050567, -11.1130178375
218, -17.5461017708, -2.83373094464, -11.0398658608
219, -17.5634686444, -3.00592293598, -11.0094653864
220, -17.5714829175, -3.18086188006, -11.0238881565
221, -17.5695984305, -3.34662597692, -11.0821512831
222, -17.5579436083, -3.49191867731, -11.1802842305
223, -17.5373127075, -3.6068385238, -11.3115994004
224, -17.5091116902, -3.68355391877, -11.467147881
225, -17.4752624089, -3.71683683482, -11.6363293004
226, -17.4380716362, -3.70441909624, -11.8076142245
227, -17.4000738619, -3.64714695139, -11.9693298687
228, -17.3638585715, -3.54892340228, -12.1104555792
229, -17.3318937772, -3.41644222148, -12.221373872
230, -17.3063578268, -3.25873178251, -12.2945258488
231, -17.2889909532, -3.08653979116, -12.3249263231
232, -17.2809766801, -2.91160084709, -12.310503553
233, -17.2828611671, -2.74583675022, -12.2522404264
234, -17.2945159893, -2.60054404983, -12.1541074791
235, -17.3151468901, -2.48562420334, -12.0227923092
236, -17.3433479074, -2.40890880837, -11.8672438286
237, -17.3771971887, -2.37562589232, -11.6980624092
238, -17.4143879614, -2.3880436309, -11.5267774851
239, -17.4523857357, -2.44531577575, -11.3650618408
240, -17.4886010261, -2.54353932486, -11.2239361303
241, -17.3253098284, -2.68838691061, -11.0715188062
242, -17.3508457788, -2.84609734958, -10.9983668295
243, -17.3682126523, -3.01828934093, -10.9679663551
244, -17.3762269254, -3.19322828501, -10.9823891252
245, -17.3743424385, -3.35899238187, -11.0406522518
246, -17.3626876162, -3.50428508226, -11.1387851992
247, -17.3420567155, -3.61920492875, -11.2701003691
248, -17.3138556981, -3.69592032372, -11.4256488497
249, -17.2800064168, -3.72920323977, -11.5948302691
250, -17.2428156442, -3.71678550119, -11.7661151932
251, -17.2048178699, -3.65951335634, -11.9278308374
252, -17.1686025795, -3.56128980723, -12.0689565479
253, -17.1366377851, -3.42880862643, -12.1798748407
254, -17.1111018347, -3.27109818746, -12.2530268175
255, -17.0937349611, -3.09890619611, -12.2834272919
256, -17.0857206881, -2.92396725203, -12.2690045218
257, -17.087605175, -2.75820315517, -12.2107413951
258, -17.0992599973, -2.61291045478, -12.1126084478
259, -17.119890898, -2.49799060829, -11.9812932779
260, -17.1480919154, -2.42127521332, -11.8257447973
261, -17.1819411967, -2.38799229727, -11.6565633779
262, -17.2191319693, -2.40041003585, -11.4852784538
263, -17.2571297436, -2.4576821807, -11.3235628095
264, -17.293345034, -2.55590572981, -11.182437099
265, -17.1300538363, -2.70075331556, -11.0300197749
266, -17.1555897867, -2.85846375453, -10.9568677982
267, -17.1729566603, -3.03065574588, -10.9264673238
268, -17.1809709334, -3.20559468995, -10.9408900939
269, -17.1790864464, -3.37135878682, -10.9991532206
270, -17.1674316242, -3.51665148721, -11.0972861679
271, -17.1468007234, -3.6315713337, -11.2286013378
272, -17.1185997061, -3.70828672867, -11.3841498184
273, -17.0847504248, -3.74156964472, -11.5533312378
274, -17.0475596521, -3.72915190614, -11.7246161619
275, -17.0095618778, -3.67187976129, -11.8863318062
276, -16.9733465874, -3.57365621218, -12.0274575167
277, -16.9413817931, -3.44117503137, -12.1383758095
278, -16.9158458427, -3.2834645924, -12.2115277862
279, -16.8984789691, -3.11127260106, -12.2419282606
280, -16.890464696, -2.93633365698, -12.2275054905
281, -16.892349183, -2.77056956012, -12.1692423639
282, -16.9040040052, -2.62527685973, -12.0711094165
283, -16.924634906, -2.51035701324, -11.9397942466
284, -16.9528359233, -2.43364161827, -11.784245766
285, -16.9866852046, -2.40035870222, -11.6150643466
286, -17.0238759773, -2.4127764408, -11.4437794225
287, -17.0618737516, -2.47004858565, -11.2820637782
288, -17.098089042, -2.56827213476, -11.1409380677
289, -16.9347978443, -2.71311972051, -10.9885207437
290, -16.9603337947, -2.87083015948, -10.9153687669
291, -16.9777006682, -3.04302215083, -10.8849682925
292, -16.9857149413, -3.2179610949, -10.8993910626
293, -16.9838304544, -3.38372519177, -10.9576541893
294, -16.9721756321, -3.52901789216, -11.0557871366
295, -16.9515447314, -3.64393773865, -11.1871023065
296, -16.923343714, -3.72065313361, -11.3426507871
297, -16.8894944327, -3.75393604967, -11.5118322065
298, -16.8523036601, -3.74151831109, -11.6831171306
299, -16.8143058858, -3.68424616623, -11.8448327749
300, -16.7780905954, -3.58602261713, -11.9859584854
301, -16.746125801, -3.45354143632, -12.0968767782
302, -16.7205898506, -3.29583099735, -12.1700287549
303, -16.7032229771, -3.12363900601, -12.2004292293
304, -16.695208704, -2.94870006193, -12.1860064592
305, -16.6970931909, -2.78293596507, -12.1277433326
306, -16.7087480132, -2.63764326468, -12.0296103852
307, -16.7293789139, -2.52272341819, -11.8982952153
308, -16.7575799313, -2.44600802322, -11.7427467347
309, -16.7914292126, -2.41272510716, -11.5735653153
310, -16.8286199852, -2.42514284575, -11.4022803912
311, -16.8666177595, -2.4824149906, -11.240564747
312, -16.9028330499, -2.58063853971, -11.0994390365
313, -16.7395418522, -2.72548612546, -10.9470217124
314, -16.7650778026, -2.88319656443, -10.8738697356
315, -16.7824446762, -3.05538855578, -10.8434692613
316, -16.7904589493, -3.23032749985, -10.8578920314
317, -16.7885744623, -3.39609159672, -10.916155158
318, -16.7769196401, -3.5413842971, -11.0142881053
319, -16.7562887393, -3.6563041436, -11.1456032752
320, -16.728087722, -3.73301953856, -11.3011517558
321, -16.6942384407, -3.76630245462, -11.4703331752
322, -16.657047668, -3.75388471604, -11.6416180993
323, -16.6190498937, -3.69661257118, -11.8033337436
324, -16.5828346033, -3.59838902208, -11.9444594541
325, -16.550869809, -3.46590784127, -12.0553777469
326, -16.5253338586, -3.3081974023, -12.1285297236
327, -16.507966985, -3.13600541096, -12.158930198
328, -16.4999527119, -2.96106646688, -12.1445074279
329, -16.5018371989, -2.79530237002, -12.0862443013
330, -16.5134920211, -2.65000966963, -11.9881113539
331, -16.5341229219, -2.53508982314, -11.856796184
332, -16.5623239392, -2.45837442817, -11.7012477034
333, -16.5961732205, -2.42509151211, -11.532066284
334, -16.6333639932, -2.43750925069, -11.3607813599
335, -16.6713617675, -2.49478139555, -11.1990657157
336, -16.7075770579, -2.59300494466, -11.0579400052
337, -16.5442858602, -2.73785253041, -10.9055226811
338, -16.5698218106, -2.89556296938, -10.8323707043
339, -16.5871886841, -3.06775496073, -10.80197023
340, -16.5952029572, -3.2426939048, -10.8163930001
341, -16.5933184703, -3.40845800166, -10.8746561267
342, -16.581663648, -3.55375070205, -10.972789074
343, -16.5610327473, -3.66867054854, -11.1041042439
344, -16.5328317299, -3.74538594351, -11.2596527245
345, -16.4989824486, -3.77866885957, -11.428834144
346, -16.461791676, -3.76625112099, -11.6001190681
347, -16.4237939017, -3.70897897613, -11.7618347123
348, -16.3875786113, -3.61075542703, -11.9029604228
349, -16.3556138169, -3.47827424622, -12.0138787156
350, -16.3300778665, -3.32056380725, -12.0870306924
351, -16.312710993, -3.1483718159, -12.1174311667
352, -16.3046967199, -2.97343287183, -12.1030083966
353, -16.3065812068, -2.80766877497, -12.04474527
354, -16.3182360291, -2.66237607458, -11.9466123227
355, -16.3388669298, -2.54745622809, -11.8152971528
356, -16.3670679472, -2.47074083312, -11.6597486722
357, -16.4009172285, -2.43745791706, -11.4905672527
358, -16.4381080011, -2.44987565564, -11.3192823286
359, -16.4761057754, -2.5071478005, -11.1575666844
360, -16.5123210658, -2.6053713496, -11.0164409739
361, -16.3490298681, -2.75021893536, -10.8640236498
362, -16.3745658185, -2.90792937433, -10.7908716731
363, -16.3919326921, -3.08012136568, -10.7604711987
364, -16.3999469652, -3.25506030975, -10.7748939688
365, -16.3980624782, -3.42082440661, -10.8331570954
366, -16.386407656, -3.566117107, -10.9312900428
367, -16.3657767552, -3.68103695349, -11.0626052127
368, -16.3375757379, -3.75775234846, -11.2181536933
369, -16.3037264566, -3.79103526452, -11.3873351127
370, -16.2665356839, -3.77861752594, -11.5586200368
371, -16.2285379096, -3.72134538108, -11.720335681
372, -16.1923226192, -3.62312183198, -11.8614613915
373, -16.1603578249, -3.49064065117, -11.9723796843
374, -16.1348218745, -3.3329302122, -12.0455316611
375, -16.1174550009, -3.16073822085, -12.0759321354
376, -16.1094407278, -2.98579927678, -12.0615093653
377, -16.1113252148, -2.82003517992, -12.0032462387
378, -16.122980037, -2.67474247953, -11.9051132914
379, -16.1436109378, -2.55982263304, -11.7737981215
380, -16.1718119551, -2.48310723807, -11.6182496409
381, -16.2056612364, -2.44982432201, -11.4490682215
382, -16.2428520091, -2.46224206059, -11.2777832974
383, -16.2808497834, -2.51951420545, -11.1160676531
384, -16.3170650738, -2.61773775455, -10.9749419426
385, -16.1537738761, -2.76258534031, -10.8225246185
386, -16.1793098265, -2.92029577928, -10.7493726418
387, -16.1966767001, -3.09248777063, -10.7189721674
388, -16.2046909731, -3.2674267147, -10.7333949375
389, -16.2028064862, -3.43319081156, -10.7916580641
390, -16.1911516639, -3.57848351195, -10.8897910115
391, -16.1705207632, -3.69340335844, -11.0211061814
392, -16.1423197458, -3.77011875341, -11.176654662
393, -16.1084704645, -3.80340166947, -11.3458360814
394, -16.0712796919, -3.79098393089, -11.5171210055
395, -16.0332819176, -3.73371178603, -11.6788366497
396, -15.9970666272, -3.63548823692, -11.8199623602
397, -15.9651018328, -3.50300705612, -11.930880653
398, -15.9395658824, -3.34529661715, -12.0040326298
399, -15.9221990089, -3.1731046258, -12.0344331042
400, -15.9141847358, -2.99816568173, -12.0200103341
401, -15.9160692227, -2.83240158487, -11.9617472074
402, -15.927724045, -2.68710888448, -11.8636142601
403, -15.9483549457, -2.57218903799, -11.7322990902
404, -15.9765559631, -2.49547364302, -11.5767506096
405, -16.0104052444, -2.46219072696, -11.4075691902
406, -16.047596017, -2.47460846554, -11.2362842661
407, -16.0855937913, -2.5318806104, -11.0745686218
408, -16.1218090817, -2.6301041595, -10.9334429113
409, -15.958517884, -2.77495174526, -10.7810255872
410, -15.9840538344, -2.93266218423, -10.7078736105
411, -16.001420708, -3.10485417557, -10.6774731361
412, -16.0094349811, -3.27979311965, -10.6918959062
413, -16.0075504941, -3.44555721651, -10.7501590328
414, -15.9958956719, -3.5908499169, -10.8482919802
415, -15.9752647711, -3.70576976339, -10.9796071501
416, -15.9470637538, -3.78248515836, -11.1351556307
417, -15.9132144725, -3.81576807442, -11.3043370501
418, -15.8760236998, -3.80335033584, -11.4756219742
419, -15.8380259256, -3.74607819098, -11.6373376185
420, -15.8018106351, -3.64785464187, -11.778463329
421, -15.7698458408, -3.51537346107, -11.8893816218
422, -15.7443098904, -3.3576630221, -11.9625335985
423, -15.7269430168, -3.18547103075, -11.9929340729
424, -15.7189287437, -3.01053208668, -11.9785113028
425, -15.7208132307, -2.84476798981, -11.9202481761
426, -15.7324680529, -2.69947528943, -11.8221152288
427, -15.7530989537, -2.58455544293, -11.6908000589
428, -15.781299971, -2.50784004797, -11.5352515783
429, -15.8151492523, -2.47455713191, -11.3660701589
430, -15.852340025, -2.48697487049, -11.1947852348
431, -15.8903377993, -2.54424701535, -11.0330695905
432, -15.9265530897, -2.64247056445, -10.89194388
433, -15.763261892, -2.78731815021, -10.739526556
434, -15.7887978424, -2.94502858918, -10.6663745792
435, -15.806164716, -3.11722058052, -10.6359741048
436, -15.814178989, -3.2921595246, -10.6503968749
437, -15.8122945021, -3.45792362146, -10.7086600016
438, -15.8006396798, -3.60321632185, -10.8067929489
439, -15.7800087791, -3.71813616834, -10.9381081188
440, -15.7518077617, -3.79485156331, -11.0936565994
441, -15.7179584804, -3.82813447937, -11.2628380188
442, -15.6807677078, -3.81571674078, -11.4341229429
443, -15.6427699335, -3.75844459593, -11.5958385872
444, -15.6065546431, -3.66022104682, -11.7369642977
445, -15.5745898487, -3.52773986602, -11.8478825905
446, -15.5490538983, -3.37002942705, -11.9210345672
447, -15.5316870248, -3.1978374357, -11.9514350416
448, -15.5236727517, -3.02289849163, -11.9370122715
449, -15.5255572386, -2.85713439476, -11.8787491449
450, -15.5372120609, -2.71184169437, -11.7806161975
451, -15.5578429616, -2.59692184788, -11.6493010276
452, -15.586043979, -2.52020645291, -11.493752547
453, -15.6198932603, -2.48692353686, -11.3245711276
454, -15.6570840329, -2.49934127544, -11.1532862035
455, -15.6950818072, -2.55661342029, -10.9915705593
456, -15.7312970976, -2.6548369694, -10.8504448488
457, -15.5680058999, -2.79968455516, -10.6980275247
458, -15.5935418503, -2.95739499413, -10.6248755479
459, -15.6109087239, -3.12958698547, -10.5944750736
460, -15.618922997, -3.30452592955, -10.6088978437
461, -15.61703851, -3.47029002641, -10.6671609703
462, -15.6053836878, -3.6155827268, -10.7652939176
463, -15.5847527871, -3.73050257329, -10.8966090875
464, -15.5565517697, -3.80721796826, -11.0521575681
465, -15.5227024884, -3.84050088431, -11.2213389875
466, -15.4855117157, -3.82808314573, -11.3926239116
467, -15.4475139415, -3.77081100088, -11.5543395559
468, -15.411298651, -3.67258745177, -11.6954652664
469, -15.3793338567, -3.54010627097, -11.8063835592
470, -15.3537979063, -3.382395832, -11.8795355359
471, -15.3364310327, -3.21020384065, -11.9099360103
472, -15.3284167597, -3.03526489657, -11.8955132402
473, -15.3303012466, -2.86950079971, -11.8372501136
474, -15.3419560689, -2.72420809932, -11.7391171662
475, -15.3625869696, -2.60928825283, -11.6078019963
476, -15.3907879869, -2.53257285786, -11.4522535157
477, -15.4246372682, -2.49928994181, -11.2830720963
478, -15.4618280409, -2.51170768039, -11.1117871722
479, -15.4998258152, -2.56897982524, -10.950071528
480, -15.5360411056, -2.66720337435, -10.8089458175
481, -15.3727499079, -2.8120509601, -10.6565284934
482, -15.3982858583, -2.96976139907, -10.5833765166
483, -15.4156527319, -3.14195339042, -10.5529760423
484, -15.4236670049, -3.31689233449, -10.5673988124
485, -15.421782518, -3.48265643136, -10.625661939
486, -15.4101276957, -3.62794913175, -10.7237948863
487, -15.389496795, -3.74286897824, -10.8551100562
488, -15.3612957776, -3.81958437321, -11.0106585368
489, -15.3274464963, -3.85286728926, -11.1798399563
490, -15.2902557237, -3.84044955068, -11.3511248804
491, -15.2522579494, -3.78317740583, -11.5128405246
492, -15.216042659, -3.68495385672, -11.6539662351
493, -15.1840778646, -3.55247267591, -11.7648845279
494, -15.1585419142, -3.39476223694, -11.8380365047
495, -15.1411750407, -3.2225702456, -11.868436979
496, -15.1331607676, -3.04763130152, -11.8540142089
497, -15.1350452545, -2.88186720466, -11.7957510823
498, -15.1467000768, -2.73657450427, -11.6976181349
499, -15.1673309775, -2.62165465778, -11.5663029651
500, -15.1955319949, -2.54493926281, -11.4107544845
501, -15.2293812762, -2.51165634676, -11.241573065
502, -15.2665720488, -2.52407408534, -11.0702881409
503, -15.3045698231, -2.58134623019, -10.9085724967
504, -15.3407851135, -2.6795697793, -10.7674467862
505, -15.1774939158, -2.82441736505, -10.6150294621
506, -15.2030298662, -2.98212780402, -10.5418774854
507, -15.2203967398, -3.15431979537, -10.511477011
508, -15.2284110129, -3.32925873944, -10.5258997811
509, -15.2265265259, -3.49502283631, -10.5841629077
510, -15.2148717037, -3.6403155367, -10.6822958551
511, -15.194240803, -3.75523538319, -10.8136110249
512, -15.1660397856, -3.83195077815, -10.9691595056
513, -15.1321905043, -3.86523369421, -11.138340925
514, -15.0949997316, -3.85281595563, -11.3096258491
515, -15.0570019574, -3.79554381078, -11.4713414933
516, -15.0207866669, -3.69732026167, -11.6124672038
517, -14.9888218726, -3.56483908086, -11.7233854966
518, -14.9632859222, -3.40712864189, -11.7965374734
519, -14.9459190486, -3.23493665055, -11.8269379477
520, -14.9379047756, -3.05999770647, -11.8125151776
521, -14.9397892625, -2.89423360961, -11.754252051
522, -14.9514440848, -2.74894090922, -11.6561191037
523, -14.9720749855, -2.63402106273, -11.5248039338
524, -15.0002760028, -2.55730566776, -11.3692554532
525, -15.0341252841, -2.5240227517, -11.2000740338
526, -15.0713160568, -2.53644049029, -11.0287891097
527, -15.1093138311, -2.59371263514, -10.8670734654
528, -15.1455291215, -2.69193618425, -10.7259477549
529, -14.9822379238, -2.83678377, -10.5735304308
530, -15.0077738742, -2.99449420897, -10.5003784541
531, -15.0251407478, -3.16668620032, -10.4699779797
532, -15.0331550208, -3.34162514439, -10.4844007498
533, -15.0312705339, -3.50738924126, -10.5426638764
534, -15.0196157116, -3.65268194164, -10.6407968238
535, -14.9989848109, -3.76760178814, -10.7721119937
536, -14.9707837935, -3.8443171831, -10.9276604743
537, -14.9369345122, -3.87760009916, -11.0968418937
538, -14.8997437396, -3.86518236058, -11.2681268178
539, -14.8617459653, -3.80791021572, -11.429842462
540, -14.8255306749, -3.70968666662, -11.5709681725
541, -14.7935658805, -3.57720548581, -11.6818864653
542, -14.7680299301, -3.41949504684, -11.7550384421
543, -14.7506630566, -3.2473030555, -11.7854389165
544, -14.7426487835, -3.07236411142, -11.7710161464
545, -14.7445332704, -2.90660001456, -11.7127530197
546, -14.7561880927, -2.76130731417, -11.6146200724
547, -14.7768189934, -2.64638746768, -11.4833049025
548, -14.8050200108, -2.56967207271, -11.3277564219
549, -14.8388692921, -2.53638915665, -11.1585750025
550, -14.8760600647, -2.54880689523, -10.9872900784
551, -14.914057839, -2.60607904009, -10.8255744341
552, -14.9502731294, -2.7043025892, -10.6844487236
553, -14.7869819317, -2.84915017495, -10.5320313995
554, -14.8125178821, -3.00686061392, -10.4588794228
555, -14.8298847557, -3.17905260527, -10.4284789484
556, -14.8378990288, -3.35399154934, -10.4429017185
557, -14.8360145418, -3.5197556462, -10.5011648451
558, -14.8243597196, -3.66504834659, -10.5992977925
559, -14.8037288189, -3.77996819308, -10.7306129624
560, -14.7755278015, -3.85668358805, -10.886161443
561, -14.7416785202, -3.88996650411, -11.0553428624
562, -14.7044877475, -3.87754876553, -11.2266277865
563, -14.6664899733, -3.82027662067, -11.3883434308
564, -14.6302746828, -3.72205307157, -11.5294691413
565, -14.5983098885, -3.58957189076, -11.6403874341
566, -14.5727739381, -3.43186145179, -11.7135394108
567, -14.5554070645, -3.25966946044, -11.7439398852
568, -14.5473927915, -3.08473051637, -11.7295171151
569, -14.5492772784, -2.91896641951, -11.6712539884
570, -14.5609321007, -2.77367371912, -11.5731210411
571, -14.5815630014, -2.65875387263, -11.4418058712
572, -14.6097640187, -2.58203847766, -11.2862573906
573, -14.6436133, -2.5487555616, -11.1170759712
574, -14.6808040727, -2.56117330018, -10.9457910471
575, -14.718801847, -2.61844544504, -10.7840754028
576, -14.7550171374, -2.71666899415, -10.6429496923
577, -14.5917259397, -2.8615165799, -10.4905323682
578, -14.6172618901, -3.01922701887, -10.4173803915
579, -14.6346287637, -3.19141901022, -10.3869799171
580, -14.6426430367, -3.36635795429, -10.4014026872
581, -14.6407585498, -3.53212205115, -10.4596658139
582, -14.6291037275, -3.67741475154, -10.5577987612
583, -14.6084728268, -3.79233459803, -10.6891139311
584, -14.5802718094, -3.869049993, -10.8446624117
585, -14.5464225281, -3.90233290906, -11.0138438311
586, -14.5092317555, -3.88991517048, -11.1851287552
587, -14.4712339812, -3.83264302562, -11.3468443995
588, -14.4350186908, -3.73441947652, -11.48797011
589, -14.4030538964, -3.60193829571, -11.5988884028
590, -14.377517946, -3.44422785674, -11.6720403795
591, -14.3601510725, -3.27203586539, -11.7024408539
592, -14.3521367994, -3.09709692132, -11.6880180838
593, -14.3540212863, -2.93133282446, -11.6297549572
594, -14.3656761086, -2.78604012407, -11.5316220098
595, -14.3863070093, -2.67112027758, -11.4003068399
596, -14.4145080267, -2.59440488261, -11.2447583593
597, -14.448357308, -2.56112196655, -11.0755769399
598, -14.4855480806, -2.57353970513, -10.9042920158
599, -14.5235458549, -2.63081184999, -10.7425763716
600, -14.5597611453, -2.72903539909, -10.601450661
601, -14.3964699476, -2.87388298485, -10.449033337
602, -14.422005898, -3.03159342382, -10.3758813602
603, -14.4393727716, -3.20378541517, -10.3454808859
604, -14.4473870447, -3.37872435924, -10.359903656
605, -14.4455025577, -3.5444884561, -10.4181667826
606, -14.4338477355, -3.68978115649, -10.5162997299
607, -14.4132168348, -3.80470100298, -10.6476148998
608, -14.3850158174, -3.88141639795, -10.8031633804
609, -14.3511665361, -3.91469931401, -10.9723447998
610, -14.3139757635, -3.90228157543, -11.1436297239
611, -14.2759779892, -3.84500943057, -11.3053453682
612, -14.2397626987, -3.74678588147, -11.4464710787
613, -14.2077979044, -3.61430470066, -11.5573893715
614, -14.182261954, -3.45659426169, -11.6305413482
615, -14.1648950804, -3.28440227034, -11.6609418226
616, -14.1568808074, -3.10946332627, -11.6465190525
617, -14.1587652943, -2.94369922941, -11.5882559259
618, -14.1704201166, -2.79840652902, -11.4901229785
619, -14.1910510173, -2.68348668253, -11.3588078086
620, -14.2192520346, -2.60677128756, -11.203259328
621, -14.2531013159, -2.5734883715, -11.0340779086
622, -14.2902920886, -2.58590611008, -10.8627929845
623, -14.3282898629, -2.64317825494, -10.7010773403
624, -14.3645051533, -2.74140180404, -10.5599516298
625, -14.2012139556, -2.8862493898, -10.4075343057
626, -14.226749906, -3.04395982877, -10.3343823289
627, -14.2441167796, -3.21615182011, -10.3039818546
628, -14.2521310526, -3.39109076419, -10.3184046247
629, -14.2502465657, -3.55685486105, -10.3766677513
630, -14.2385917434, -3.70214756144, -10.4748006986
631, -14.2179608427, -3.81706740793, -10.6061158685
632, -14.1897598253, -3.8937828029, -10.7616643491
633, -14.155910544, -3.92706571896, -10.9308457686
634, -14.1187197714, -3.91464798038, -11.1021306927
635, -14.0807219971, -3.85737583552, -11.2638463369
636, -14.0445067067, -3.75915228641, -11.4049720474
637, -14.0125419123, -3.62667110561, -11.5158903402
638, -13.9870059619, -3.46896066664, -11.589042317
639, -13.9696390884, -3.29676867529, -11.6194427913
640, -13.9616248153, -3.12182973122, -11.6050200212
641, -13.9635093022, -2.95606563435, -11.5467568946
642, -13.9751641245, -2.81077293397, -11.4486239472
643, -13.9957950252, -2.69585308747, -11.3173087774
644, -14.0239960426, -2.61913769251, -11.1617602968
645, -14.0578453239, -2.58585477645, -10.9925788773
646, -14.0950360965, -2.59827251503, -10.8212939532
647, -14.1330338708, -2.65554465989, -10.659578309
648, -14.1692491612, -2.75376820899, -10.5184525985
649, -14.0059579635, -2.89861579475, -10.3660352744
650, -14.0314939139, -3.05632623372, -10.2928832977
651, -14.0488607875, -3.22851822506, -10.2624828233
652, -14.0568750606, -3.40345716914, -10.2769055934
653, -14.0549905736, -3.569221266, -10.33516872
654, -14.0433357514, -3.71451396639, -10.4333016674
655, -14.0227048507, -3.82943381288, -10.5646168372
656, -13.9945038333, -3.90614920785, -10.7201653179
657, -13.960654552, -3.93943212391, -10.8893467373
658, -13.9234637794, -3.92701438532, -11.0606316614
659, -13.8854660051, -3.86974224047, -11.2223473056
660, -13.8492507146, -3.77151869136, -11.3634730161
661, -13.8172859203, -3.63903751056, -11.4743913089
662, -13.7917499699, -3.48132707159, -11.5475432857
663, -13.7743830963, -3.30913508024, -11.57794376
664, -13.7663688233, -3.13419613617, -11.5635209899
665, -13.7682533102, -2.9684320393, -11.5052578633
666, -13.7799081325, -2.82313933891, -11.407124916
667, -13.8005390332, -2.70821949242, -11.2758097461
668, -13.8287400505, -2.63150409746, -11.1202612655
669, -13.8625893318, -2.5982211814, -10.951079846
670, -13.8997801045, -2.61063891998, -10.779794922
671, -13.9377778788, -2.66791106484, -10.6180792777
672, -13.9739931692, -2.76613461394, -10.4769535672
673, -13.8107019715, -2.9109821997, -10.3245362431
674, -13.8362379219, -3.06869263867, -10.2513842664
675, -13.8536047955, -3.24088463001, -10.220983792
676, -13.8616190685, -3.41582357409, -10.2354065621
677, -13.8597345816, -3.58158767095, -10.2936696887
678, -13.8480797593, -3.72688037134, -10.3918026361
679, -13.8274488586, -3.84180021783, -10.523117806
680, -13.7992478412, -3.9185156128, -10.6786662866
681, -13.7653985599, -3.95179852885, -10.847847706
682, -13.7282077873, -3.93938079027, -11.0191326301
683, -13.690210013, -3.88210864542, -11.1808482743
684, -13.6539947226, -3.78388509631, -11.3219739848
685, -13.6220299282, -3.65140391551, -11.4328922776
686, -13.5964939778, -3.49369347654, -11.5060442544
687, -13.5791271043, -3.32150148519, -11.5364447288
688, -13.5711128312, -3.14656254112, -11.5220219587
689, -13.5729973181, -2.98079844425, -11.463758832
690, -13.5846521404, -2.83550574386, -11.3656258847
691, -13.6052830411, -2.72058589737, -11.2343107148
692, -13.6334840585, -2.6438705024, -11.0787622342
693, -13.6673333398, -2.61058758635, -10.9095808148
694, -13.7045241124, -2.62300532493, -10.7382958907
695, -13.7425218867, -2.68027746978, -10.5765802464
696, -13.7787371771, -2.77850101889, -10.4354545359
697, -13.6154459794, -2.92334860464, -10.2830372118
698, -13.6409819298, -3.08105904361, -10.2098852351
699, -13.6583488034, -3.25325103496, -10.1794847607
700, -13.6663630765, -3.42818997904, -10.1939075308
701, -13.6644785895, -3.5939540759, -10.2521706574
702, -13.6528237673, -3.73924677629, -10.3503036048
703, -13.6321928666, -3.85416662278, -10.4816187747
704, -13.6039918492, -3.93088201775, -10.6371672553
705, -13.5701425679, -3.9641649338, -10.8063486747
706, -13.5329517953, -3.95174719522, -10.9776335988
707, -13.494954021, -3.89447505037, -11.1393492431
708, -13.4587387305, -3.79625150126, -11.2804749536
709, -13.4267739362, -3.66377032045, -11.3913932464
710, -13.4012379858, -3.50605988149, -11.4645452231
711, -13.3838711122, -3.33386789014, -11.4949456975
712, -13.3758568392, -3.15892894606, -11.4805229274
713, -13.3777413261, -2.9931648492, -11.4222598007
714, -13.3893961484, -2.84787214881, -11.3241268534
715, -13.4100270491, -2.73295230232, -11.1928116835
716, -13.4382280664, -2.65623690735, -11.0372632029
717, -13.4720773477, -2.6229539913, -10.8680817835
718, -13.5092681204, -2.63537172988, -10.6967968594
719, -13.5472658947, -2.69264387473, -10.5350812151
720, -13.5834811851, -2.79086742384, -10.3939555046
721, -13.4201899874, -2.93571500959, -10.2415381805
722, -13.4457259378, -3.09342544856, -10.1683862038
723, -13.4630928114, -3.26561743991, -10.1379857294
724, -13.4711070844, -3.44055638398, -10.1524084995
725, -13.4692225975, -3.60632048085, -10.2106716262
726, -13.4575677752, -3.75161318124, -10.3088045735
727, -13.4369368745, -3.86653302773, -10.4401197434
728, -13.4087358571, -3.9432484227, -10.595668224
729, -13.3748865758, -3.97653133875, -10.7648496434
730, -13.3376958032, -3.96411360017, -10.9361345675
731, -13.2996980289, -3.90684145532, -11.0978502118
732, -13.2634827385, -3.80861790621, -11.2389759223
733, -13.2315179441, -3.6761367254, -11.3498942151
734, -13.2059819937, -3.51842628643, -11.4230461918
735, -13.1886151202, -3.34623429509, -11.4534466662
736, -13.1806008471, -3.17129535101, -11.4390238961
737, -13.182485334, -3.00553125415, -11.3807607695
738, -13.1941401563, -2.86023855376, -11.2826278221
739, -13.214771057, -2.74531870727, -11.1513126522
740, -13.2429720744, -2.6686033123, -10.9957641716
741, -13.2768213557, -2.63532039625, -10.8265827522
742, -13.3140121283, -2.64773813483, -10.6552978281
743, -13.3520099026, -2.70501027968, -10.4935821838
744, -13.388225193, -2.80323382879, -10.3524564733
745, -13.2249339953, -2.94808141454, -10.2000391493
746, -13.2504699457, -3.10579185351, -10.1268871725
747, -13.2678368193, -3.27798384486, -10.0964866981
748, -13.2758510924, -3.45292278893, -10.1109094683
749, -13.2739666054, -3.6186868858, -10.1691725949
750, -13.2623117832, -3.76397958619, -10.2673055422
751, -13.2416808825, -3.87889943268, -10.3986207121
752, -13.2134798651, -3.95561482764, -10.5541691927
753, -13.1796305838, -3.9888977437, -10.7233506121
754, -13.1424398112, -3.97648000512, -10.8946355362
755, -13.1044420369, -3.91920786026, -11.0563511805
756, -13.0682267464, -3.82098431116, -11.197476891
757, -13.0362619521, -3.68850313035, -11.3083951838
758, -13.0107260017, -3.53079269138, -11.3815471605
759, -12.9933591281, -3.35860070004, -11.4119476349
760, -12.9853448551, -3.18366175596, -11.3975248648
761, -12.987229342, -3.0178976591, -11.3392617382
762, -12.9988841643, -2.87260495871, -11.2411287908
763, -13.019515065, -2.75768511222, -11.1098136209
764, -13.0477160823, -2.68096971725, -10.9542651403
765, -13.0815653636, -2.64768680119, -10.7850837209
766, -13.1187561363, -2.66010453978, -10.6137987968
767, -13.1567539106, -2.71737668463, -10.4520831526
768, -13.192969201, -2.81560023374, -10.3109574421
769, -13.0296780033, -2.96044781949, -10.158540118
770, -13.0552139537, -3.11815825846, -10.0853881412
771, -13.0725808273, -3.29035024981, -10.0549876669
772, -13.0805951003, -3.46528919388, -10.069410437
773, -13.0787106134, -3.63105329075, -10.1276735636
774, -13.0670557911, -3.77634599113, -10.2258065109
775, -13.0464248904, -3.89126583762, -10.3571216808
776, -13.018223873, -3.96798123259, -10.5126701614
777, -12.9843745917, -4.00126414865, -10.6818515809
778, -12.9471838191, -3.98884641007, -10.853136505
779, -12.9091860448, -3.93157426521, -11.0148521492
780, -12.8729707544, -3.83335071611, -11.1559778597
781, -12.84100596, -3.7008695353, -11.2668961525
782, -12.8154700097, -3.54315909633, -11.3400481293
783, -12.7981031361, -3.37096710499, -11.3704486036
784, -12.790088863, -3.19602816091, -11.3560258335
785, -12.7919733499, -3.03026406405, -11.2977627069
786, -12.8036281722, -2.88497136366, -11.1996297595
787, -12.8242590729, -2.77005151717, -11.0683145897
788, -12.8524600903, -2.6933361222, -10.9127661091
789, -12.8863093716, -2.66005320614, -10.7435846896
790, -12.9235001442, -2.67247094472, -10.5722997655
791, -12.9614979185, -2.72974308958, -10.4105841213
792, -12.9977132089, -2.82796663869, -10.2694584108
793, -12.8344220112, -2.97281422444, -10.1170410867
794, -12.8599579616, -3.13052466341, -10.0438891099
795, -12.8773248352, -3.30271665476, -10.0134886356
796, -12.8853391083, -3.47765559883, -10.0279114057
797, -12.8834546213, -3.64341969569, -10.0861745323
798, -12.8717997991, -3.78871239608, -10.1843074797
799, -12.8511688984, -3.90363224257, -10.3156226495
800, -12.822967881, -3.98034763754, -10.4711711301
801, -12.7891185997, -4.0136305536, -10.6403525496
802, -12.7519278271, -4.00121281502, -10.8116374737
803, -12.7139300528, -3.94394067016, -10.9733531179
804, -12.6777147623, -3.84571712106, -11.1144788284
805, -12.645749968, -3.71323594025, -11.2253971212
806, -12.6202140176, -3.55552550128, -11.298549098
807, -12.602847144, -3.38333350993, -11.3289495723
808, -12.594832871, -3.20839456586, -11.3145268022
809, -12.5967173579, -3.042630469, -11.2562636756
810, -12.6083721802, -2.89733776861, -11.1581307283
811, -12.6290030809, -2.78241792212, -11.0268155584
812, -12.6572040982, -2.70570252715, -10.8712670778
813, -12.6910533795, -2.67241961109, -10.7020856583
814, -12.7282441522, -2.68483734967, -10.5308007342
815, -12.7662419265, -2.74210949453, -10.36908509
816, -12.8024572169, -2.84033304363, -10.2279593795
817, -12.6391660192, -2.98518062939, -10.0755420554
818, -12.6647019696, -3.14289106836, -10.0023900787
819, -12.6820688432, -3.31508305971, -9.9719896043
820, -12.6900831162, -3.49002200378, -9.9864123744
821, -12.6881986293, -3.65578610064, -10.044675501
822, -12.676543807, -3.80107880103, -10.1428084484
823, -12.6559129063, -3.91599864752, -10.2741236183
824, -12.6277118889, -3.99271404249, -10.4296720989
825, -12.5938626076, -4.02599695855, -10.5988535183
826, -12.556671835, -4.01357921997, -10.7701384424
827, -12.5186740607, -3.95630707511, -10.9318540866
828, -12.4824587703, -3.85808352601, -11.0729797971
829, -12.4504939759, -3.7256023452, -11.1838980899
830, -12.4249580256, -3.56789190623, -11.2570500667
831, -12.407591152, -3.39569991488, -11.2874505411
832, -12.3995768789, -3.22076097081, -11.2730277709
833, -12.4014613658, -3.05499687395, -11.2147646443
834, -12.4131161881, -2.90970417356, -11.116631697
835, -12.4337470888, -2.79478432707, -10.9853165271
836, -12.4619481062, -2.7180689321, -10.8297680465
837, -12.4957973875, -2.68478601604, -10.6605866271
838, -12.5329881601, -2.69720375462, -10.489301703
839, -12.5709859344, -2.75447589948, -10.3275860587
840, -12.6072012248, -2.85269944858, -10.1864603482
841, -12.4439100271, -2.99754703434, -10.0340430241
842, -12.4694459775, -3.15525747331, -9.96089104738
843, -12.4868128511, -3.32744946466, -9.93049057301
844, -12.4948271242, -3.50238840873, -9.94491334312
845, -12.4929426372, -3.66815250559, -10.0031764697
846, -12.481287815, -3.81344520598, -10.1013094171
847, -12.4606569143, -3.92836505247, -10.232624587
848, -12.4324558969, -4.00508044744, -10.3881730676
849, -12.3986066156, -4.0383633635, -10.557354487
850, -12.361415843, -4.02594562492, -10.7286394111
851, -12.3234180687, -3.96867348006, -10.8903550554
852, -12.2872027782, -3.87044993095, -11.0314807659
853, -12.2552379839, -3.73796875015, -11.1423990587
854, -12.2297020335, -3.58025831118, -11.2155510354
855, -12.2123351599, -3.40806631983, -11.2459515098
856, -12.2043208869, -3.23312737576, -11.2315287397
857, -12.2062053738, -3.06736327889, -11.173265613
858, -12.2178601961, -2.92207057851, -11.0751326657
859, -12.2384910968, -2.80715073202, -10.9438174958
860, -12.2666921141, -2.73043533705, -10.7882690152
861, -12.3005413954, -2.69715242099, -10.6190875958
862, -12.3377321681, -2.70957015957, -10.4478026717
863, -12.3757299424, -2.76684230443, -10.2860870274
864, -12.4119452328, -2.86506585353, -10.1449613169
865, -12.2486540351, -3.00991343929, -9.99254399284
866, -12.2741899855, -3.16762387826, -9.9193920161
867, -12.2915568591, -3.3398158696, -9.88899154173
868, -12.2995711321, -3.51475481368, -9.90341431183
869, -12.2976866452, -3.68051891054, -9.96167743846
870, -12.2860318229, -3.82581161093, -10.0598103858
871, -12.2654009222, -3.94073145742, -10.1911255557
872, -12.2371999048, -4.01744685239, -10.3466740363
873, -12.2033506236, -4.05072976845, -10.5158554557
874, -12.1661598509, -4.03831202987, -10.6871403798
875, -12.1281620766, -3.98103988501, -10.8488560241
876, -12.0919467862, -3.8828163359, -10.9899817346
877, -12.0599819918, -3.7503351551, -11.1009000274
878, -12.0344460415, -3.59262471613, -11.1740520041
879, -12.0170791679, -3.42043272478, -11.2044524785
880, -12.0090648948, -3.24549378071, -11.1900297084
881, -12.0109493818, -3.07972968384, -11.1317665818
882, -12.022604204, -2.93443698345, -11.0336336344
883, -12.0432351047, -2.81951713696, -10.9023184645
884, -12.0714361221, -2.742801742, -10.7467699839
885, -12.1052854034, -2.70951882594, -10.5775885645
886, -12.142476176, -2.72193656452, -10.4063036404
887, -12.1804739503, -2.77920870938, -10.2445879961
888, -12.2166892407, -2.87743225848, -10.1034622856
889, -12.0533980431, -3.02227984424, -9.95104496156
890, -12.0789339934, -3.17999028321, -9.87789298481
891, -12.096300867, -3.35218227455, -9.84749251045
892, -12.1043151401, -3.52712121863, -9.86191528055
893, -12.1024306531, -3.69288531549, -9.92017840717
894, -12.0907758309, -3.83817801588, -10.0183113545
895, -12.0701449302, -3.95309786237, -10.1496265244
896, -12.0419439128, -4.02981325734, -10.305175005
897, -12.0080946315, -4.0630961734, -10.4743564244
898, -11.9709038589, -4.05067843481, -10.6456413485
899, -11.9329060846, -3.99340628996, -10.8073569928
900, -11.8966907941, -3.89518274085, -10.9484827033
901, -11.8647259998, -3.76270156005, -11.0594009961
902, -11.8391900494, -3.60499112108, -11.1325529728
903, -11.8218231758, -3.43279912973, -11.1629534472
904, -11.8138089028, -3.25786018566, -11.1485306771
905, -11.8156933897, -3.09209608879, -11.0902675505
906, -11.827348212, -2.9468033884, -10.9921346031
907, -11.8479791127, -2.83188354191, -10.8608194332
908, -11.87618013, -2.75516814694, -10.7052709526
909, -11.9100294113, -2.72188523089, -10.5360895332
910, -11.947220184, -2.73430296947, -10.3648046091
911, -11.9852179583, -2.79157511432, -10.2030889649
912, -12.0214332487, -2.88979866343, -10.0619632544
913, -11.858142051, -3.03464624919, -9.90954593028
914, -11.8836780014, -3.19235668816, -9.83639395353
915, -11.901044875, -3.3645486795, -9.80599347916
916, -11.909059148, -3.53948762358, -9.82041624927
917, -11.9071746611, -3.70525172044, -9.87867937589
918, -11.8955198388, -3.85054442083, -9.97681232324
919, -11.8748889381, -3.96546426732, -10.1081274931
920, -11.8466879207, -4.04217966229, -10.2636759737
921, -11.8128386395, -4.07546257834, -10.4328573932
922, -11.7756478668, -4.06304483976, -10.6041423172
923, -11.7376500925, -4.00577269491, -10.7658579615
924, -11.7014348021, -3.9075491458, -10.906983672
925, -11.6694700077, -3.775067965, -11.0179019648
926, -11.6439340574, -3.61735752603, -11.0910539416
927, -11.6265671838, -3.44516553468, -11.1214544159
928, -11.6185529107, -3.2702265906, -11.1070316458
929, -11.6204373977, -3.10446249374, -11.0487685192
930, -11.6320922199, -2.95916979335, -10.9506355718
931, -11.6527231206, -2.84424994686, -10.819320402
932, -11.680924138, -2.76753455189, -10.6637719214
933, -11.7147734193, -2.73425163584, -10.4945905019
934, -11.7519641919, -2.74666937442, -10.3233055778
935, -11.7899619662, -2.80394151927, -10.1615899336
936, -11.8261772566, -2.90216506838, -10.0204642231
937, -11.662886059, -3.04701265413, -9.86804689899
938, -11.6884220093, -3.2047230931, -9.79489492225
939, -11.7057888829, -3.37691508445, -9.76449444788
940, -11.713803156, -3.55185402852, -9.77891721798
941, -11.711918669, -3.71761812539, -9.83718034461
942, -11.7002638468, -3.86291082578, -9.93531329196
943, -11.6796329461, -3.97783067227, -10.0666284618
944, -11.6514319287, -4.05454606724, -10.2221769424
945, -11.6175826474, -4.08782898329, -10.3913583619
946, -11.5803918748, -4.07541124471, -10.562643286
947, -11.5423941005, -4.01813909986, -10.7243589302
948, -11.50617881, -3.91991555075, -10.8654846407
949, -11.4742140157, -3.78743436994, -10.9764029335
950, -11.4486780653, -3.62972393097, -11.0495549103
951, -11.4313111917, -3.45753193963, -11.0799553846
952, -11.4232969187, -3.28259299555, -11.0655326145
953, -11.4251814056, -3.11682889869, -11.0072694879
954, -11.4368362279, -2.9715361983, -10.9091365406
955, -11.4574671286, -2.85661635181, -10.7778213707
956, -11.4856681459, -2.77990095684, -10.6222728901
957, -11.5195174272, -2.74661804079, -10.4530914706
958, -11.5567081999, -2.75903577937, -10.2818065465
959, -11.5947059742, -2.81630792422, -10.1200909023
960, -11.6309212646, -2.91453147333, -9.97896519179
961, -11.4676300669, -3.05937905908, -9.82654786771
962, -11.4931660173, -3.21708949805, -9.75339589096
963, -11.5105328909, -3.3892814894, -9.7229954166
964, -11.5185471639, -3.56422043347, -9.7374181867
965, -11.516662677, -3.72998453034, -9.79568131332
966, -11.5050078547, -3.87527723073, -9.89381426067
967, -11.484376954, -3.99019707722, -10.0251294306
968, -11.4561759366, -4.06691247218, -10.1806779112
969, -11.4223266554, -4.10019538824, -10.3498593306
970, -11.3851358827, -4.08777764966, -10.5211442547
971, -11.3471381084, -4.0305055048, -10.6828598989
972, -11.310922818, -3.9322819557, -10.8239856094
973, -11.2789580236, -3.79980077489, -10.9349039022
974, -11.2534220733, -3.64209033592, -11.008055879
975, -11.2360551997, -3.46989834458, -11.0384563533
976, -11.2280409266, -3.2949594005, -11.0240335832
977, -11.2299254136, -3.12919530364, -10.9657704566
978, -11.2415802358, -2.98390260325, -10.8676375093
979, -11.2622111365, -2.86898275676, -10.7363223394
980, -11.2904121539, -2.79226736179, -10.5807738588
981, -11.3242614352, -2.75898444573, -10.4115924394
982, -11.3614522078, -2.77140218432, -10.2403075153
983, -11.3994499821, -2.82867432917, -10.078591871
984, -11.4356652725, -2.92689787828, -9.93746616051
985, -11.2723740749, -3.07174546403, -9.78504883643
986, -11.2979100252, -3.229455903, -9.71189685968
987, -11.3152768988, -3.40164789435, -9.68149638531
988, -11.3232911719, -3.57658683842, -9.69591915541
989, -11.3214066849, -3.74235093529, -9.75418228204
990, -11.3097518627, -3.88764363567, -9.85231522939
991, -11.289120962, -4.00256348217, -9.98363039927
992, -11.2609199446, -4.07927887713, -10.1391788799
993, -11.2270706633, -4.11256179319, -10.3083602993
994, -11.1898798907, -4.10014405461, -10.4796452234
995, -11.1518821164, -4.04287190975, -10.6413608677
996, -11.1156668259, -3.94464836065, -10.7824865782
997, -11.0837020316, -3.81216717984, -10.893404871
998, -11.0581660812, -3.65445674087, -10.9665568477
999, -11.0407992076, -3.48226474953, -10.9969573221
1000, -11.0327849346, -3.30732580545, -10.982534552
1001, -11.0346694215, -3.14156170859, -10.9242714253
1002, -11.0463242438, -2.9962690082, -10.826138478
1003, -11.0669551445, -2.88134916171, -10.6948233081
1004, -11.0951561618, -2.80463376674, -10.5392748275
1005, -11.1290054431, -2.77135085068, -10.3700934081
1006, -11.1661962158, -2.78376858926, -10.198808484
1007, -11.2041939901, -2.84104073412, -10.0370928397
1008, -11.2404092805, -2.93926428323, -9.89596712923
1009, -11.0771180828, -3.08411186898, -9.74354980514
1010, -11.1026540332, -3.24182230795, -9.6703978284
1011, -11.1200209068, -3.4140142993, -9.63999735403
1012, -11.1280351798, -3.58895324337, -9.65442012413
1013, -11.1261506929, -3.75471734023, -9.71268325075
1014, -11.1144958706, -3.90001004062, -9.8108161981
1015, -11.0938649699, -4.01492988711, -9.94213136799
1016, -11.0656639525, -4.09164528208, -10.0976798486
1017, -11.0318146713, -4.12492819814, -10.266861268
1018, -10.9946238986, -4.11251045956, -10.4381461921
1019, -10.9566261243, -4.0552383147, -10.5998618364
1020, -10.9204108339, -3.9570147656, -10.7409875469
1021, -10.8884460395, -3.82453358479, -10.8519058397
1022, -10.8629100892, -3.66682314582, -10.9250578164
1023, -10.8455432156, -3.49463115447, -10.9554582908
1024, -10.8375289425, -3.3196922104, -10.9410355207
1025, -10.8394134295, -3.15392811354, -10.8827723941
1026, -10.8510682517, -3.00863541315, -10.7846394467
1027, -10.8716991524, -2.89371556666, -10.6533242768
1028, -10.8999001698, -2.81700017169, -10.4977757962
1029, -10.9337494511, -2.78371725563, -10.3285943768
1030, -10.9709402237, -2.79613499421, -10.1573094527
1031, -11.008937998, -2.85340713907, -9.99559380844
1032, -11.0451532884, -2.95163068818, -9.85446809794
1033, -10.8818620908, -3.09647827393, -9.70205077386
1034, -10.9073980411, -3.2541887129, -9.62889879711
1035, -10.9247649147, -3.42638070425, -9.59849832274
1036, -10.9327791878, -3.60131964832, -9.61292109285
1037, -10.9308947008, -3.76708374518, -9.67118421947
1038, -10.9192398786, -3.91237644557, -9.76931716682
1039, -10.8986089779, -4.02729629206, -9.90063233671
1040, -10.8704079605, -4.10401168703, -10.0561808173
1041, -10.8365586792, -4.13729460309, -10.2253622367
1042, -10.7993679066, -4.12487686451, -10.3966471608
1043, -10.7613701323, -4.06760471965, -10.5583628051
1044, -10.7251548418, -3.96938117055, -10.6994885156
1045, -10.6931900475, -3.83689998974, -10.8104068084
1046, -10.6676540971, -3.67918955077, -10.8835587851
1047, -10.6502872235, -3.50699755942, -10.9139592595
1048, -10.6422729505, -3.33205861535, -10.8995364894
1049, -10.6441574374, -3.16629451849, -10.8412733628
1050, -10.6558122597, -3.0210018181, -10.7431404154
1051, -10.6764431604, -2.90608197161, -10.6118252455
1052, -10.7046441777, -2.82936657664, -10.4562767649
1053, -10.738493459, -2.79608366058, -10.2870953455
1054, -10.7756842317, -2.80850139916, -10.1158104214
1055, -10.813682006, -2.86577354402, -9.95409477716
1056, -10.8498972964, -2.96399709312, -9.81296906666
1057, -10.6866060987, -3.10884467888, -9.66055174257
1058, -10.7121420491, -3.26655511785, -9.58739976583
1059, -10.7295089227, -3.4387471092, -9.55699929146
1060, -10.7375231957, -3.61368605327, -9.57142206156
1061, -10.7356387088, -3.77945015013, -9.62968518819
1062, -10.7239838865, -3.92474285052, -9.72781813554
1063, -10.7033529858, -4.03966269701, -9.85913330542
1064, -10.6751519685, -4.11637809198, -10.014681786
1065, -10.6413026872, -4.14966100804, -10.1838632055
1066, -10.6041119145, -4.13724326946, -10.3551481295
1067, -10.5661141402, -4.0799711246, -10.5168637738
1068, -10.5298988498, -3.98174757549, -10.6579894843
1069, -10.4979340554, -3.84926639469, -10.7689077771
1070, -10.4723981051, -3.69155595572, -10.8420597538
1071, -10.4550312315, -3.51936396437, -10.8724602282
1072, -10.4470169584, -3.3444250203, -10.8580374581
1073, -10.4489014454, -3.17866092344, -10.7997743315
1074, -10.4605562676, -3.03336822305, -10.7016413841
1075, -10.4811871683, -2.91844837656, -10.5703262143
1076, -10.5093881857, -2.84173298159, -10.4147777336
1077, -10.543237467, -2.80845006553, -10.2455963142
1078, -10.5804282396, -2.82086780411, -10.0743113901
1079, -10.6184260139, -2.87813994897, -9.91259574588
1080, -10.6546413043, -2.97636349807, -9.77147003537
1081, -10.4913501067, -3.12121108383, -9.61905271129
1082, -10.516886057, -3.2789215228, -9.54590073454
1083, -10.5342529306, -3.45111351414, -9.51550026018
1084, -10.5422672037, -3.62605245822, -9.52992303028
1085, -10.5403827167, -3.79181655508, -9.5881861569
1086, -10.5287278945, -3.93710925547, -9.68631910425
1087, -10.5080969938, -4.05202910196, -9.81763427414
1088, -10.4798959764, -4.12874449693, -9.97318275474
1089, -10.4460466951, -4.16202741299, -10.1423641742
1090, -10.4088559225, -4.14960967441, -10.3136490983
1091, -10.3708581482, -4.09233752955, -10.4753647425
1092, -10.3346428577, -3.99411398044, -10.616490453
1093, -10.3026780634, -3.86163279964, -10.7274087458
1094, -10.277142113, -3.70392236067, -10.8005607226
1095, -10.2597752394, -3.53173036932, -10.8309611969
1096, -10.2517609664, -3.35679142525, -10.8165384268
1097, -10.2536454533, -3.19102732838, -10.7582753002
1098, -10.2653002756, -3.045734628, -10.6601423529
1099, -10.2859311763, -2.9308147815, -10.528827183
1100, -10.3141321936, -2.85409938654, -10.3732787024
1101, -10.3479814749, -2.82081647048, -10.2040972829
1102, -10.3851722476, -2.83323420906, -10.0328123588
1103, -10.4231700219, -2.89050635392, -9.87109671459
1104, -10.4593853123, -2.98872990302, -9.72997100409
1105, -10.2960941146, -3.13357748878, -9.57755368001
1106, -10.321630065, -3.29128792775, -9.50440170326
1107, -10.3389969386, -3.46347991909, -9.47400122889
1108, -10.3470112116, -3.63841886317, -9.488423999
1109, -10.3451267247, -3.80418296003, -9.54668712562
1110, -10.3334719024, -3.94947566042, -9.64482007297
1111, -10.3128410017, -4.06439550691, -9.77613524286
1112, -10.2846399844, -4.14111090188, -9.93168372346
1113, -10.2507907031, -4.17439381794, -10.1008651429
1114, -10.2135999304, -4.16197607935, -10.272150067
1115, -10.1756021561, -4.1047039345, -10.4338657112
1116, -10.1393868657, -4.00648038539, -10.5749914217
1117, -10.1074220713, -3.87399920459, -10.6859097145
1118, -10.081886121, -3.71628876562, -10.7590616913
1119, -10.0645192474, -3.54409677427, -10.7894621656
1120, -10.0565049743, -3.3691578302, -10.7750393955
1121, -10.0583894613, -3.20339373333, -10.7167762689
1122, -10.0700442835, -3.05810103294, -10.6186433216
1123, -10.0906751842, -2.94318118645, -10.4873281517
1124, -10.1188762016, -2.86646579149, -10.3317796711
1125, -10.1527254829, -2.83318287543, -10.1625982517
1126, -10.1899162555, -2.84560061401, -9.99131332756
1127, -10.2279140298, -2.90287275887, -9.82959768331
1128, -10.2641293202, -3.00109630797, -9.68847197281
1129, -10.1008381226, -3.14594389373, -9.53605464872
1130, -10.1263740729, -3.3036543327, -9.46290267198
1131, -10.1437409465, -3.47584632404, -9.43250219761
1132, -10.1517552196, -3.65078526812, -9.44692496771
1133, -10.1498707326, -3.81654936498, -9.50518809434
1134, -10.1382159104, -3.96184206537, -9.60332104169
1135, -10.1175850097, -4.07676191186, -9.73463621157
1136, -10.0893839923, -4.15347730683, -9.89018469218
1137, -10.055534711, -4.18676022288, -10.0593661116
1138, -10.0183439384, -4.1743424843, -10.2306510357
1139, -9.98034616407, -4.11707033945, -10.3923666799
1140, -9.94413087365, -4.01884679034, -10.5334923904
1141, -9.91216607929, -3.88636560954, -10.6444106833
1142, -9.88663012891, -3.72865517057, -10.71756266
1143, -9.86926325533, -3.55646317922, -10.7479631344
1144, -9.86124898227, -3.38152423515, -10.7335403643
1145, -9.86313346921, -3.21576013828, -10.6752772376
1146, -9.87478829147, -3.07046743789, -10.5771442903
1147, -9.89541919218, -2.9555475914, -10.4458291204
1148, -9.92362020955, -2.87883219643, -10.2902806398
1149, -9.95746949084, -2.84554928038, -10.1210992204
1150, -9.99466026348, -2.85796701896, -9.94981429628
1151, -10.0326580378, -2.91523916381, -9.78809865202
1152, -10.0688733282, -3.01346271292, -9.64697294152
1153, -9.90558213051, -3.15831029867, -9.49455561744
1154, -9.93111808089, -3.31602073764, -9.42140364069
1155, -9.94848495447, -3.48821272899, -9.39100316633
1156, -9.95649922753, -3.66315167307, -9.40542593643
1157, -9.95461474059, -3.82891576993, -9.46368906305
1158, -9.94295991833, -3.97420847032, -9.5618220104
1159, -9.92232901762, -4.08912831681, -9.69313718029
1160, -9.89412800025, -4.16584371178, -9.84868566089
1161, -9.86027871896, -4.19912662783, -10.0178670803
1162, -9.82308794632, -4.18670888925, -10.1891520044
1163, -9.78509017202, -4.1294367444, -10.3508676487
1164, -9.7488748816, -4.03121319529, -10.4919933592
1165, -9.71691008724, -3.89873201448, -10.602911652
1166, -9.69137413686, -3.74102157551, -10.6760636287
1167, -9.67400726328, -3.56882958417, -10.7064641031
1168, -9.66599299022, -3.39389064009, -10.692041333
1169, -9.66787747716, -3.22812654323, -10.6337782064
1170, -9.67953229942, -3.08283384284, -10.535645259
1171, -9.70016320013, -2.96791399635, -10.4043300891
1172, -9.7283642175, -2.89119860138, -10.2487816085
1173, -9.76221349879, -2.85791568533, -10.0796001891
1174, -9.79940427143, -2.87033342391, -9.90831526499
1175, -9.83740204573, -2.92760556876, -9.74659962074
1176, -9.87361733615, -3.02582911787, -9.60547391024
1177, -9.71032613846, -3.17067670362, -9.45305658616
1178, -9.73586208884, -3.32838714259, -9.37990460941
1179, -9.75322896242, -3.50057913394, -9.34950413504
1180, -9.76124323548, -3.67551807801, -9.36392690514
1181, -9.75935874854, -3.84128217488, -9.42219003177
1182, -9.74770392628, -3.98657487527, -9.52032297912
1183, -9.72707302557, -4.10149472176, -9.651638149
1184, -9.6988720082, -4.17821011673, -9.80718662961
1185, -9.66502272691, -4.21149303278, -9.97636804903
1186, -9.62783195427, -4.1990752942, -10.1476529731
1187, -9.58983417997, -4.14180314935, -10.3093686174
1188, -9.55361888955, -4.04357960024, -10.4504943279
1189, -9.52165409519, -3.91109841943, -10.5614126207
1190, -9.49611814481, -3.75338798046, -10.6345645974
1191, -9.47875127123, -3.58119598912, -10.6649650718
1192, -9.47073699817, -3.40625704504, -10.6505423017
1193, -9.47262148511, -3.24049294818, -10.5922791751
1194, -9.48427630737, -3.09520024779, -10.4941462277
1195, -9.50490720808, -2.9802804013, -10.3628310578
1196, -9.53310822545, -2.90356500633, -10.2072825772
1197, -9.56695750674, -2.87028209028, -10.0381011578
1198, -9.60414827938, -2.88269982886, -9.86681623371
1199, -9.64214605368, -2.93997197371, -9.70510058946
1200, -9.6783613441, -3.03819552282, -9.56397487896
1201, -9.51507014641, -3.18304310857, -9.41155755487
1202, -9.54060609679, -3.34075354754, -9.33840557813
1203, -9.55797297038, -3.51294553889, -9.30800510376
1204, -9.56598724343, -3.68788448296, -9.32242787386
1205, -9.56410275649, -3.85364857983, -9.38069100048
1206, -9.55244793423, -3.99894128022, -9.47882394783
1207, -9.53181703352, -4.11386112671, -9.61013911772
1208, -9.50361601616, -4.19057652167, -9.76568759832
1209, -9.46976673486, -4.22385943773, -9.93486901775
1210, -9.43257596222, -4.21144169915, -10.1061539418
1211, -9.39457818792, -4.15416955429, -10.2678695861
1212, -9.3583628975, -4.05594600519, -10.4089952966
1213, -9.32639810314, -3.92346482438, -10.5199135894
1214, -9.30086215276, -3.76575438541, -10.5930655661
1215, -9.28349527918, -3.59356239407, -10.6234660405
1216, -9.27548100612, -3.41862344999, -10.6090432704
1217, -9.27736549306, -3.25285935313, -10.5507801438
1218, -9.28902031532, -3.10756665274, -10.4526471964
1219, -9.30965121603, -2.99264680625, -10.3213320265
1220, -9.3378522334, -2.91593141128, -10.1657835459
1221, -9.37170151469, -2.88264849522, -9.99660212652
1222, -9.40889228734, -2.8950662338, -9.82531720243
1223, -9.44689006163, -2.95233837866, -9.66360155817
1224, -9.48310535205, -3.05056192777, -9.52247584767
1225, -9.31981415436, -3.19540951352, -9.37005852359
1226, -9.34535010474, -3.35311995249, -9.29690654684
1227, -9.36271697833, -3.52531194384, -9.26650607248
1228, -9.37073125138, -3.70025088791, -9.28092884258
1229, -9.36884676444, -3.86601498478, -9.3391919692
1230, -9.35719194218, -4.01130768516, -9.43732491655
1231, -9.33656104147, -4.12622753165, -9.56864008644
1232, -9.30836002411, -4.20294292662, -9.72418856704
1233, -9.27451074281, -4.23622584268, -9.89336998646
1234, -9.23731997017, -4.2238081041, -10.0646549106
1235, -9.19932219587, -4.16653595924, -10.2263705548
1236, -9.16310690545, -4.06831241014, -10.3674962653
1237, -9.1311421111, -3.93583122933, -10.4784145581
1238, -9.10560616071, -3.77812079036, -10.5515665349
1239, -9.08823928713, -3.60592879902, -10.5819670092
1240, -9.08022501407, -3.43098985494, -10.5675442391
1241, -9.08210950101, -3.26522575808, -10.5092811125
1242, -9.09376432327, -3.11993305769, -10.4111481652
1243, -9.11439522398, -3.0050132112, -10.2798329953
1244, -9.14259624135, -2.92829781623, -10.1242845147
1245, -9.17644552264, -2.89501490017, -9.95510309524
1246, -9.21363629529, -2.90743263875, -9.78381817114
1247, -9.25163406958, -2.96470478361, -9.62210252689
1248, -9.28784936, -3.06292833272, -9.48097681639
1249, -9.12455816231, -3.20777591847, -9.3285594923
1250, -9.15009411269, -3.36548635744, -9.25540751556
1251, -9.16746098628, -3.53767834879, -9.22500704119
1252, -9.17547525933, -3.71261729286, -9.23942981129
1253, -9.17359077239, -3.87838138972, -9.29769293792
1254, -9.16193595013, -4.02367409011, -9.39582588527
1255, -9.14130504942, -4.1385939366, -9.52714105515
1256, -9.11310403206, -4.21530933157, -9.68268953576
1257, -9.07925475076, -4.24859224763, -9.85187095518
1258, -9.04206397812, -4.23617450905, -10.0231558793
1259, -9.00406620383, -4.17890236419, -10.1848715235
1260, -8.9678509134, -4.08067881509, -10.325997234
1261, -8.93588611905, -3.94819763428, -10.4369155268
1262, -8.91035016867, -3.79048719531, -10.5100675036
1263, -8.89298329508, -3.61829520396, -10.5404679779
1264, -8.88496902202, -3.44335625989, -10.5260452078
1265, -8.88685350896, -3.27759216303, -10.4677820812
1266, -8.89850833122, -3.13229946264, -10.3696491339
1267, -8.91913923193, -3.01737961615, -10.238333964
1268, -8.9473402493, -2.94066422118, -10.0827854834
1269, -8.98118953059, -2.90738130512, -9.91360406395
1270, -9.01838030324, -2.9197990437, -9.74231913986
1271, -9.05637807753, -2.97707118856, -9.58060349561
1272, -9.09259336795, -3.07529473766, -9.4394777851
1273, -8.92930217026, -3.22014232342, -9.28706046102
1274, -8.95483812064, -3.37785276239, -9.21390848427
1275, -8.97220499423, -3.55004475374, -9.18350800991
1276, -8.98021926728, -3.72498369781, -9.19793078001
1277, -8.97833478034, -3.89074779467, -9.25619390663
1278, -8.96667995808, -4.03604049506, -9.35432685398
1279, -8.94604905737, -4.15096034155, -9.48564202387
1280, -8.91784804001, -4.22767573652, -9.64119050447
1281, -8.88399875871, -4.26095865258, -9.8103719239
1282, -8.84680798607, -4.248540914, -9.98165684799
1283, -8.80881021178, -4.19126876914, -10.1433724922
1284, -8.77259492135, -4.09304522004, -10.2844982027
1285, -8.740630127, -3.96056403923, -10.3954164955
1286, -8.71509417662, -3.80285360026, -10.4685684723
1287, -8.69772730303, -3.63066160891, -10.4989689467
1288, -8.68971302997, -3.45572266484, -10.4845461766
1289, -8.69159751691, -3.28995856798, -10.4262830499
1290, -8.70325233917, -3.14466586759, -10.3281501026
1291, -8.72388323988, -3.0297460211, -10.1968349327
1292, -8.75208425725, -2.95303062613, -10.0412864521
1293, -8.78593353855, -2.91974771007, -9.87210503267
1294, -8.82312431119, -2.93216544865, -9.70082010857
1295, -8.86112208548, -2.98943759351, -9.53910446432
1296, -8.8973373759, -3.08766114261, -9.39797875382
1297, -8.73404617821, -3.23250872837, -9.24556142974
1298, -8.75958212859, -3.39021916734, -9.17240945299
1299, -8.77694900218, -3.56241115868, -9.14200897862
1300, -8.78496327523, -3.73735010276, -9.15643174873
1301, -8.7830787883, -3.90311419962, -9.21469487535
1302, -8.77142396603, -4.04840690001, -9.3128278227
1303, -8.75079306533, -4.1633267465, -9.44414299259
1304, -8.72259204796, -4.24004214147, -9.59969147319
1305, -8.68874276666, -4.27332505753, -9.76887289261
1306, -8.65155199402, -4.26090731895, -9.94015781671
1307, -8.61355421973, -4.20363517409, -10.101873461
1308, -8.5773389293, -4.10541162498, -10.2429991715
1309, -8.54537413495, -3.97293044418, -10.3539174643
1310, -8.51983818457, -3.81522000521, -10.427069441
1311, -8.50247131098, -3.64302801386, -10.4574699154
1312, -8.49445703793, -3.46808906979, -10.4430471453
1313, -8.49634152486, -3.30232497292, -10.3847840187
1314, -8.50799634713, -3.15703227254, -10.2866510713
1315, -8.52862724783, -3.04211242605, -10.1553359014
1316, -8.5568282652, -2.96539703108, -9.99978742081
1317, -8.5906775465, -2.93211411502, -9.83060600139
1318, -8.62786831914, -2.9445318536, -9.65932107729
1319, -8.66586609343, -3.00180399846, -9.49760543304
1320, -8.70208138386, -3.10002754756, -9.35647972254
1321, -8.53879018616, -3.24487513332, -9.20406239845
1322, -8.56432613654, -3.40258557229, -9.13091042171
1323, -8.58169301013, -3.57477756363, -9.10050994734
1324, -8.58970728318, -3.74971650771, -9.11493271744
1325, -8.58782279625, -3.91548060457, -9.17319584407
1326, -8.57616797398, -4.06077330496, -9.27132879142
1327, -8.55553707328, -4.17569315145, -9.4026439613
1328, -8.52733605591, -4.25240854642, -9.55819244191
1329, -8.49348677461, -4.28569146248, -9.72737386133
1330, -8.45629600197, -4.27327372389, -9.89865878543
1331, -8.41829822768, -4.21600157904, -10.0603744297
1332, -8.38208293725, -4.11777802993, -10.2015001402
1333, -8.3501181429, -3.98529684913, -10.312418433
1334, -8.32458219252, -3.82758641016, -10.3855704097
1335, -8.30721531893, -3.65539441881, -10.4159708841
1336, -8.29920104588, -3.48045547474, -10.401548114
1337, -8.30108553281, -3.31469137787, -10.3432849874
1338, -8.31274035508, -3.16939867748, -10.24515204
1339, -8.33337125579, -3.05447883099, -10.1138368701
1340, -8.36157227315, -2.97776343603, -9.95828838953
1341, -8.39542155445, -2.94448051997, -9.7891069701
1342, -8.43261232709, -2.95689825855, -9.61782204601
1343, -8.47061010138, -3.01417040341, -9.45610640175
1344, -8.50682539181, -3.11239395251, -9.31498069125
1345, -8.34353419411, -3.25724153827, -9.16256336717
1346, -8.36907014449, -3.41495197724, -9.08941139042
1347, -8.38643701808, -3.58714396858, -9.05901091606
1348, -8.39445129114, -3.76208291266, -9.07343368616
1349, -8.3925668042, -3.92784700952, -9.13169681278
1350, -8.38091198194, -4.07313970991, -9.22982976013
1351, -8.36028108123, -4.1880595564, -9.36114493002
1352, -8.33208006386, -4.26477495137, -9.51669341062
1353, -8.29823078256, -4.29805786742, -9.68587483005
1354, -8.26104000992, -4.28564012884, -9.85715975414
1355, -8.22304223563, -4.22836798399, -10.0188753984
1356, -8.18682694521, -4.13014443488, -10.1600011089
1357, -8.15486215085, -3.99766325408, -10.2709194017
1358, -8.12932620047, -3.83995281511, -10.3440713784
1359, -8.11195932688, -3.66776082376, -10.3744718528
1360, -8.10394505383, -3.49282187969, -10.3600490827
1361, -8.10582954077, -3.32705778282, -10.3017859561
1362, -8.11748436303, -3.18176508243, -10.2036530087
1363, -8.13811526374, -3.06684523594, -10.0723378388
1364, -8.1663162811, -2.99012984097, -9.91678935824
1365, -8.2001655624, -2.95684692492, -9.74760793882
1366, -8.23735633504, -2.9692646635, -9.57632301472
1367, -8.27535410933, -3.02653680835, -9.41460737047
1368, -8.31156939976, -3.12476035746, -9.27348165997
1369, -8.14827820206, -3.26960794322, -9.12106433589
1370, -8.17381415244, -3.42731838218, -9.04791235914
1371, -8.19118102603, -3.59951037353, -9.01751188477
1372, -8.19919529909, -3.77444931761, -9.03193465488
1373, -8.19731081215, -3.94021341447, -9.0901977815
1374, -8.18565598989, -4.08550611486, -9.18833072885
1375, -8.16502508918, -4.20042596135, -9.31964589873
1376, -8.13682407181, -4.27714135632, -9.47519437934
1377, -8.10297479052, -4.31042427237, -9.64437579876
1378, -8.06578401787, -4.29800653379, -9.81566072286
1379, -8.02778624358, -4.24073438894, -9.97737636711
1380, -7.99157095316, -4.14251083983, -10.1185020776
1381, -7.9596061588, -4.01002965903, -10.2294203704
1382, -7.93407020842, -3.85231922006, -10.3025723472
1383, -7.91670333483, -3.68012722871, -10.3329728215
1384, -7.90868906178, -3.50518828463, -10.3185500514
1385, -7.91057354872, -3.33942418777, -10.2602869248
1386, -7.92222837098, -3.19413148738, -10.1621539774
1387, -7.94285927169, -3.07921164089, -10.0308388076
1388, -7.97106028905, -3.00249624592, -9.87529032696
1389, -8.00490957035, -2.96921332987, -9.70610890754
1390, -8.04210034299, -2.98163106845, -9.53482398344
1391, -8.08009811728, -3.0389032133, -9.37310833919
1392, -8.11631340771, -3.13712676241, -9.23198262869
1393, -7.95302221002, -3.28197434816, -9.0795653046
1394, -7.9785581604, -3.43968478713, -9.00641332786
1395, -7.99592503398, -3.61187677848, -8.97601285349
1396, -8.00393930704, -3.78681572255, -8.99043562359
1397, -8.0020548201, -3.95257981942, -9.04869875022
1398, -7.99039999784, -4.09787251981, -9.14683169756
1399, -7.96976909713, -4.2127923663, -9.27814686745
1400, -7.94156807976, -4.28950776127, -9.43369534805
1401, -7.90771879847, -4.32279067732, -9.60287676748
1402, -7.87052802582, -4.31037293874, -9.77416169157
1403, -7.83253025153, -4.25310079389, -9.93587733583
1404, -7.79631496111, -4.15487724478, -10.0770030463
1405, -7.76435016675, -4.02239606397, -10.1879213391
1406, -7.73881421637, -3.864685625, -10.2610733159
1407, -7.72144734278, -3.69249363366, -10.2914737902
1408, -7.71343306973, -3.51755468958, -10.2770510201
1409, -7.71531755667, -3.35179059272, -10.2187878935
1410, -7.72697237893, -3.20649789233, -10.1206549462
1411, -7.74760327964, -3.09157804584, -9.98933977628
1412, -7.775804297, -3.01486265087, -9.83379129568
1413, -7.8096535783, -2.98157973482, -9.66460987625
1414, -7.84684435094, -2.9939974734, -9.49332495216
1415, -7.88484212524, -3.05126961825, -9.3316093079
1416, -7.92105741566, -3.14949316736, -9.1904835974
1417, -7.75776621797, -3.29434075311, -9.03806627332
1418, -7.78330216835, -3.45205119208, -8.96491429657
1419, -7.80066904193, -3.62424318343, -8.93451382221
1420, -7.80868331499, -3.7991821275, -8.94893659231
1421, -7.80679882805, -3.96494622437, -9.00719971893
1422, -7.79514400579, -4.11023892476, -9.10533266628
1423, -7.77451310508, -4.22515877125, -9.23664783617
1424, -7.74631208771, -4.30187416621, -9.39219631677
1425, -7.71246280642, -4.33515708227, -9.5613777362
1426, -7.67527203377, -4.32273934369, -9.73266266029
1427, -7.63727425948, -4.26546719883, -9.89437830454
1428, -7.60105896906, -4.16724364973, -10.035504015
1429, -7.5690941747, -4.03476246892, -10.1464223078
1430, -7.54355822432, -3.87705202995, -10.2195742846
1431, -7.52619135073, -3.70486003861, -10.249974759
1432, -7.51817707768, -3.52992109453, -10.2355519889
1433, -7.52006156462, -3.36415699767, -10.1772888622
1434, -7.53171638688, -3.21886429728, -10.0791559149
1435, -7.55234728759, -3.10394445079, -9.947840745
1436, -7.58054830495, -3.02722905582, -9.79229226439
1437, -7.61439758625, -2.99394613976, -9.62311084497
1438, -7.65158835889, -3.00636387835, -9.45182592087
1439, -7.68958613319, -3.0636360232, -9.29011027662
1440, -7.72580142361, -3.16185957231, -9.14898456612
1441, -7.56251022592, -3.30670715806, -8.99656724203
1442, -7.5880461763, -3.46441759703, -8.92341526529
1443, -7.60541304988, -3.63660958838, -8.89301479092
1444, -7.61342732294, -3.81154853245, -8.90743756102
1445, -7.611542836, -3.97731262932, -8.96570068765
1446, -7.59988801374, -4.1226053297, -9.063833635
1447, -7.57925711303, -4.2375251762, -9.19514880488
1448, -7.55105609566, -4.31424057116, -9.35069728549
1449, -7.51720681437, -4.34752348722, -9.51987870491
1450, -7.48001604173, -4.33510574864, -9.69116362901
1451, -7.44201826743, -4.27783360378, -9.85287927326
1452, -7.40580297701, -4.17961005468, -9.99400498376
1453, -7.37383818265, -4.04712887387, -10.1049232766
1454, -7.34830223227, -3.8894184349, -10.1780752533
1455, -7.33093535869, -3.71722644356, -10.2084757277
1456, -7.32292108563, -3.54228749948, -10.1940529576
1457, -7.32480557257, -3.37652340262, -10.1357898309
1458, -7.33646039483, -3.23123070223, -10.0376568836
1459, -7.35709129554, -3.11631085574, -9.90634171371
1460, -7.38529231291, -3.03959546077, -9.75079323311
1461, -7.4191415942, -3.00631254471, -9.58161181368
1462, -7.45633236684, -3.01873028329, -9.41032688959
1463, -7.49433014114, -3.07600242815, -9.24861124534
1464, -7.53054543156, -3.17422597726, -9.10748553483
1465, -7.36725423387, -3.31907356301, -8.95506821075
1466, -7.39279018425, -3.47678400198, -8.881916234
1467, -7.41015705783, -3.64897599333, -8.85151575964
1468, -7.41817133089, -3.8239149374, -8.86593852974
1469, -7.41628684395, -3.98967903426, -8.92420165636
1470, -7.40463202169, -4.13497173465, -9.02233460371
1471, -7.38400112098, -4.24989158114, -9.1536497736
1472, -7.35580010361, -4.32660697611, -9.3091982542
1473, -7.32195082232, -4.35988989217, -9.47837967363
1474, -7.28476004968, -4.34747215359, -9.64966459772
1475, -7.24676227538, -4.29020000873, -9.81138024198
1476, -7.21054698496, -4.19197645963, -9.95250595248
1477, -7.1785821906, -4.05949527882, -10.0634242453
1478, -7.15304624022, -3.90178483985, -10.136576222
1479, -7.13567936664, -3.7295928485, -10.1669766964
1480, -7.12766509358, -3.55465390443, -10.1525539263
1481, -7.12954958052, -3.38888980757, -10.0942907997
1482, -7.14120440278, -3.24359710718, -9.99615785232
1483, -7.16183530349, -3.12867726069, -9.86484268243
1484, -7.19003632086, -3.05196186572, -9.70929420182
1485, -7.22388560215, -3.01867894966, -9.5401127824
1486, -7.26107637479, -3.03109668824, -9.3688278583
1487, -7.29907414909, -3.0883688331, -9.20711221405
1488, -7.33528943951, -3.1865923822, -9.06598650355
1489, -7.17199824182, -3.33143996796, -8.91356917947
1490, -7.1975341922, -3.48915040693, -8.84041720272
1491, -7.21490106578, -3.66134239828, -8.81001672835
1492, -7.22291533884, -3.83628134235, -8.82443949846
1493, -7.2210308519, -4.00204543921, -8.88270262508
1494, -7.20937602964, -4.1473381396, -8.98083557243
1495, -7.18874512893, -4.26225798609, -9.11215074232
1496, -7.16054411156, -4.33897338106, -9.26769922292
1497, -7.12669483027, -4.37225629712, -9.43688064234
1498, -7.08950405763, -4.35983855854, -9.60816556644
1499, -7.05150628333, -4.30256641368, -9.76988121069
1500, -7.01529099291, -4.20434286458, -9.91100692119
1501, -6.98332619855, -4.07186168377, -10.021925214
1502, -6.95779024817, -3.9141512448, -10.0950771907
1503, -6.94042337459, -3.74195925345, -10.1254776651
1504, -6.93240910153, -3.56702030938, -10.111054895
1505, -6.93429358847, -3.40125621252, -10.0527917684
1506, -6.94594841073, -3.25596351213, -9.95465882103
1507, -6.96657931144, -3.14104366564, -9.82334365114
1508, -6.99478032881, -3.06432827067, -9.66779517054
1509, -7.0286296101, -3.03104535461, -9.49861375112
1510, -7.06582038274, -3.04346309319, -9.32732882702
1511, -7.10381815704, -3.10073523805, -9.16561318277
1512, -7.14003344746, -3.19895878715, -9.02448747227
1513, -6.97674224977, -3.34380637291, -8.87207014818
1514, -7.00227820015, -3.50151681188, -8.79891817144
1515, -7.01964507373, -3.67370880323, -8.76851769707
1516, -7.02765934679, -3.8486477473, -8.78294046717
1517, -7.02577485985, -4.01441184416, -8.8412035938
1518, -7.01412003759, -4.15970454455, -8.93933654115
1519, -6.99348913688, -4.27462439104, -9.07065171103
1520, -6.96528811951, -4.35133978601, -9.22620019164
1521, -6.93143883822, -4.38462270207, -9.39538161106
1522, -6.89424806558, -4.37220496349, -9.56666653516
1523, -6.85625029128, -4.31493281863, -9.72838217941
1524, -6.82003500086, -4.21670926952, -9.86950788991
1525, -6.7880702065, -4.08422808872, -9.98042618271
1526, -6.76253425612, -3.92651764975, -10.0535781595
1527, -6.74516738254, -3.7543256584, -10.0839786338
1528, -6.73715310948, -3.57938671433, -10.0695558637
1529, -6.73903759642, -3.41362261747, -10.0112927371
1530, -6.75069241868, -3.26832991708, -9.91315978975
1531, -6.77132331939, -3.15341007059, -9.78184461986
1532, -6.79952433676, -3.07669467562, -9.62629613926
1533, -6.83337361805, -3.04341175956, -9.45711471983
1534, -6.87056439069, -3.05582949814, -9.28582979574
1535, -6.90856216499, -3.113101643, -9.12411415148
1536, -6.94477745541, -3.2113251921, -8.98298844098
1537, -6.78148625772, -3.35617277786, -8.8305711169
1538, -6.8070222081, -3.51388321683, -8.75741914015
1539, -6.82438908169, -3.68607520817, -8.72701866579
1540, -6.83240335474, -3.86101415225, -8.74144143589
1541, -6.8305188678, -4.02677824911, -8.79970456251
1542, -6.81886404554, -4.1720709495, -8.89783750986
1543, -6.79823314483, -4.28699079599, -9.02915267975
1544, -6.77003212747, -4.36370619096, -9.18470116035
1545, -6.73618284617, -4.39698910702, -9.35388257978
1546, -6.69899207353, -4.38457136844, -9.52516750387
1547, -6.66099429923, -4.32729922358, -9.68688314813
1548, -6.62477900881, -4.22907567447, -9.82800885863
1549, -6.59281421445, -4.09659449367, -9.93892715143
1550, -6.56727826407, -3.9388840547, -10.0120791282
1551, -6.54991139049, -3.76669206335, -10.0424796025
1552, -6.54189711743, -3.59175311928, -10.0280568324
1553, -6.54378160437, -3.42598902241, -9.96979370581
1554, -6.55543642663, -3.28069632203, -9.87166075846
1555, -6.57606732734, -3.16577647553, -9.74034558858
1556, -6.60426834471, -3.08906108057, -9.58479710797
1557, -6.638117626, -3.05577816451, -9.41561568855
1558, -6.67530839865, -3.06819590309, -9.24433076445
1559, -6.71330617294, -3.12546804795, -9.0826151202
1560, -6.74952146336, -3.22369159705, -8.9414894097
1561, -6.58623026567, -3.36853918281, -8.78907208562
1562, -6.61176621605, -3.52624962178, -8.71592010887
1563, -6.62913308964, -3.69844161312, -8.6855196345
1564, -6.63714736269, -3.8733805572, -8.69994240461
1565, -6.63526287575, -4.03914465406, -8.75820553123
1566, -6.62360805349, -4.18443735445, -8.85633847858
1567, -6.60297715278, -4.29935720094, -8.98765364846
1568, -6.57477613542, -4.37607259591, -9.14320212907
1569, -6.54092685412, -4.40935551197, -9.31238354849
1570, -6.50373608148, -4.39693777338, -9.48366847259
1571, -6.46573830718, -4.33966562853, -9.64538411684
1572, -6.42952301676, -4.24144207942, -9.78650982734
1573, -6.39755822241, -4.10896089862, -9.89742812014
1574, -6.37202227202, -3.95125045965, -9.97058009689
1575, -6.35465539844, -3.7790584683, -10.0009805713
1576, -6.34664112538, -3.60411952423, -9.98655780115
1577, -6.34852561232, -3.43835542736, -9.92829467453
1578, -6.36018043458, -3.29306272697, -9.83016172718
1579, -6.38081133529, -3.17814288048, -9.69884655729
1580, -6.40901235266, -3.10142748552, -9.54329807669
1581, -6.44286163395, -3.06814456946, -9.37411665727
1582, -6.4800524066, -3.08056230804, -9.20283173317
1583, -6.51805018089, -3.13783445289, -9.04111608892
1584, -6.55426547131, -3.236058002, -8.89999037842
1585, -6.39097427362, -3.38090558776, -8.74757305433
1586, -6.416510224, -3.53861602673, -8.67442107759
1587, -6.43387709759, -3.71080801807, -8.64402060322
1588, -6.44189137064, -3.88574696215, -8.65844337332
1589, -6.4400068837, -4.05151105901, -8.71670649995
1590, -6.42835206144, -4.1968037594, -8.81483944729
1591, -6.40772116073, -4.31172360589, -8.94615461718
1592, -6.37952014337, -4.38843900086, -9.10170309778
1593, -6.34567086207, -4.42172191691, -9.27088451721
1594, -6.30848008943, -4.40930417833, -9.4421694413
1595, -6.27048231514, -4.35203203348, -9.60388508556
1596, -6.23426702471, -4.25380848437, -9.74501079606
1597, -6.20230223036, -4.12132730357, -9.85592908886
1598, -6.17676627998, -3.9636168646, -9.92908106561
1599, -6.15939940639, -3.79142487325, -9.95948153997
1600, -6.15138513333, -3.61648592918, -9.94505876987
1601, -6.15326962027, -3.45072183231, -9.88679564325
1602, -6.16492444253, -3.30542913192, -9.7886626959
1603, -6.18555534324, -3.19050928543, -9.65734752601
1604, -6.21375636061, -3.11379389046, -9.50179904541
1605, -6.2476056419, -3.08051097441, -9.33261762598
1606, -6.28479641455, -3.09292871299, -9.16133270189
1607, -6.32279418884, -3.15020085784, -8.99961705763
1608, -6.35900947926, -3.24842440695, -8.85849134713
1609, -6.19571828157, -3.3932719927, -8.70607402305
1610, -6.22125423195, -3.55098243167, -8.6329220463
1611, -6.23862110554, -3.72317442302, -8.60252157194
1612, -6.24663537859, -3.8981133671, -8.61694434204
1613, -6.24475089165, -4.06387746396, -8.67520746866
1614, -6.23309606939, -4.20917016435, -8.77334041601
1615, -6.21246516868, -4.32409001084, -8.9046555859
1616, -6.18426415132, -4.40080540581, -9.0602040665
1617, -6.15041487002, -4.43408832186, -9.22938548593
1618, -6.11322409738, -4.42167058328, -9.40067041002
1619, -6.07522632309, -4.36439843843, -9.56238605427
1620, -6.03901103266, -4.26617488932, -9.70351176478
1621, -6.00704623831, -4.13369370851, -9.81443005758
1622, -5.98151028793, -3.97598326954, -9.88758203432
1623, -5.96414341434, -3.8037912782, -9.91798250869
1624, -5.95612914128, -3.62885233412, -9.90355973859
1625, -5.95801362822, -3.46308823726, -9.84529661196
1626, -5.96966845048, -3.31779553687, -9.74716366461
1627, -5.99029935119, -3.20287569038, -9.61584849473
1628, -6.01850036856, -3.12616029541, -9.46030001412
1629, -6.05234964986, -3.09287737936, -9.2911185947
1630, -6.0895404225, -3.10529511794, -9.1198336706
1631, -6.12753819679, -3.16256726279, -8.95811802635
1632, -6.16375348721, -3.2607908119, -8.81699231585
1633, -6.00046228952, -3.40563839765, -8.66457499176
1634, -6.0259982399, -3.56334883662, -8.59142301502
1635, -6.04336511349, -3.73554082797, -8.56102254065
1636, -6.05137938654, -3.91047977204, -8.57544531075
1637, -6.04949489961, -4.07624386891, -8.63370843738
1638, -6.03784007734, -4.2215365693, -8.73184138473
1639, -6.01720917664, -4.33645641579, -8.86315655461
1640, -5.98900815927, -4.41317181076, -9.01870503522
1641, -5.95515887797, -4.44645472681, -9.18788645464
1642, -5.91796810533, -4.43403698823, -9.35917137874
1643, -5.87997033104, -4.37676484338, -9.52088702299
1644, -5.84375504061, -4.27854129427, -9.66201273349
1645, -5.81179024626, -4.14606011346, -9.77293102629
1646, -5.78625429588, -3.98834967449, -9.84608300304
1647, -5.76888742229, -3.81615768315, -9.8764834774
1648, -5.76087314924, -3.64121873907, -9.8620607073
1649, -5.76275763617, -3.47545464221, -9.80379758068
1650, -5.77441245844, -3.33016194182, -9.70566463333
1651, -5.79504335914, -3.21524209533, -9.57434946344
1652, -5.82324437651, -3.13852670036, -9.41880098284
1653, -5.85709365781, -3.1052437843, -9.24961956341
1654, -5.89428443045, -3.11766152289, -9.07833463932
1655, -5.93228220474, -3.17493366774, -8.91661899507
1656, -5.96849749517, -3.27315721685, -8.77549328456
1657, -5.80520629747, -3.4180048026, -8.62307596048
1658, -5.83074224785, -3.57571524157, -8.54992398373
1659, -5.84810912144, -3.74790723292, -8.51952350937
1660, -5.85612339449, -3.92284617699, -8.53394627947
1661, -5.85423890756, -4.08861027386, -8.59220940609
1662, -5.84258408529, -4.23390297424, -8.69034235344
1663, -5.82195318459, -4.34882282074, -8.82165752333
1664, -5.79375216722, -4.4255382157, -8.97720600393
1665, -5.75990288592, -4.45882113176, -9.14638742336
1666, -5.72271211328, -4.44640339318, -9.31767234745
1667, -5.68471433899, -4.38913124832, -9.47938799171
1668, -5.64849904856, -4.29090769922, -9.62051370221
1669, -5.61653425421, -4.15842651841, -9.73143199501
1670, -5.59099830383, -4.00071607944, -9.80458397175
1671, -5.57363143024, -3.8285240881, -9.83498444612
1672, -5.56561715719, -3.65358514402, -9.82056167602
1673, -5.56750164412, -3.48782104716, -9.76229854939
1674, -5.57915646639, -3.34252834677, -9.66416560205
1675, -5.5997873671, -3.22760850028, -9.53285043216
1676, -5.62798838446, -3.15089310531, -9.37730195156
1677, -5.66183766576, -3.11761018925, -9.20812053213
1678, -5.6990284384, -3.13002792783, -9.03683560804
1679, -5.73702621269, -3.18730007269, -8.87511996378
1680, -5.77324150312, -3.2855236218, -8.73399425328
1681, -5.60995030542, -3.43037120755, -8.5815769292
1682, -5.6354862558, -3.58808164652, -8.50842495245
1683, -5.65285312939, -3.76027363787, -8.47802447808
1684, -5.66086740245, -3.93521258194, -8.49244724819
1685, -5.65898291551, -4.1009766788, -8.55071037481
1686, -5.64732809325, -4.24626937919, -8.64884332216
1687, -5.62669719254, -4.36118922568, -8.78015849205
1688, -5.59849617517, -4.43790462065, -8.93570697265
1689, -5.56464689387, -4.47118753671, -9.10488839207
1690, -5.52745612123, -4.45876979813, -9.27617331617
1691, -5.48945834694, -4.40149765327, -9.43788896042
1692, -5.45324305652, -4.30327410417, -9.57901467092
1693, -5.42127826216, -4.17079292336, -9.68993296372
1694, -5.39574231178, -4.01308248439, -9.76308494047
1695, -5.37837543819, -3.84089049304, -9.79348541484
1696, -5.37036116514, -3.66595154897, -9.77906264473
1697, -5.37224565208, -3.50018745211, -9.72079951811
1698, -5.38390047434, -3.35489475172, -9.62266657076
1699, -5.40453137505, -3.23997490523, -9.49135140088
1700, -5.43273239241, -3.16325951026, -9.33580292027
1701, -5.46658167371, -3.1299765942, -9.16662150085
1702, -5.50377244635, -3.14239433278, -8.99533657675
1703, -5.54177022064, -3.19966647764, -8.8336209325
1704, -5.57798551107, -3.29789002675, -8.692495222
1705, -5.41469431337, -3.4427376125, -8.54007789791
1706, -5.44023026375, -3.60044805147, -8.46692592117
1707, -5.45759713734, -3.77264004282, -8.4365254468
1708, -5.4656114104, -3.94757898689, -8.4509482169
1709, -5.46372692346, -4.11334308375, -8.50921134353
1710, -5.4520721012, -4.25863578414, -8.60734429088
1711, -5.43144120049, -4.37355563063, -8.73865946076
1712, -5.40324018312, -4.4502710256, -8.89420794137
1713, -5.36939090183, -4.48355394166, -9.06338936079
1714, -5.33220012918, -4.47113620308, -9.23467428489
1715, -5.29420235489, -4.41386405822, -9.39638992914
1716, -5.25798706447, -4.31564050912, -9.53751563964
1717, -5.22602227011, -4.18315932831, -9.64843393244
1718, -5.20048631973, -4.02544888934, -9.72158590919
1719, -5.18311944614, -3.85325689799, -9.75198638355
1720, -5.17510517309, -3.67831795392, -9.73756361345
1721, -5.17698966003, -3.51255385706, -9.67930048683
1722, -5.18864448229, -3.36726115667, -9.58116753948
1723, -5.209275383, -3.25234131018, -9.44985236959
1724, -5.23747640036, -3.17562591521, -9.29430388899
1725, -5.27132568166, -3.14234299915, -9.12512246956
1726, -5.3085164543, -3.15476073773, -8.95383754547
1727, -5.34651422859, -3.21203288259, -8.79212190121
1728, -5.38272951902, -3.31025643169, -8.65099619071
1729, -5.21943832133, -3.45510401745, -8.49857886663
1730, -5.24497427171, -3.61281445642, -8.42542688988
1731, -5.26234114529, -3.78500644777, -8.39502641552
1732, -5.27035541835, -3.95994539184, -8.40944918562
1733, -5.26847093141, -4.1257094887, -8.46771231224
1734, -5.25681610915, -4.27100218909, -8.56584525959
1735, -5.23618520844, -4.38592203558, -8.69716042948
1736, -5.20798419107, -4.46263743055, -8.85270891008
1737, -5.17413490978, -4.49592034661, -9.02189032951
1738, -5.13694413713, -4.48350260803, -9.1931752536
1739, -5.09894636284, -4.42623046317, -9.35489089786
1740, -5.06273107242, -4.32800691407, -9.49601660836
1741, -5.03076627806, -4.19552573326, -9.60693490116
1742, -5.00523032768, -4.03781529429, -9.6800868779
1743, -4.98786345409, -3.86562330294, -9.71048735227
1744, -4.97984918104, -3.69068435887, -9.69606458217
1745, -4.98173366798, -3.52492026201, -9.63780145554
1746, -4.99338849024, -3.37962756162, -9.53966850819
1747, -5.01401939095, -3.26470771513, -9.40835333831
1748, -5.04222040831, -3.18799232016, -9.2528048577
1749, -5.07606968961, -3.1547094041, -9.08362343828
1750, -5.11326046225, -3.16712714268, -8.91233851418
1751, -5.15125823655, -3.22439928754, -8.75062286993
1752, -5.18747352697, -3.32262283664, -8.60949715943
1753, -5.02418232928, -3.4674704224, -8.45707983535
1754, -5.04971827966, -3.62518086137, -8.3839278586
1755, -5.06708515324, -3.79737285271, -8.35352738423
1756, -5.0750994263, -3.97231179679, -8.36795015434
1757, -5.07321493936, -4.13807589365, -8.42621328096
1758, -5.0615601171, -4.28336859404, -8.52434622831
1759, -5.04092921639, -4.39828844053, -8.6556613982
1760, -5.01272819902, -4.4750038355, -8.8112098788
1761, -4.97887891773, -4.50828675156, -8.98039129822
1762, -4.94168814508, -4.49586901298, -9.15167622232
1763, -4.90369037079, -4.43859686812, -9.31339186657
1764, -4.86747508037, -4.34037331901, -9.45451757707
1765, -4.83551028601, -4.20789213821, -9.56543586987
1766, -4.80997433563, -4.05018169924, -9.63858784662
1767, -4.79260746204, -3.87798970789, -9.66898832099
1768, -4.78459318899, -3.70305076382, -9.65456555088
1769, -4.78647767593, -3.53728666695, -9.59630242426
1770, -4.79813249819, -3.39199396657, -9.49816947691
1771, -4.8187633989, -3.27707412007, -9.36685430702
1772, -4.84696441626, -3.20035872511, -9.21130582642
1773, -4.88081369756, -3.16707580905, -9.042124407
1774, -4.9180044702, -3.17949354763, -8.8708394829
1775, -4.9560022445, -3.23676569249, -8.70912383865
1776, -4.99221753492, -3.33498924159, -8.56799812815
1777, -4.82892633723, -3.47983682735, -8.41558080406
1778, -4.85446228761, -3.63754726632, -8.34242882732
1779, -4.87182916119, -3.80973925766, -8.31202835295
1780, -4.87984343425, -3.98467820174, -8.32645112305
1781, -4.87795894731, -4.1504422986, -8.38471424968
1782, -4.86630412505, -4.29573499899, -8.48284719703
1783, -4.84567322434, -4.41065484548, -8.61416236691
1784, -4.81747220697, -4.48737024045, -8.76971084752
1785, -4.78362292568, -4.52065315651, -8.93889226694
1786, -4.74643215304, -4.50823541792, -9.11017719104
1787, -4.70843437874, -4.45096327307, -9.27189283529
1788, -4.67221908832, -4.35273972396, -9.41301854579
1789, -4.64025429396, -4.22025854316, -9.52393683859
1790, -4.61471834358, -4.06254810419, -9.59708881534
1791, -4.59735147, -3.89035611284, -9.6274892897
1792, -4.58933719694, -3.71541716877, -9.6130665196
1793, -4.59122168388, -3.5496530719, -9.55480339298
1794, -4.60287650614, -3.40436037151, -9.45667044563
1795, -4.62350740685, -3.28944052502, -9.32535527574
1796, -4.65170842422, -3.21272513006, -9.16980679514
1797, -4.68555770551, -3.179442214, -9.00062537571
1798, -4.72274847815, -3.19185995258, -8.82934045162
1799, -4.76074625245, -3.24913209744, -8.66762480736
1800, -4.79696154287, -3.34735564654, -8.52649909686
1801, -4.63367034518, -3.4922032323, -8.37408177278
1802, -4.65920629556, -3.64991367127, -8.30092979603
1803, -4.67657316914, -3.82210566261, -8.27052932167
1804, -4.6845874422, -3.99704460669, -8.28495209177
1805, -4.68270295526, -4.16280870355, -8.34321521839
1806, -4.671048133, -4.30810140394, -8.44134816574
1807, -4.65041723229, -4.42302125043, -8.57266333563
1808, -4.62221621492, -4.4997366454, -8.72821181623
1809, -4.58836693363, -4.53301956145, -8.89739323566
1810, -4.55117616099, -4.52060182287, -9.06867815975
1811, -4.51317838669, -4.46332967802, -9.230393804
1812, -4.47696309627, -4.36510612891, -9.37151951451
1813, -4.44499830191, -4.23262494811, -9.48243780731
1814, -4.41946235153, -4.07491450914, -9.55558978405
1815, -4.40209547795, -3.90272251779, -9.58599025842
1816, -4.39408120489, -3.72778357372, -9.57156748832
1817, -4.39596569183, -3.56201947685, -9.51330436169
1818, -4.40762051409, -3.41672677646, -9.41517141434
1819, -4.4282514148, -3.30180692997, -9.28385624446
1820, -4.45645243217, -3.225091535, -9.12830776385
1821, -4.49030171346, -3.19180861895, -8.95912634443
1822, -4.5274924861, -3.20422635753, -8.78784142033
1823, -4.5654902604, -3.26149850238, -8.62612577608
1824, -4.60170555082, -3.35972205149, -8.48500006558
1825, -4.43841435313, -3.50456963724, -8.33258274149
1826, -4.46395030351, -3.66228007621, -8.25943076475
1827, -4.48131717709, -3.83447206756, -8.22903029038
1828, -4.48933145015, -4.00941101164, -8.24345306048
1829, -4.48744696321, -4.1751751085, -8.30171618711
1830, -4.47579214095, -4.32046780889, -8.39984913446
1831, -4.45516124024, -4.43538765538, -8.53116430434
1832, -4.42696022287, -4.51210305035, -8.68671278495
1833, -4.39311094158, -4.5453859664, -8.85589420437
1834, -4.35592016894, -4.53296822782, -9.02717912847
1835, -4.31792239464, -4.47569608297, -9.18889477272
1836, -4.28170710422, -4.37747253386, -9.33002048322
1837, -4.24974230986, -4.24499135306, -9.44093877602
1838, -4.22420635948, -4.08728091409, -9.51409075277
1839, -4.2068394859, -3.91508892274, -9.54449122713
1840, -4.19882521284, -3.74014997866, -9.53006845703
1841, -4.20070969978, -3.5743858818, -9.47180533041
1842, -4.21236452204, -3.42909318141, -9.37367238306
1843, -4.23299542275, -3.31417333492, -9.24235721317
1844, -4.26119644012, -3.23745793995, -9.08680873257
1845, -4.29504572141, -3.2041750239, -8.91762731315
1846, -4.33223649405, -3.21659276248, -8.74634238905
1847, -4.37023426835, -3.27386490733, -8.5846267448
1848, -4.40644955877, -3.37208845644, -8.44350103429
1849, -4.24315836108, -3.51693604219, -8.29108371021
1850, -4.26869431146, -3.67464648116, -8.21793173346
1851, -4.28606118504, -3.84683847251, -8.1875312591
1852, -4.2940754581, -4.02177741658, -8.2019540292
1853, -4.29219097116, -4.18754151345, -8.26021715582
1854, -4.2805361489, -4.33283421384, -8.35835010317
1855, -4.25990524819, -4.44775406033, -8.48966527306
1856, -4.23170423082, -4.5244694553, -8.64521375366
1857, -4.19785494953, -4.55775237135, -8.81439517309
1858, -4.16066417689, -4.54533463277, -8.98568009718
1859, -4.12266640259, -4.48806248792, -9.14739574144
1860, -4.08645111217, -4.38983893881, -9.28852145194
1861, -4.05448631781, -4.257357758, -9.39943974474
1862, -4.02895036743, -4.09964731903, -9.47259172148
1863, -4.01158349385, -3.92745532769, -9.50299219585
1864, -4.00356922079, -3.75251638361, -9.48856942575
1865, -4.00545370773, -3.58675228675, -9.43030629913
1866, -4.01710852999, -3.44145958636, -9.33217335178
1867, -4.0377394307, -3.32653973987, -9.20085818189
1868, -4.06594044807, -3.2498243449, -9.04530970129
1869, -4.09978972936, -3.21654142885, -8.87612828186
1870, -4.136980502, -3.22895916743, -8.70484335777
1871, -4.1749782763, -3.28623131228, -8.54312771351
1872, -4.21119356672, -3.38445486139, -8.40200200301
1873, -4.04790236903, -3.52930244714, -8.24958467893
1874, -4.07343831941, -3.68701288611, -8.17643270218
1875, -4.090805193, -3.85920487746, -8.14603222781
1876, -4.09881946605, -4.03414382153, -8.16045499792
1877, -4.09693497911, -4.1999079184, -8.21871812454
1878, -4.08528015685, -4.34520061879, -8.31685107189
1879, -4.06464925614, -4.46012046528, -8.44816624178
1880, -4.03644823878, -4.53683586024, -8.60371472238
1881, -4.00259895748, -4.5701187763, -8.7728961418
1882, -3.96540818484, -4.55770103772, -8.9441810659
1883, -3.92741041054, -4.50042889286, -9.10589671015
1884, -3.89119512012, -4.40220534376, -9.24702242065
1885, -3.85923032576, -4.26972416295, -9.35794071345
1886, -3.83369437538, -4.11201372398, -9.4310926902
1887, -3.8163275018, -3.93982173264, -9.46149316457
1888, -3.80831322874, -3.76488278856, -9.44707039446
1889, -3.81019771568, -3.5991186917, -9.38880726784
1890, -3.82185253794, -3.45382599131, -9.29067432049
1891, -3.84248343865, -3.33890614482, -9.15935915061
1892, -3.87068445602, -3.26219074985, -9.00381067
1893, -3.90453373731, -3.22890783379, -8.83462925058
1894, -3.94172450996, -3.24132557238, -8.66334432648
1895, -3.97972228425, -3.29859771723, -8.50162868223
1896, -4.01593757467, -3.39682126634, -8.36050297173
1897, -3.85264637698, -3.54166885209, -8.20808564764
1898, -3.87818232736, -3.69937929106, -8.1349336709
1899, -3.89554920095, -3.87157128241, -8.10453319653
1900, -3.903563474, -4.04651022648, -8.11895596663
1901, -3.90167898706, -4.21227432335, -8.17721909326
1902, -3.8900241648, -4.35756702373, -8.27535204061
1903, -3.86939326409, -4.47248687023, -8.40666721049
1904, -3.84119224673, -4.54920226519, -8.5622156911
1905, -3.80734296543, -4.58248518125, -8.73139711052
1906, -3.77015219279, -4.57006744267, -8.90268203462
1907, -3.73215441849, -4.51279529781, -9.06439767887
1908, -3.69593912807, -4.41457174871, -9.20552338937
1909, -3.66397433372, -4.2820905679, -9.31644168217
1910, -3.63843838333, -4.12438012893, -9.38959365892
1911, -3.62107150975, -3.95218813759, -9.41999413328
1912, -3.61305723669, -3.77724919351, -9.40557136318
1913, -3.61494172363, -3.61148509665, -9.34730823656
1914, -3.62659654589, -3.46619239626, -9.24917528921
1915, -3.6472274466, -3.35127254977, -9.11786011932
1916, -3.67542846397, -3.2745571548, -8.96231163872
1917, -3.70927774526, -3.24127423874, -8.79313021929
1918, -3.74646851791, -3.25369197732, -8.6218452952
1919, -3.7844662922, -3.31096412218, -8.46012965095
1920, -3.82068158262, -3.40918767129, -8.31900394044
1921, -3.65739038493, -3.55403525704, -8.16658661636
1922, -3.68292633531, -3.71174569601, -8.09343463961
1923, -3.7002932089, -3.88393768736, -8.06303416525
1924, -3.70830748195, -4.05887663143, -8.07745693535
1925, -3.70642299501, -4.22464072829, -8.13572006197
1926, -3.69476817275, -4.36993342868, -8.23385300932
1927, -3.67413727204, -4.48485327517, -8.36516817921
1928, -3.64593625468, -4.56156867014, -8.52071665981
1929, -3.61208697338, -4.5948515862, -8.68989807924
1930, -3.57489620074, -4.58243384762, -8.86118300333
1931, -3.53689842645, -4.52516170276, -9.02289864759
1932, -3.50068313602, -4.42693815366, -9.16402435809
1933, -3.46871834167, -4.29445697285, -9.27494265089
1934, -3.44318239129, -4.13674653388, -9.34809462763
1935, -3.4258155177, -3.96455454253, -9.378495102
1936, -3.41780124464, -3.78961559846, -9.3640723319
1937, -3.41968573158, -3.6238515016, -9.30580920527
1938, -3.43134055384, -3.47855880121, -9.20767625792
1939, -3.45197145455, -3.36363895472, -9.07636108804
1940, -3.48017247192, -3.28692355975, -8.92081260743
1941, -3.51402175321, -3.25364064369, -8.75163118801
1942, -3.55121252586, -3.26605838227, -8.58034626391
1943, -3.58921030015, -3.32333052713, -8.41863061966
1944, -3.62542559057, -3.42155407623, -8.27750490916
1945, -3.46213439288, -3.56640166199, -8.12508758508
1946, -3.48767034326, -3.72411210096, -8.05193560833
1947, -3.50503721685, -3.89630409231, -8.02153513396
1948, -3.5130514899, -4.07124303638, -8.03595790407
1949, -3.51116700296, -4.23700713324, -8.09422103069
1950, -3.4995121807, -4.38229983363, -8.19235397804
1951, -3.47888127999, -4.49721968012, -8.32366914793
1952, -3.45068026263, -4.57393507509, -8.47921762853
1953, -3.41683098133, -4.60721799115, -8.64839904795
1954, -3.37964020869, -4.59480025257, -8.81968397205
1955, -3.3416424344, -4.53752810771, -8.9813996163
1956, -3.30542714397, -4.43930455861, -9.1225253268
1957, -3.27346234962, -4.3068233778, -9.2334436196
1958, -3.24792639924, -4.14911293883, -9.30659559635
1959, -3.23055952565, -3.97692094748, -9.33699607072
1960, -3.22254525259, -3.80198200341, -9.32257330061
1961, -3.22442973953, -3.63621790655, -9.26431017399
1962, -3.23608456179, -3.49092520616, -9.16617722664
1963, -3.2567154625, -3.37600535967, -9.03486205675
1964, -3.28491647987, -3.2992899647, -8.87931357615
1965, -3.31876576117, -3.26600704864, -8.71013215673
1966, -3.35595653381, -3.27842478722, -8.53884723263
1967, -3.3939543081, -3.33569693208, -8.37713158838
1968, -3.43016959852, -3.43392048118, -8.23600587788
1969, -3.26687840083, -3.57876806694, -8.08358855379
1970, -3.29241435121, -3.73647850591, -8.01043657705
1971, -3.3097812248, -3.90867049726, -7.98003610268
1972, -3.31779549785, -4.08360944133, -7.99445887278
1973, -3.31591101092, -4.24937353819, -8.05272199941
1974, -3.30425618865, -4.39466623858, -8.15085494676
1975, -3.28362528795, -4.50958608507, -8.28217011664
1976, -3.25542427058, -4.58630148004, -8.43771859725
1977, -3.22157498928, -4.6195843961, -8.60690001667
1978, -3.18438421664, -4.60716665752, -8.77818494077
1979, -3.14638644235, -4.54989451266, -8.93990058502
1980, -3.11017115192, -4.45167096355, -9.08102629552
1981, -3.07820635757, -4.31918978275, -9.19194458832
1982, -3.05267040719, -4.16147934378, -9.26509656507
1983, -3.0353035336, -3.98928735243, -9.29549703943
1984, -3.02728926055, -3.81434840836, -9.28107426933
1985, -3.02917374748, -3.6485843115, -9.22281114271
1986, -3.04082856975, -3.50329161111, -9.12467819536
1987, -3.06145947045, -3.38837176462, -8.99336302547
1988, -3.08966048782, -3.31165636965, -8.83781454487
1989, -3.12350976912, -3.27837345359, -8.66863312544
1990, -3.16070054176, -3.29079119217, -8.49734820135
1991, -3.19869831605, -3.34806333703, -8.33563255709
1992, -3.23491360648, -3.44628688613, -8.19450684659
1993, -3.07162240878, -3.59113447189, -8.04208952251
1994, -3.09715835916, -3.74884491086, -7.96893754576
1995, -3.11452523275, -3.9210369022, -7.9385370714
1996, -3.1225395058, -4.09597584628, -7.9529598415
1997, -3.12065501887, -4.26173994314, -8.01122296812
1998, -3.1090001966, -4.40703264353, -8.10935591547
1999, -3.0883692959, -4.52195249002, -8.24067108536
2000, -3.06016827853, -4.59866788499, -8.39621956596
2001, -3.02631899723, -4.63195080105, -8.56540098539
2002, -2.98912822459, -4.61953306247, -8.73668590948
2003, -2.9511304503, -4.56226091761, -8.89840155373
2004, -2.91491515987, -4.4640373685, -9.03952726424
2005, -2.88295036552, -4.3315561877, -9.15044555704
2006, -2.85741441514, -4.17384574873, -9.22359753378
2007, -2.84004754155, -4.00165375738, -9.25399800815
2008, -2.8320332685, -3.82671481331, -9.23957523805
2009, -2.83391775543, -3.66095071644, -9.18131211142
2010, -2.8455725777, -3.51565801606, -9.08317916407
2011, -2.86620347841, -3.40073816956, -8.95186399419
2012, -2.89440449577, -3.3240227746, -8.79631551358
2013, -2.92825377707, -3.29073985854, -8.62713409416
2014, -2.96544454971, -3.30315759712, -8.45584917006
2015, -3.003442324, -3.36042974198, -8.29413352581
2016, -3.03965761443, -3.45865329108, -8.15300781531
2017, -2.87636641673, -3.60350087684, -8.00059049122
2018, -2.90190236711, -3.76121131581, -7.92743851448
2019, -2.9192692407, -3.93340330715, -7.89703804011
2020, -2.92728351376, -4.10834225123, -7.91146081021
2021, -2.92539902682, -4.27410634809, -7.96972393684
2022, -2.91374420456, -4.41939904848, -8.06785688419
2023, -2.89311330385, -4.53431889497, -8.19917205407
2024, -2.86491228648, -4.61103428994, -8.35472053468
2025, -2.83106300518, -4.644317206, -8.5239019541
2026, -2.79387223254, -4.63189946741, -8.6951868782
2027, -2.75587445825, -4.57462732256, -8.85690252245
2028, -2.71965916783, -4.47640377345, -8.99802823295
2029, -2.68769437347, -4.34392259265, -9.10894652575
2030, -2.66215842309, -4.18621215368, -9.1820985025
2031, -2.6447915495, -4.01402016233, -9.21249897686
2032, -2.63677727645, -3.83908121826, -9.19807620676
2033, -2.63866176339, -3.67331712139, -9.13981308014
2034, -2.65031658565, -3.528024421, -9.04168013279
2035, -2.67094748636, -3.41310457451, -8.9103649629
2036, -2.69914850372, -3.33638917954, -8.7548164823
2037, -2.73299778502, -3.30310626349, -8.58563506288
2038, -2.77018855766, -3.31552400207, -8.41435013878
2039, -2.80818633195, -3.37279614692, -8.25263449453
2040, -2.84440162238, -3.47101969603, -8.11150878403
2041, -2.68111042468, -3.61586728179, -7.95909145994
2042, -2.70664637506, -3.77357772076, -7.88593948319
2043, -2.72401324865, -3.9457697121, -7.85553900883
2044, -2.73202752171, -4.12070865618, -7.86996177893
2045, -2.73014303477, -4.28647275304, -7.92822490555
2046, -2.71848821251, -4.43176545343, -8.0263578529
2047, -2.6978573118, -4.54668529992, -8.15767302279
2048, -2.66965629443, -4.62340069489, -8.31322150339
2049, -2.63580701314, -4.65668361094, -8.48240292282
2050, -2.59861624049, -4.64426587236, -8.65368784691
2051, -2.5606184662, -4.58699372751, -8.81540349117
2052, -2.52440317578, -4.4887701784, -8.95652920167
2053, -2.49243838142, -4.3562889976, -9.06744749447
2054, -2.46690243104, -4.19857855863, -9.14059947121
2055, -2.44953555745, -4.02638656728, -9.17099994558
2056, -2.4415212844, -3.8514476232, -9.15657717548
2057, -2.44340577134, -3.68568352634, -9.09831404886
2058, -2.4550605936, -3.54039082595, -9.00018110151
2059, -2.47569149431, -3.42547097946, -8.86886593162
2060, -2.50389251167, -3.34875558449, -8.71331745102
2061, -2.53774179297, -3.31547266844, -8.54413603159
2062, -2.57493256561, -3.32789040702, -8.3728511075
2063, -2.6129303399, -3.38516255187, -8.21113546324
2064, -2.64914563033, -3.48338610098, -8.07000975274
2065, -2.48585443264, -3.62823368673, -7.91759242866
2066, -2.51139038302, -3.7859441257, -7.84444045191
2067, -2.5287572566, -3.95813611705, -7.81403997754
2068, -2.53677152966, -4.13307506112, -7.82846274765
2069, -2.53488704272, -4.29883915799, -7.88672587427
2070, -2.52323222046, -4.44413185838, -7.98485882162
2071, -2.50260131975, -4.55905170487, -8.11617399151
2072, -2.47440030238, -4.63576709984, -8.27172247211
2073, -2.44055102109, -4.66905001589, -8.44090389153
2074, -2.40336024844, -4.65663227731, -8.61218881563
2075, -2.36536247415, -4.59936013246, -8.77390445988
2076, -2.32914718373, -4.50113658335, -8.91503017038
2077, -2.29718238937, -4.36865540254, -9.02594846318
2078, -2.27164643899, -4.21094496357, -9.09910043993
2079, -2.2542795654, -4.03875297223, -9.1295009143
2080, -2.24626529235, -3.86381402815, -9.1150781442
2081, -2.24814977929, -3.69804993129, -9.05681501757
2082, -2.25980460155, -3.5527572309, -8.95868207022
2083, -2.28043550226, -3.43783738441, -8.82736690034
2084, -2.30863651962, -3.36112198944, -8.67181841973
2085, -2.34248580092, -3.32783907339, -8.50263700031
2086, -2.37967657356, -3.34025681197, -8.33135207621
2087, -2.41767434786, -3.39752895682, -8.16963643196
2088, -2.45388963828, -3.49575250593, -8.02851072146
2089, -2.29059844059, -3.64060009168, -7.87609339737
2090, -2.31613439097, -3.79831053065, -7.80294142063
2091, -2.33350126455, -3.970502522, -7.77254094626
2092, -2.34151553761, -4.14544146607, -7.78696371636
2093, -2.33963105067, -4.31120556294, -7.84522684299
2094, -2.32797622841, -4.45649826333, -7.94335979034
2095, -2.3073453277, -4.57141810982, -8.07467496022
2096, -2.27914431033, -4.64813350478, -8.23022344083
2097, -2.24529502904, -4.68141642084, -8.39940486025
2098, -2.20810425639, -4.66899868226, -8.57068978435
2099, -2.1701064821, -4.61172653741, -8.7324054286
2100, -2.13389119168, -4.5135029883, -8.8735311391
2101, -2.10192639732, -4.38102180749, -8.9844494319
2102, -2.07639044694, -4.22331136852, -9.05760140865
2103, -2.05902357335, -4.05111937718, -9.08800188301
2104, -2.0510093003, -3.8761804331, -9.07357911291
2105, -2.05289378724, -3.71041633624, -9.01531598629
2106, -2.0645486095, -3.56512363585, -8.91718303894
2107, -2.08517951021, -3.45020378936, -8.78586786905
2108, -2.11338052757, -3.37348839439, -8.63031938845
2109, -2.14722980887, -3.34020547833, -8.46113796902
2110, -2.18442058151, -3.35262321692, -8.28985304493
2111, -2.22241835581, -3.40989536177, -8.12813740068
2112, -2.25863364623, -3.50811891088, -7.98701169017
2113, -2.09534244854, -3.65296649663, -7.83459436609
2114, -2.12087839892, -3.8106769356, -7.76144238934
2115, -2.1382452725, -3.98286892695, -7.73104191498
2116, -2.14625954556, -4.15780787102, -7.74546468508
2117, -2.14437505862, -4.32357196789, -7.8037278117
2118, -2.13272023636, -4.46886466827, -7.90186075905
2119, -2.11208933565, -4.58378451477, -8.03317592894
2120, -2.08388831828, -4.66049990973, -8.18872440954
2121, -2.05003903699, -4.69378282579, -8.35790582897
2122, -2.01284826435, -4.68136508721, -8.52919075306
2123, -1.97485049005, -4.62409294235, -8.69090639732
2124, -1.93863519963, -4.52586939325, -8.83203210782
2125, -1.90667040527, -4.39338821244, -8.94295040062
2126, -1.88113445489, -4.23567777347, -9.01610237736
2127, -1.86376758131, -4.06348578213, -9.04650285173
2128, -1.85575330825, -3.88854683805, -9.03208008163
2129, -1.85763779519, -3.72278274119, -8.973816955
2130, -1.86929261745, -3.5774900408, -8.87568400765
2131, -1.88992351816, -3.46257019431, -8.74436883777
2132, -1.91812453553, -3.38585479934, -8.58882035716
2133, -1.95197381682, -3.35257188328, -8.41963893774
2134, -1.98916458946, -3.36498962186, -8.24835401364
2135, -2.02716236376, -3.42226176672, -8.08663836939
2136, -2.06337765418, -3.52048531583, -7.94551265889
2137, -1.90008645649, -3.66533290158, -7.79309533481
2138, -1.92562240687, -3.82304334055, -7.71994335806
2139, -1.94298928045, -3.9952353319, -7.68954288369
2140, -1.95100355351, -4.17017427597, -7.7039656538
2141, -1.94911906657, -4.33593837283, -7.76222878042
2142, -1.93746424431, -4.48123107322, -7.86036172777
2143, -1.9168333436, -4.59615091971, -7.99167689766
2144, -1.88863232623, -4.67286631468, -8.14722537826
2145, -1.85478304494, -4.70614923074, -8.31640679768
2146, -1.8175922723, -4.69373149216, -8.48769172178
2147, -1.779594498, -4.6364593473, -8.64940736603
2148, -1.74337920758, -4.5382357982, -8.79053307653
2149, -1.71141441322, -4.40575461739, -8.90145136933
2150, -1.68587846284, -4.24804417842, -8.97460334608
2151, -1.66851158926, -4.07585218707, -9.00500382045
2152, -1.6604973162, -3.900913243, -8.99058105034
2153, -1.66238180314, -3.73514914614, -8.93231792372
2154, -1.6740366254, -3.58985644575, -8.83418497637
2155, -1.69466752611, -3.47493659926, -8.70286980648
2156, -1.72286854348, -3.39822120429, -8.54732132588
2157, -1.75671782477, -3.36493828823, -8.37813990646
2158, -1.79390859741, -3.37735602681, -8.20685498236
2159, -1.83190637171, -3.43462817167, -8.04513933811
2160, -1.86812166213, -3.53285172078, -7.90401362761
2161, -1.70483046444, -3.67769930653, -7.75159630352
2162, -1.73036641482, -3.8354097455, -7.67844432678
2163, -1.7477332884, -4.00760173685, -7.64804385241
2164, -1.75574756146, -4.18254068092, -7.66246662251
2165, -1.75386307452, -4.34830477778, -7.72072974914
2166, -1.74220825226, -4.49359747817, -7.81886269649
2167, -1.72157735155, -4.60851732466, -7.95017786637
2168, -1.69337633418, -4.68523271963, -8.10572634698
2169, -1.65952705289, -4.71851563569, -8.2749077664
2170, -1.62233628025, -4.70609789711, -8.4461926905
2171, -1.58433850595, -4.64882575225, -8.60790833475
2172, -1.54812321553, -4.55060220315, -8.74903404525
2173, -1.51615842117, -4.41812102234, -8.85995233805
2174, -1.49062247079, -4.26041058337, -8.9331043148
2175, -1.47325559721, -4.08821859202, -8.96350478916
2176, -1.46524132415, -3.91327964795, -8.94908201906
2177, -1.46712581109, -3.74751555109, -8.89081889244
2178, -1.47878063335, -3.6022228507, -8.79268594509
2179, -1.49941153406, -3.48730300421, -8.6613707752
2180, -1.52761255143, -3.41058760924, -8.5058222946
2181, -1.56146183272, -3.37730469318, -8.33664087517
2182, -1.59865260536, -3.38972243176, -8.16535595108
2183, -1.63665037966, -3.44699457662, -8.00364030682
2184, -1.67286567008, -3.54521812572, -7.86251459632
2185, -1.50957447239, -3.69006571148, -7.71009727224
2186, -1.53511042277, -3.84777615045, -7.63694529549
2187, -1.55247729635, -4.0199681418, -7.60654482113
2188, -1.56049156941, -4.19490708587, -7.62096759123
2189, -1.55860708247, -4.36067118273, -7.67923071785
2190, -1.54695226021, -4.50596388312, -7.7773636652
2191, -1.5263213595, -4.62088372961, -7.90867883509
2192, -1.49812034213, -4.69759912458, -8.06422731569
2193, -1.46427106084, -4.73088204064, -8.23340873512
2194, -1.4270802882, -4.71846430206, -8.40469365921
2195, -1.3890825139, -4.6611921572, -8.56640930346
2196, -1.35286722348, -4.5629686081, -8.70753501397
2197, -1.32090242912, -4.43048742729, -8.81845330677
2198, -1.29536647874, -4.27277698832, -8.89160528351
2199, -1.27799960516, -4.10058499697, -8.92200575788
2200, -1.2699853321, -3.9256460529, -8.90758298778
2201, -1.27186981904, -3.75988195604, -8.84931986115
2202, -1.2835246413, -3.61458925565, -8.7511869138
2203, -1.30415554201, -3.49966940916, -8.61987174392
2204, -1.33235655938, -3.42295401419, -8.46432326331
2205, -1.36620584067, -3.38967109813, -8.29514184389
2206, -1.40339661331, -3.40208883671, -8.12385691979
2207, -1.44139438761, -3.45936098157, -7.96214127554
2208, -1.47760967803, -3.55758453067, -7.82101556504
2209, -1.31431848034, -3.70243211643, -7.66859824095
2210, -1.33985443072, -3.8601425554, -7.59544626421
2211, -1.35722130431, -4.03233454674, -7.56504578984
2212, -1.36523557736, -4.20727349082, -7.57946855994
2213, -1.36335109042, -4.37303758768, -7.63773168657
2214, -1.35169626816, -4.51833028807, -7.73586463392
2215, -1.33106536745, -4.63325013456, -7.8671798038
2216, -1.30286435009, -4.70996552953, -8.02272828441
2217, -1.26901506879, -4.74324844559, -8.19190970383
2218, -1.23182429615, -4.73083070701, -8.36319462793
2219, -1.19382652185, -4.67355856215, -8.52491027218
2220, -1.15761123143, -4.57533501304, -8.66603598268
2221, -1.12564643707, -4.44285383224, -8.77695427548
2222, -1.10011048669, -4.28514339327, -8.85010625223
2223, -1.08274361311, -4.11295140192, -8.8805067266
2224, -1.07472934005, -3.93801245785, -8.86608395649
2225, -1.07661382699, -3.77224836098, -8.80782082987
2226, -1.08826864925, -3.6269556606, -8.70968788252
2227, -1.10889954996, -3.5120358141, -8.57837271263
2228, -1.13710056733, -3.43532041914, -8.42282423203
2229, -1.17094984862, -3.40203750308, -8.25364281261
2230, -1.20814062127, -3.41445524166, -8.08235788851
2231, -1.24613839556, -3.47172738652, -7.92064224426
2232, -1.28235368598, -3.56995093562, -7.77951653376
2233, -1.11906248829, -3.71479852138, -7.62709920967
2234, -1.14459843867, -3.87250896035, -7.55394723292
2235, -1.16196531226, -4.04470095169, -7.52354675856
2236, -1.16997958531, -4.21963989577, -7.53796952866
2237, -1.16809509837, -4.38540399263, -7.59623265528
2238, -1.15644027611, -4.53069669302, -7.69436560263
2239, -1.1358093754, -4.64561653951, -7.82568077252
2240, -1.10760835804, -4.72233193448, -7.98122925312
2241, -1.07375907674, -4.75561485054, -8.15041067255
2242, -1.0365683041, -4.74319711195, -8.32169559664
2243, -0.998570529805, -4.6859249671, -8.4834112409
2244, -0.962355239382, -4.58770141799, -8.6245369514
2245, -0.930390445025, -4.45522023719, -8.7354552442
2246, -0.904854494645, -4.29750979822, -8.80860722094
2247, -0.887487621059, -4.12531780687, -8.83900769531
2248, -0.879473348003, -3.9503788628, -8.82458492521
2249, -0.881357834942, -3.78461476593, -8.76632179859
2250, -0.893012657203, -3.63932206554, -8.66818885124
2251, -0.913643557912, -3.52440221905, -8.53687368135
2252, -0.941844575279, -3.44768682409, -8.38132520075
2253, -0.975693856574, -3.41440390803, -8.21214378132
2254, -1.01288462922, -3.42682164661, -8.04085885723
2255, -1.05088240351, -3.48409379147, -7.87914321297
2256, -1.08709769393, -3.58231734057, -7.73801750247
2257, -0.923806496241, -3.72716492633, -7.58560017839
2258, -0.949342446621, -3.8848753653, -7.51244820164
2259, -0.966709320207, -4.05706735664, -7.48204772727
2260, -0.974723593263, -4.23200630072, -7.49647049738
2261, -0.972839106324, -4.39777039758, -7.554733624
2262, -0.961184284062, -4.54306309797, -7.65286657135
2263, -0.940553383354, -4.65798294446, -7.78418174124
2264, -0.912352365987, -4.73469833943, -7.93973022184
2265, -0.878503084692, -4.76798125548, -8.10891164126
2266, -0.84131231205, -4.7555635169, -8.28019656536
2267, -0.803314537755, -4.69829137205, -8.44191220961
2268, -0.767099247333, -4.60006782294, -8.58303792011
2269, -0.735134452976, -4.46758664214, -8.69395621291
2270, -0.709598502595, -4.30987620317, -8.76710818966
2271, -0.69223162901, -4.13768421182, -8.79750866403
2272, -0.684217355954, -3.96274526775, -8.78308589393
2273, -0.686101842892, -3.79698117088, -8.7248227673
2274, -0.697756665154, -3.65168847049, -8.62668981995
2275, -0.718387565863, -3.536768624, -8.49537465007
2276, -0.74658858323, -3.46005322903, -8.33982616946
2277, -0.780437864525, -3.42677031298, -8.17064475004
2278, -0.817628637167, -3.43918805156, -7.99935982594
2279, -0.855626411461, -3.49646019641, -7.83764418169
2280, -0.891841701884, -3.59468374552, -7.69651847119
2281, -0.728550504191, -3.73953133127, -7.5441011471
2282, -0.754086454572, -3.89724177024, -7.47094917036
2283, -0.771453328157, -4.06943376159, -7.44054869599
2284, -0.779467601213, -4.24437270567, -7.45497146609
2285, -0.777583114275, -4.41013680253, -7.51323459272
2286, -0.765928292013, -4.55542950292, -7.61136754007
2287, -0.745297391304, -4.67034934941, -7.74268270995
2288, -0.717096373938, -4.74706474438, -7.89823119056
2289, -0.683247092642, -4.78034766043, -8.06741260998
2290, -0.64605632, -4.76792992185, -8.23869753408
2291, -0.608058545706, -4.710657777, -8.40041317833
2292, -0.571843255283, -4.61243422789, -8.54153888883
2293, -0.539878460926, -4.47995304708, -8.65245718163
2294, -0.514342510546, -4.32224260812, -8.72560915838
2295, -0.496975636961, -4.15005061677, -8.75600963274
2296, -0.488961363905, -3.97511167269, -8.74158686264
2297, -0.490845850843, -3.80934757583, -8.68332373602
2298, -0.502500673105, -3.66405487544, -8.58519078867
2299, -0.523131573814, -3.54913502895, -8.45387561878
2300, -0.55133259118, -3.47241963398, -8.29832713818
2301, -0.585181872476, -3.43913671793, -8.12914571875
2302, -0.622372645118, -3.45155445651, -7.95786079466
2303, -0.660370419412, -3.50882660136, -7.79614515041
2304, -0.696585709835, -3.60705015047, -7.6550194399
2305, -0.533294512142, -3.75189773622, -7.50260211582
2306, -0.558830462523, -3.90960817519, -7.42945013907
2307, -0.576197336108, -4.08180016654, -7.39904966471
2308, -0.584211609164, -4.25673911061, -7.41347243481
2309, -0.582327122226, -4.42250320748, -7.47173556143
2310, -0.570672299964, -4.56779590787, -7.56986850878
2311, -0.550041399255, -4.68271575436, -7.70118367867
2312, -0.521840381888, -4.75943114933, -7.85673215927
2313, -0.487991100593, -4.79271406538, -8.0259135787
2314, -0.450800327951, -4.7802963268, -8.19719850279
2315, -0.412802553657, -4.72302418195, -8.35891414705
2316, -0.376587263234, -4.62480063284, -8.50003985755
2317, -0.344622468877, -4.49231945203, -8.61095815035
2318, -0.319086518497, -4.33460901306, -8.68411012709
2319, -0.301719644911, -4.16241702172, -8.71451060146
2320, -0.293705371855, -3.98747807764, -8.70008783136
2321, -0.295589858794, -3.82171398078, -8.64182470473
2322, -0.307244681056, -3.67642128039, -8.54369175738
2323, -0.327875581764, -3.5615014339, -8.4123765875
2324, -0.356076599131, -3.48478603893, -8.25682810689
2325, -0.389925880426, -3.45150312288, -8.08764668747
2326, -0.427116653068, -3.46392086146, -7.91636176337
2327, -0.465114427363, -3.52119300631, -7.75464611912
2328, -0.501329717785, -3.61941655542, -7.61352040862
2329, -0.338038520093, -3.76426414117, -7.46110308454
2330, -0.363574470473, -3.92197458014, -7.38795110779
2331, -0.380941344059, -4.09416657149, -7.35755063342
2332, -0.388955617115, -4.26910551556, -7.37197340353
2333, -0.387071130176, -4.43486961243, -7.43023653015
2334, -0.375416307915, -4.58016231282, -7.5283694775
2335, -0.354785407206, -4.69508215931, -7.65968464739
2336, -0.326584389839, -4.77179755427, -7.81523312799
2337, -0.292735108544, -4.80508047033, -7.98441454741
2338, -0.255544335902, -4.79266273175, -8.15569947151
2339, -0.217546561607, -4.73539058689, -8.31741511576
2340, -0.181331271185, -4.63716703779, -8.45854082626
2341, -0.149366476828, -4.50468585698, -8.56945911906
2342, -0.123830526448, -4.34697541801, -8.64261109581
2343, -0.106463652862, -4.17478342667, -8.67301157018
2344, -0.0984493798062, -3.99984448259, -8.65858880007
2345, -0.100333866744, -3.83408038573, -8.60032567345
2346, -0.111988689006, -3.68878768534, -8.5021927261
2347, -0.132619589715, -3.57386783885, -8.37087755621
2348, -0.160820607082, -3.49715244388, -8.21532907561
2349, -0.194669888377, -3.46386952782, -8.04614765619
2350, -0.231860661019, -3.47628726641, -7.87486273209
2351, -0.269858435313, -3.53355941126, -7.71314708784
2352, -0.306073725736, -3.63178296037, -7.57202137734
2353, -0.142782528044, -3.77663054612, -7.41960405325
2354, -0.168318478424, -3.93434098509, -7.34645207651
2355, -0.185685352009, -4.10653297644, -7.31605160214
2356, -0.193699625065, -4.28147192051, -7.33047437224
2357, -0.191815138127, -4.44723601738, -7.38873749887
2358, -0.180160315865, -4.59252871776, -7.48687044622
2359, -0.159529415156, -4.70744856425, -7.6181856161
2360, -0.13132839779, -4.78416395922, -7.77373409671
2361, -0.0974791164946, -4.81744687528, -7.94291551613
2362, -0.0602883438524, -4.8050291367, -8.11420044023
2363, -0.0222905695581, -4.74775699184, -8.27591608448
2364, 0.0139247208644, -4.64953344274, -8.41704179498
2365, 0.0458895152214, -4.51705226193, -8.52796008778
2366, 0.0714254656017, -4.35934182296, -8.60111206453
2367, 0.0887923391872, -4.18714983162, -8.63151253889
2368, 0.0968066122431, -4.01221088754, -8.61708976879
2369, 0.0949221253048, -3.84644679068, -8.55882664217
2370, 0.083267303043, -3.70115409029, -8.46069369482
2371, 0.0626364023342, -3.5862342438, -8.32937852493
2372, 0.0344353849676, -3.50951884883, -8.17383004433
2373, 0.000586103672327, -3.47623593277, -8.0046486249
2374, -0.0366046689699, -3.48865367135, -7.83336370081
2375, -0.0746024432642, -3.54592581621, -7.67164805655
2376, -0.110817733687, -3.64414936532, -7.53052234605
2377, 0.0524734640057, -3.78899695107, -7.37810502197
2378, 0.0269375136253, -3.94670739004, -7.30495304522
2379, 0.0095706400398, -4.11889938139, -7.27455257086
2380, 0.00155636698392, -4.29383832546, -7.28897534096
2381, 0.0034408539222, -4.45960242232, -7.34723846758
2382, 0.0150956761841, -4.60489512271, -7.44537141493
2383, 0.0357265768928, -4.7198149692, -7.57668658482
2384, 0.0639275942594, -4.79653036417, -7.73223506542
2385, 0.0977768755547, -4.82981328023, -7.90141648485
2386, 0.134967648197, -4.81739554165, -8.07270140894
2387, 0.172965422491, -4.76012339679, -8.23441705319
2388, 0.209180712914, -4.66189984769, -8.3755427637
2389, 0.241145507271, -4.52941866688, -8.4864610565
2390, 0.266681457651, -4.37170822791, -8.55961303324
2391, 0.284048331237, -4.19951623656, -8.59001350761
2392, 0.292062604292, -4.02457729249, -8.57559073751
2393, 0.290178117354, -3.85881319563, -8.51732761088
2394, 0.278523295092, -3.71352049524, -8.41919466353
2395, 0.257892394383, -3.59860064875, -8.28787949365
2396, 0.229691377017, -3.52188525378, -8.13233101304
2397, 0.195842095722, -3.48860233772, -7.96314959362
2398, 0.158651323079, -3.5010200763, -7.79186466952
2399, 0.120653548785, -3.55829222116, -7.63014902527
2400, 0.0844382583626, -3.65651577026, -7.48902331477
2401, 0.247729456055, -3.80136335602, -7.33660599069
2402, 0.222193505675, -3.95907379499, -7.26345401394
2403, 0.204826632089, -4.13126578634, -7.23305353957
2404, 0.196812359033, -4.30620473041, -7.24747630967
2405, 0.198696845971, -4.47196882727, -7.3057394363
2406, 0.210351668233, -4.61726152766, -7.40387238365
2407, 0.230982568942, -4.73218137415, -7.53518755353
2408, 0.259183586309, -4.80889676912, -7.69073603414
2409, 0.293032867604, -4.84217968518, -7.85991745356
2410, 0.330223640246, -4.8297619466, -8.03120237766
2411, 0.36822141454, -4.77248980174, -8.19291802191
2412, 0.404436704963, -4.67426625264, -8.33404373241
2413, 0.43640149932, -4.54178507183, -8.44496202521
2414, 0.4619374497, -4.38407463286, -8.51811400196
2415, 0.479304323286, -4.21188264151, -8.54851447633
2416, 0.487318596342, -4.03694369744, -8.53409170622
2417, 0.485434109403, -3.87117960058, -8.4758285796
2418, 0.473779287142, -3.72588690019, -8.37769563225
2419, 0.453148386433, -3.6109670537, -8.24638046236
2420, 0.424947369066, -3.53425165873, -8.09083198176
2421, 0.391098087771, -3.50096874267, -7.92165056234
2422, 0.353907315129, -3.51338648125, -7.75036563824
2423, 0.315909540834, -3.57065862611, -7.58864999399
2424, 0.279694250412, -3.66888217521, -7.44752428349
2425, 0.442985448104, -3.81372976097, -7.2951069594
2426, 0.417449497724, -3.97144019994, -7.22195498265
2427, 0.400082624138, -4.14363219129, -7.19155450829
2428, 0.392068351082, -4.31857113536, -7.20597727839
2429, 0.393952838021, -4.48433523222, -7.26424040501
2430, 0.405607660283, -4.62962793261, -7.36237335236
2431, 0.426238560991, -4.7445477791, -7.49368852225
2432, 0.454439578358, -4.82126317407, -7.64923700285
2433, 0.488288859653, -4.85454609013, -7.81841842228
2434, 0.525479632295, -4.84212835155, -7.98970334637
2435, 0.56347740659, -4.78485620669, -8.15141899063
2436, 0.599692697012, -4.68663265758, -8.29254470113
2437, 0.631657491369, -4.55415147678, -8.40346299393
2438, 0.65719344175, -4.39644103781, -8.47661497068
2439, 0.674560315335, -4.22424904646, -8.50701544504
2440, 0.682574588391, -4.04931010239, -8.49259267494
2441, 0.680690101453, -3.88354600552, -8.43432954832
2442, 0.669035279191, -3.73825330514, -8.33619660097
2443, 0.648404378482, -3.62333345865, -8.20488143108
2444, 0.620203361115, -3.54661806368, -8.04933295048
2445, 0.58635407982, -3.51333514762, -7.88015153105
2446, 0.549163307178, -3.5257528862, -7.70886660696
2447, 0.511165532884, -3.58302503106, -7.5471509627
2448, 0.474950242461, -3.68124858016, -7.4060252522
2449, 0.638241440154, -3.82609616592, -7.25360792812
2450, 0.612705489773, -3.98380660489, -7.18045595137
2451, 0.595338616188, -4.15599859623, -7.150055477
2452, 0.587324343132, -4.33093754031, -7.16447824711
2453, 0.58920883007, -4.49670163717, -7.22274137373
2454, 0.600863652332, -4.64199433756, -7.32087432108
2455, 0.621494553041, -4.75691418405, -7.45218949097
2456, 0.649695570407, -4.83362957902, -7.60773797157
2457, 0.683544851703, -4.86691249508, -7.77691939099
2458, 0.720735624345, -4.8544947565, -7.94820431509
2459, 0.758733398639, -4.79722261164, -8.10991995934
2460, 0.794948689062, -4.69899906253, -8.25104566984
2461, 0.826913483419, -4.56651788173, -8.36196396265
2462, 0.852449433799, -4.40880744276, -8.43511593939
2463, 0.869816307384, -4.23661545141, -8.46551641376
2464, 0.87783058044, -4.06167650734, -8.45109364366
2465, 0.875946093502, -3.89591241047, -8.39283051703
2466, 0.86429127124, -3.75061971009, -8.29469756968
2467, 0.843660370531, -3.63569986359, -8.1633823998
2468, 0.815459353165, -3.55898446863, -8.00783391919
2469, 0.781610071869, -3.52570155257, -7.83865249977
2470, 0.744419299227, -3.53811929115, -7.66736757567
2471, 0.706421524933, -3.59539143601, -7.50565193142
2472, 0.67020623451, -3.69361498511, -7.36452622092
2473, 0.833497432203, -3.83846257087, -7.21210889683
2474, 0.807961481822, -3.99617300984, -7.13895692009
2475, 0.790594608237, -4.16836500118, -7.10855644572
2476, 0.782580335181, -4.34330394526, -7.12297921582
2477, 0.784464822119, -4.50906804212, -7.18124234245
2478, 0.796119644381, -4.65436074251, -7.2793752898
2479, 0.81675054509, -4.769280589, -7.41069045968
2480, 0.844951562457, -4.84599598397, -7.56623894029
2481, 0.878800843752, -4.87927890003, -7.73542035971
2482, 0.915991616394, -4.86686116144, -7.90670528381
2483, 0.953989390688, -4.80958901659, -8.06842092806
2484, 0.990204681111, -4.71136546748, -8.20954663856
2485, 1.02216947547, -4.57888428668, -8.32046493136
2486, 1.04770542585, -4.42117384771, -8.39361690811
2487, 1.06507229943, -4.24898185636, -8.42401738247
2488, 1.07308657249, -4.07404291229, -8.40959461237
2489, 1.07120208555, -3.90827881542, -8.35133148575
2490, 1.05954726329, -3.76298611503, -8.2531985384
2491, 1.03891636258, -3.64806626854, -8.12188336851
2492, 1.01071534521, -3.57135087357, -7.96633488791
2493, 0.976866063919, -3.53806795752, -7.79715346848
2494, 0.939675291277, -3.5504856961, -7.62586854439
2495, 0.901677516982, -3.60775784095, -7.46415290014
2496, 0.86546222656, -3.70598139006, -7.32302718963
2497, 1.02875342425, -3.85082897582, -7.17060986555
2498, 1.00321747387, -4.00853941479, -7.0974578888
2499, 0.985850600286, -4.18073140613, -7.06705741444
2500, 0.97783632723, -4.35567035021, -7.08148018454
2501, 0.979720814169, -4.52143444707, -7.13974331116
2502, 0.99137563643, -4.66672714746, -7.23787625851
2503, 1.01200653714, -4.78164699395, -7.3691914284
2504, 1.04020755451, -4.85836238892, -7.524739909
2505, 1.0740568358, -4.89164530497, -7.69392132843
2506, 1.11124760844, -4.87922756639, -7.86520625252
2507, 1.14924538274, -4.82195542154, -8.02692189678
2508, 1.18546067316, -4.72373187243, -8.16804760728
2509, 1.21742546752, -4.59125069163, -8.27896590008
2510, 1.2429614179, -4.43354025266, -8.35211787682
2511, 1.26032829148, -4.26134826131, -8.38251835119
2512, 1.26834256454, -4.08640931723, -8.36809558109
2513, 1.2664580776, -3.92064522037, -8.30983245446
2514, 1.25480325534, -3.77535251998, -8.21169950711
2515, 1.23417235463, -3.66043267349, -8.08038433723
2516, 1.20597133726, -3.58371727852, -7.92483585662
2517, 1.17212205597, -3.55043436247, -7.7556544372
2518, 1.13493128333, -3.56285210105, -7.5843695131
2519, 1.09693350903, -3.6201242459, -7.42265386885
2520, 1.06071821861, -3.71834779501, -7.28152815835
2521, 1.2240094163, -3.86319538076, -7.12911083427
2522, 1.19847346592, -4.02090581973, -7.05595885752
2523, 1.18110659234, -4.19309781108, -7.02555838315
2524, 1.17309231928, -4.36803675515, -7.03998115326
2525, 1.17497680622, -4.53380085202, -7.09824427988
2526, 1.18663162848, -4.67909355241, -7.19637722723
2527, 1.20726252919, -4.7940133989, -7.32769239712
2528, 1.23546354656, -4.87072879387, -7.48324087772
2529, 1.26931282785, -4.90401170992, -7.65242229714
2530, 1.30650360049, -4.89159397134, -7.82370722124
2531, 1.34450137479, -4.83432182649, -7.98542286549
2532, 1.38071666521, -4.73609827738, -8.12654857599
2533, 1.41268145957, -4.60361709657, -8.23746686879
2534, 1.43821740995, -4.4459066576, -8.31061884554
2535, 1.45558428353, -4.27371466626, -8.34101931991
2536, 1.46359855659, -4.09877572218, -8.3265965498
2537, 1.46171406965, -3.93301162532, -8.26833342318
2538, 1.45005924739, -3.78771892493, -8.17020047583
2539, 1.42942834668, -3.67279907844, -8.03888530594
2540, 1.40122732931, -3.59608368347, -7.88333682534
2541, 1.36737804802, -3.56280076742, -7.71415540592
2542, 1.33018727538, -3.575218506, -7.54287048182
2543, 1.29218950108, -3.63249065085, -7.38115483757
2544, 1.25597421066, -3.73071419996, -7.24002912707
2545, 1.41926540835, -3.87556178571, -7.08761180298
2546, 1.39372945797, -4.03327222468, -7.01445982624
2547, 1.37636258438, -4.20546421603, -6.98405935187
2548, 1.36834831133, -4.3804031601, -6.99848212197
2549, 1.37023279827, -4.54616725697, -7.0567452486
2550, 1.38188762053, -4.69145995736, -7.15487819595
2551, 1.40251852124, -4.80637980385, -7.28619336583
2552, 1.4307195386, -4.88309519881, -7.44174184644
2553, 1.4645688199, -4.91637811487, -7.61092326586
2554, 1.50175959254, -4.90396037629, -7.78220818996
2555, 1.53975736684, -4.84668823143, -7.94392383421
2556, 1.57597265726, -4.74846468233, -8.08504954471
2557, 1.60793745162, -4.61598350152, -8.19596783751
2558, 1.633473402, -4.45827306255, -8.26911981426
2559, 1.65084027558, -4.28608107121, -8.29952028862
2560, 1.65885454864, -4.11114212713, -8.28509751852
2561, 1.6569700617, -3.94537803027, -8.2268343919
2562, 1.64531523944, -3.80008532988, -8.12870144455
2563, 1.62468433873, -3.68516548339, -7.99738627466
2564, 1.59648332136, -3.60845008842, -7.84183779406
2565, 1.56263404007, -3.57516717236, -7.67265637463
2566, 1.52544326742, -3.58758491095, -7.50137145054
2567, 1.48744549313, -3.6448570558, -7.33965580628
2568, 1.45123020271, -3.74308060491, -7.19853009578
2569, 1.6145214004, -3.88792819066, -7.0461127717
2570, 1.58898545002, -4.04563862963, -6.97296079495
2571, 1.57161857643, -4.21783062098, -6.94256032059
2572, 1.56360430338, -4.39276956505, -6.95698309069
2573, 1.56548879032, -4.55853366192, -7.01524621731
2574, 1.57714361258, -4.7038263623, -7.11337916466
2575, 1.59777451329, -4.8187462088, -7.24469433455
2576, 1.62597553065, -4.89546160376, -7.40024281515
2577, 1.65982481195, -4.92874451982, -7.56942423458
2578, 1.69701558459, -4.91632678124, -7.74070915867
2579, 1.73501335889, -4.85905463638, -7.90242480292
2580, 1.77122864931, -4.76083108728, -8.04355051343
2581, 1.80319344366, -4.62834990647, -8.15446880623
2582, 1.82872939405, -4.4706394675, -8.22762078297
2583, 1.84609626763, -4.29844747616, -8.25802125734
2584, 1.85411054069, -4.12350853208, -8.24359848724
2585, 1.85222605375, -3.95774443522, -8.18533536061
2586, 1.84057123149, -3.81245173483, -8.08720241326
2587, 1.81994033078, -3.69753188834, -7.95588724338
2588, 1.79173931341, -3.62081649337, -7.80033876277
2589, 1.75789003212, -3.58753357731, -7.63115734335
2590, 1.72069925947, -3.59995131589, -7.45987241925
2591, 1.68270148518, -3.65722346075, -7.298156775
2592, 1.64648619476, -3.75544700986, -7.1570310645
2593, 1.80977739245, -3.90029459561, -7.00461374042
2594, 1.78424144207, -4.05800503458, -6.93146176367
2595, 1.76687456848, -4.23019702593, -6.9010612893
2596, 1.75886029543, -4.40513597, -6.9154840594
2597, 1.76074478237, -4.57090006686, -6.97374718603
2598, 1.77239960463, -4.71619276725, -7.07188013338
2599, 1.79303050534, -4.83111261374, -7.20319530326
2600, 1.8212315227, -4.90782800871, -7.35874378387
2601, 1.855080804, -4.94111092477, -7.52792520329
2602, 1.89227157664, -4.92869318619, -7.69921012739
2603, 1.93026935093, -4.87142104133, -7.86092577164
2604, 1.96648464136, -4.77319749223, -8.00205148214
2605, 1.99844943571, -4.64071631142, -8.11296977494
2606, 2.02398538609, -4.48300587245, -8.18612175169
2607, 2.04135225968, -4.3108138811, -8.21652222606
2608, 2.04936653274, -4.13587493703, -8.20209945595
2609, 2.0474820458, -3.97011084017, -8.14383632933
2610, 2.03582722354, -3.82481813978, -8.04570338198
2611, 2.01519632283, -3.70989829329, -7.91438821209
2612, 1.98699530546, -3.63318289832, -7.75883973149
2613, 1.95314602417, -3.59989998226, -7.58965831207
2614, 1.91595525152, -3.61231772084, -7.41837338797
2615, 1.87795747723, -3.6695898657, -7.25665774372
2616, 1.84174218681, -3.76781341481, -7.11553203322
2617, 2.0050333845, -3.91266100056, -6.96311470913
2618, 1.97949743412, -4.07037143953, -6.88996273239
2619, 1.96213056053, -4.24256343088, -6.85956225802
2620, 1.95411628748, -4.41750237495, -6.87398502812
2621, 1.95600077442, -4.58326647181, -6.93224815474
2622, 1.96765559668, -4.7285591722, -7.03038110209
2623, 1.98828649739, -4.84347901869, -7.16169627198
2624, 2.01648751475, -4.92019441366, -7.31724475258
2625, 2.05033679605, -4.95347732972, -7.48642617201
2626, 2.08752756869, -4.94105959114, -7.6577110961
2627, 2.12552534298, -4.88378744628, -7.81942674036
2628, 2.16174063341, -4.78556389718, -7.96055245086
2629, 2.19370542776, -4.65308271637, -8.07147074366
2630, 2.21924137814, -4.4953722774, -8.14462272041
2631, 2.23660825173, -4.32318028605, -8.17502319477
2632, 2.24462252479, -4.14824134198, -8.16060042467
2633, 2.24273803785, -3.98247724512, -8.10233729805
2634, 2.23108321559, -3.83718454473, -8.0042043507
2635, 2.21045231488, -3.72226469824, -7.87288918081
2636, 2.18225129751, -3.64554930327, -7.71734070021
2637, 2.14840201621, -3.61226638721, -7.54815928078
2638, 2.11121124357, -3.62468412579, -7.37687435669
2639, 2.07321346928, -3.68195627065, -7.21515871243
2640, 2.03699817886, -3.78017981975, -7.07403300193
2641, 2.20028937655, -3.92502740551, -6.92161567785
2642, 2.17475342617, -4.08273784448, -6.8484637011
2643, 2.15738655258, -4.25492983583, -6.81806322673
2644, 2.14937227953, -4.4298687799, -6.83248599684
2645, 2.15125676646, -4.59563287676, -6.89074912346
2646, 2.16291158873, -4.74092557715, -6.98888207081
2647, 2.18354248943, -4.85584542364, -7.1201972407
2648, 2.2117435068, -4.93256081861, -7.2757457213
2649, 2.2455927881, -4.96584373467, -7.44492714072
2650, 2.28278356074, -4.95342599609, -7.61621206482
2651, 2.32078133503, -4.89615385123, -7.77792770907
2652, 2.35699662546, -4.79793030213, -7.91905341957
2653, 2.38896141981, -4.66544912132, -8.02997171238
2654, 2.41449737019, -4.50773868235, -8.10312368912
2655, 2.43186424378, -4.335546691, -8.13352416349
2656, 2.43987851683, -4.16060774693, -8.11910139339
2657, 2.4379940299, -3.99484365007, -8.06083826676
2658, 2.42633920763, -3.84955094968, -7.96270531941
2659, 2.40570830693, -3.73463110319, -7.83139014953
2660, 2.37750728956, -3.65791570822, -7.67584166892
2661, 2.34365800826, -3.62463279216, -7.5066602495
2662, 2.30646723562, -3.63705053074, -7.3353753254
2663, 2.26846946133, -3.6943226756, -7.17365968115
2664, 2.2322541709, -3.7925462247, -7.03253397065
2665, 2.3955453686, -3.93739381046, -6.88011664656
2666, 2.37000941822, -4.09510424943, -6.80696466982
2667, 2.35264254463, -4.26729624077, -6.77656419545
2668, 2.34462827158, -4.44223518485, -6.79098696555
2669, 2.34651275851, -4.60799928171, -6.84925009218
2670, 2.35816758078, -4.7532919821, -6.94738303953
2671, 2.37879848148, -4.86821182859, -7.07869820941
2672, 2.40699949885, -4.94492722356, -7.23424669002
2673, 2.44084878015, -4.97821013962, -7.40342810944
2674, 2.47803955279, -4.96579240104, -7.57471303354
2675, 2.51603732708, -4.90852025618, -7.73642867779
2676, 2.55225261751, -4.81029670707, -7.87755438829
2677, 2.58421741186, -4.67781552627, -7.98847268109
2678, 2.60975336224, -4.5201050873, -8.06162465784
2679, 2.62712023583, -4.34791309595, -8.0920251322
2680, 2.63513450888, -4.17297415188, -8.0776023621
2681, 2.63325002195, -4.00721005501, -8.01933923548
2682, 2.62159519968, -3.86191735463, -7.92120628813
2683, 2.60096429897, -3.74699750813, -7.78989111824
2684, 2.57276328161, -3.67028211317, -7.63434263764
2685, 2.53891400031, -3.63699919711, -7.46516121821
2686, 2.50172322767, -3.64941693569, -7.29387629412
2687, 2.46372545338, -3.70668908055, -7.13216064987
2688, 2.42751016295, -3.80491262965, -6.99103493936
2689, 2.59080136065, -3.94976021541, -6.83861761528
2690, 2.56526541027, -4.10747065438, -6.76546563853
2691, 2.54789853668, -4.27966264572, -6.73506516417
2692, 2.53988426362, -4.4546015898, -6.74948793427
2693, 2.54176875056, -4.62036568666, -6.80775106089
2694, 2.55342357282, -4.76565838705, -6.90588400824
2695, 2.57405447353, -4.88057823354, -7.03719917813
2696, 2.6022554909, -4.95729362851, -7.19274765873
2697, 2.6361047722, -4.99057654457, -7.36192907816
2698, 2.67329554484, -4.97815880598, -7.53321400225
2699, 2.71129331913, -4.92088666113, -7.69492964651
2700, 2.74750860955, -4.82266311202, -7.83605535701
2701, 2.77947340391, -4.69018193122, -7.94697364981
2702, 2.80500935429, -4.53247149225, -8.02012562655
2703, 2.82237622788, -4.3602795009, -8.05052610092
2704, 2.83039050093, -4.18534055683, -8.03610333082
2705, 2.82850601399, -4.01957645996, -7.97784020419
2706, 2.81685119173, -3.87428375957, -7.87970725684
2707, 2.79622029102, -3.75936391308, -7.74839208696
2708, 2.76801927366, -3.68264851812, -7.59284360635
2709, 2.73416999236, -3.64936560206, -7.42366218693
2710, 2.69697921972, -3.66178334064, -7.25237726283
2711, 2.65898144543, -3.7190554855, -7.09066161858
2712, 2.622766155, -3.8172790346, -6.94953590808
2713, 2.7860573527, -3.96212662036, -6.797118584
2714, 2.76052140232, -4.11983705933, -6.72396660725
2715, 2.74315452873, -4.29202905067, -6.69356613288
2716, 2.73514025567, -4.46696799475, -6.70798890299
2717, 2.73702474261, -4.63273209161, -6.76625202961
2718, 2.74867956487, -4.778024792, -6.86438497696
2719, 2.76931046558, -4.89294463849, -6.99570014685
2720, 2.79751148295, -4.96966003346, -7.15124862745
2721, 2.83136076424, -5.00294294951, -7.32043004687
2722, 2.86855153689, -4.99052521093, -7.49171497097
2723, 2.90654931118, -4.93325306608, -7.65343061522
2724, 2.9427646016, -4.83502951697, -7.79455632572
2725, 2.97472939596, -4.70254833617, -7.90547461852
2726, 3.00026534634, -4.5448378972, -7.97862659527
2727, 3.01763221993, -4.37264590585, -8.00902706964
2728, 3.02564649298, -4.19770696178, -7.99460429953
2729, 3.02376200604, -4.03194286491, -7.93634117291
2730, 3.01210718378, -3.88665016452, -7.83820822556
2731, 2.99147628307, -3.77173031803, -7.70689305567
2732, 2.96327526571, -3.69501492306, -7.55134457507
2733, 2.92942598441, -3.66173200701, -7.38216315565
2734, 2.89223521177, -3.67414974559, -7.21087823155
2735, 2.85423743748, -3.73142189044, -7.0491625873
2736, 2.81802214705, -3.82964543955, -6.9080368768
2737, 2.98131334474, -3.9744930253, -6.75561955271
2738, 2.95577739436, -4.13220346427, -6.68246757597
2739, 2.93841052078, -4.30439545562, -6.6520671016
2740, 2.93039624772, -4.4793343997, -6.6664898717
2741, 2.93228073466, -4.64509849656, -6.72475299833
2742, 2.94393555692, -4.79039119695, -6.82288594568
2743, 2.96456645763, -4.90531104344, -6.95420111556
2744, 2.992767475, -4.98202643841, -7.10974959617
2745, 3.02661675629, -5.01530935446, -7.27893101559
2746, 3.06380752894, -5.00289161588, -7.45021593969
2747, 3.10180530323, -4.94561947103, -7.61193158394
2748, 3.13802059365, -4.84739592192, -7.75305729444
2749, 3.16998538801, -4.71491474111, -7.86397558724
2750, 3.19552133839, -4.55720430214, -7.93712756399
2751, 3.21288821198, -4.3850123108, -7.96752803835
2752, 3.22090248503, -4.21007336672, -7.95310526825
2753, 3.21901799809, -4.04430926986, -7.89484214163
2754, 3.20736317583, -3.89901656947, -7.79670919428
2755, 3.18673227512, -3.78409672298, -7.66539402439
2756, 3.15853125776, -3.70738132801, -7.50984554379
2757, 3.12468197646, -3.67409841196, -7.34066412436
2758, 3.08749120382, -3.68651615054, -7.16937920027
2759, 3.04949342952, -3.74378829539, -7.00766355601
2760, 3.0132781391, -3.8420118445, -6.86653784551
2761, 3.17656933679, -3.98685943025, -6.71412052143
2762, 3.15103338641, -4.14456986922, -6.64096854468
2763, 3.13366651283, -4.31676186057, -6.61056807032
2764, 3.12565223977, -4.49170080464, -6.62499084042
2765, 3.12753672671, -4.65746490151, -6.68325396704
2766, 3.13919154897, -4.8027576019, -6.78138691439
2767, 3.15982244968, -4.91767744839, -6.91270208428
2768, 3.18802346705, -4.99439284336, -7.06825056488
2769, 3.22187274834, -5.02767575941, -7.23743198431
2770, 3.25906352099, -5.01525802083, -7.4087169084
2771, 3.29706129528, -4.95798587598, -7.57043255265
2772, 3.3332765857, -4.85976232687, -7.71155826316
2773, 3.36524138006, -4.72728114606, -7.82247655596
2774, 3.39077733044, -4.56957070709, -7.8956285327
2775, 3.40814420403, -4.39737871575, -7.92602900707
2776, 3.41615847708, -4.22243977167, -7.91160623697
2777, 3.41427399014, -4.05667567481, -7.85334311034
2778, 3.40261916788, -3.91138297442, -7.75521016299
2779, 3.38198826717, -3.79646312793, -7.62389499311
2780, 3.35378724981, -3.71974773296, -7.4683465125
2781, 3.31993796851, -3.68646481691, -7.29916509308
2782, 3.28274719587, -3.69888255549, -7.12788016898
2783, 3.24474942157, -3.75615470034, -6.96616452473
2784, 3.20853413115, -3.85437824945, -6.82503881423
2785, 3.37182532884, -3.9992258352, -6.67262149015
2786, 3.34628937846, -4.15693627417, -6.5994695134
2787, 3.32892250488, -4.32912826552, -6.56906903903
2788, 3.32090823182, -4.50406720959, -6.58349180914
2789, 3.32279271876, -4.66983130646, -6.64175493576
2790, 3.33444754102, -4.81512400685, -6.73988788311
2791, 3.35507844173, -4.93004385334, -6.87120305299
2792, 3.3832794591, -5.0067592483, -7.0267515336
2793, 3.41712874039, -5.04004216436, -7.19593295302
2794, 3.45431951303, -5.02762442578, -7.36721787712
2795, 3.49231728733, -4.97035228092, -7.52893352137
2796, 3.52853257775, -4.87212873182, -7.67005923187
2797, 3.56049737211, -4.73964755101, -7.78097752467
2798, 3.58603332249, -4.58193711204, -7.85412950142
2799, 3.60340019607, -4.4097451207, -7.88452997579
2800, 3.61141446913, -4.23480617662, -7.87010720568
2801, 3.60952998219, -4.06904207976, -7.81184407906
2802, 3.59787515993, -3.92374937937, -7.71371113171
2803, 3.57724425922, -3.80882953288, -7.58239596182
2804, 3.54904324185, -3.73211413791, -7.42684748122
2805, 3.51519396056, -3.69883122185, -7.2576660618
2806, 3.47800318792, -3.71124896043, -7.0863811377
2807, 3.44000541362, -3.76852110529, -6.92466549345
2808, 3.4037901232, -3.8667446544, -6.78353978295
2809, 3.56708132089, -4.01159224015, -6.63112245886
2810, 3.54154537051, -4.16930267912, -6.55797048212
2811, 3.52417849693, -4.34149467047, -6.52757000775
2812, 3.51616422387, -4.51643361454, -6.54199277785
2813, 3.51804871081, -4.68219771141, -6.60025590447
2814, 3.52970353307, -4.82749041179, -6.69838885182
2815, 3.55033443378, -4.94241025828, -6.82970402171
2816, 3.57853545115, -5.01912565325, -6.98525250231
2817, 3.61238473244, -5.05240856931, -7.15443392174
2818, 3.64957550508, -5.03999083073, -7.32571884583
2819, 3.68757327938, -4.98271868587, -7.48743449009
2820, 3.7237885698, -4.88449513677, -7.62856020059
2821, 3.75575336416, -4.75201395596, -7.73947849339
2822, 3.78128931454, -4.59430351699, -7.81263047014
2823, 3.79865618812, -4.42211152565, -7.8430309445
2824, 3.80667046118, -4.24717258157, -7.8286081744
2825, 3.80478597424, -4.08140848471, -7.77034504778
2826, 3.79313115198, -3.93611578432, -7.67221210043
2827, 3.77250025127, -3.82119593783, -7.54089693054
2828, 3.7442992339, -3.74448054286, -7.38534844994
2829, 3.71044995261, -3.7111976268, -7.21616703051
2830, 3.67325917997, -3.72361536538, -7.04488210642
2831, 3.63526140567, -3.78088751024, -6.88316646216
2832, 3.59904611525, -3.87911105935, -6.74204075166
2833, 3.76233731294, -4.0239586451, -6.58962342758
2834, 3.73680136256, -4.18166908407, -6.51647145083
2835, 3.71943448898, -4.35386107542, -6.48607097647
2836, 3.71142021592, -4.52880001949, -6.50049374657
2837, 3.71330470286, -4.69456411635, -6.55875687319
2838, 3.72495952512, -4.83985681674, -6.65688982054
2839, 3.74559042583, -4.95477666323, -6.78820499043
2840, 3.7737914432, -5.0314920582, -6.94375347103
2841, 3.80764072449, -5.06477497426, -7.11293489045
2842, 3.84483149713, -5.05235723568, -7.28421981455
2843, 3.88282927143, -4.99508509082, -7.4459354588
2844, 3.91904456185, -4.89686154172, -7.5870611693
2845, 3.95100935621, -4.76438036091, -7.69797946211
2846, 3.97654530659, -4.60666992194, -7.77113143885
2847, 3.99391218017, -4.43447793059, -7.80153191322
2848, 4.00192645323, -4.25953898652, -7.78710914312
2849, 4.00004196629, -4.09377488966, -7.72884601649
2850, 3.98838714403, -3.94848218927, -7.63071306914
2851, 3.96775624332, -3.83356234278, -7.49939789926
2852, 3.93955522595, -3.75684694781, -7.34384941865
2853, 3.90570594466, -3.72356403175, -7.17466799923
2854, 3.86851517202, -3.73598177033, -7.00338307513
2855, 3.83051739772, -3.79325391519, -6.84166743088
2856, 3.7943021073, -3.89147746429, -6.70054172038
2857, 3.95759330499, -4.03632505005, -6.54812439629
2858, 3.93205735461, -4.19403548902, -6.47497241955
2859, 3.91469048103, -4.36622748037, -6.44457194518
2860, 3.90667620797, -4.54116642444, -6.45899471528
2861, 3.90856069491, -4.7069305213, -6.51725784191
2862, 3.92021551717, -4.85222322169, -6.61539078926
2863, 3.94084641788, -4.96714306818, -6.74670595914
2864, 3.96904743525, -5.04385846315, -6.90225443975
2865, 4.00289671654, -5.07714137921, -7.07143585917
2866, 4.04008748918, -5.06472364063, -7.24272078327
2867, 4.07808526348, -5.00745149577, -7.40443642752
2868, 4.1143005539, -4.90922794667, -7.54556213802
2869, 4.14626534826, -4.77674676586, -7.65648043082
2870, 4.17180129864, -4.61903632689, -7.72963240757
2871, 4.18916817222, -4.44684433554, -7.76003288193
2872, 4.19718244528, -4.27190539147, -7.74561011183
2873, 4.19529795834, -4.10614129461, -7.68734698521
2874, 4.18364313608, -3.96084859422, -7.58921403786
2875, 4.16301223537, -3.84592874773, -7.45789886797
2876, 4.134811218, -3.76921335276, -7.30235038737
2877, 4.10096193671, -3.7359304367, -7.13316896794
2878, 4.06377116407, -3.74834817528, -6.96188404385
2879, 4.02577338977, -3.80562032014, -6.8001683996
2880, 3.98955809935, -3.90384386924, -6.65904268909
2881, 4.15284929704, -4.048691455, -6.50662536501
2882, 4.12731334666, -4.20640189397, -6.43347338826
2883, 4.10994647307, -4.37859388531, -6.4030729139
2884, 4.10193220002, -4.55353282939, -6.417495684
2885, 4.10381668696, -4.71929692625, -6.47575881062
2886, 4.11547150922, -4.86458962664, -6.57389175797
2887, 4.13610240993, -4.97950947313, -6.70520692786
2888, 4.16430342729, -5.0562248681, -6.86075540846
2889, 4.19815270859, -5.08950778416, -7.02993682789
2890, 4.23534348123, -5.07709004558, -7.20122175198
2891, 4.27334125553, -5.01981790072, -7.36293739624
2892, 4.30955654595, -4.92159435161, -7.50406310674
2893, 4.34152134031, -4.78911317081, -7.61498139954
2894, 4.36705729069, -4.63140273184, -7.68813337628
2895, 4.38442416427, -4.45921074049, -7.71853385065
2896, 4.39243843733, -4.28427179642, -7.70411108055
2897, 4.39055395039, -4.11850769955, -7.64584795392
2898, 4.37889912813, -3.97321499917, -7.54771500657
2899, 4.35826822742, -3.85829515268, -7.41639983669
2900, 4.33006721005, -3.78157975771, -7.26085135608
2901, 4.29621792876, -3.74829684165, -7.09166993666
2902, 4.25902715611, -3.76071458023, -6.92038501256
2903, 4.22102938182, -3.81798672509, -6.75866936831
2904, 4.1848140914, -3.91621027419, -6.61754365781
*Element, type=R3D4
1, 1, 25, 26, 2
2, 2, 26, 27, 3
3, 3, 27, 28, 4
4, 4, 28, 29, 5
5, 5, 29, 30, 6
6, 6, 30, 31, 7
7, 7, 31, 32, 8
8, 8, 32, 33, 9
9, 9, 33, 34, 10
10, 10, 34, 35, 11
11, 11, 35, 36, 12
12, 12, 36, 37, 13
13, 13, 37, 38, 14
14, 14, 38, 39, 15
15, 15, 39, 40, 16
16, 16, 40, 41, 17
17, 17, 41, 42, 18
18, 18, 42, 43, 19
19, 19, 43, 44, 20
20, 20, 44, 45, 21
21, 21, 45, 46, 22
22, 22, 46, 47, 23
23, 23, 47, 48, 24
24, 24, 48, 25, 1
25, 25, 49, 50, 26
26, 26, 50, 51, 27
27, 27, 51, 52, 28
28, 28, 52, 53, 29
29, 29, 53, 54, 30
30, 30, 54, 55, 31
31, 31, 55, 56, 32
32, 32, 56, 57, 33
33, 33, 57, 58, 34
34, 34, 58, 59, 35
35, 35, 59, 60, 36
36, 36, 60, 61, 37
37, 37, 61, 62, 38
38, 38, 62, 63, 39
39, 39, 63, 64, 40
40, 40, 64, 65, 41
41, 41, 65, 66, 42
42, 42, 66, 67, 43
43, 43, 67, 68, 44
44, 44, 68, 69, 45
45, 45, 69, 70, 46
46, 46, 70, 71, 47
47, 47, 71, 72, 48
48, 48, 72, 49, 25
49, 49, 73, 74, 50
50, 50, 74, 75, 51
51, 51, 75, 76, 52
52, 52, 76, 77, 53
53, 53, 77, 78, 54
54, 54, 78, 79, 55
55, 55, 79, 80, 56
56, 56, 80, 81, 57
57, 57, 81, 82, 58
58, 58, 82, 83, 59
59, 59, 83, 84, 60
60, 60, 84, 85, 61
61, 61, 85, 86, 62
62, 62, 86, 87, 63
63, 63, 87, 88, 64
64, 64, 88, 89, 65
65, 65, 89, 90, 66
66, 66, 90, 91, 67
67, 67, 91, 92, 68
68, 68, 92, 93, 69
69, 69, 93, 94, 70
70, 70, 94, 95, 71
71, 71, 95, 96, 72
72, 72, 96, 73, 49
73, 73, 97, 98, 74
74, 74, 98, 99, 75
75, 75, 99, 100, 76
76, 76, 100, 101, 77
77, 77, 101, 102, 78
78, 78, 102, 103, 79
79, 79, 103, 104, 80
80, 80, 104, 105, 81
81, 81, 105, 106, 82
82, 82, 106, 107, 83
83, 83, 107, 108, 84
84, 84, 108, 109, 85
85, 85, 109, 110, 86
86, 86, 110, 111, 87
87, 87, 111, 112, 88
88, 88, 112, 113, 89
89, 89, 113, 114, 90
90, 90, 114, 115, 91
91, 91, 115, 116, 92
92, 92, 116, 117, 93
93, 93, 117, 118, 94
94, 94, 118, 119, 95
95, 95, 119, 120, 96
96, 96, 120, 97, 73
97, 97, 121, 122, 98
98, 98, 122, 123, 99
99, 99, 123, 124, 100
100, 100, 124, 125, 101
101, 101, 125, 126, 102
102, 102, 126, 127, 103
103, 103, 127, 128, 104
104, 104, 128, 129, 105
105, 105, 129, 130, 106
106, 106, 130, 131, 107
107, 107, 131, 132, 108
108, 108, 132, 133, 109
109, 109, 133, 134, 110
110, 110, 134, 135, 111
111, 111, 135, 136, 112
112, 112, 136, 137, 113
113, 113, 137, 138, 114
114, 114, 138, 139, 115
115, 115, 139, 140, 116
116, 116, 140, 141, 117
117, 117, 141, 142, 118
118, 118, 142, 143, 119
119, 119, 143, 144, 120
120, 120, 144, 121, 97
121, 121, 145, 146, 122
122, 122, 146, 147, 123
123, 123, 147, 148, 124
124, 124, 148, 149, 125
125, 125, 149, 150, 126
126, 126, 150, 151, 127
127, 127, 151, 152, 128
128, 128, 152, 153, 129
129, 129, 153, 154, 130
130, 130, 154, 155, 131
131, 131, 155, 156, 132
132, 132, 156, 157, 133
133, 133, 157, 158, 134
134, 134, 158, 159, 135
135, 135, 159, 160, 136
136, 136, 160, 161, 137
137, 137, 161, 162, 138
138, 138, 162, 163, 139
139, 139, 163, 164, 140
140, 140, 164, 165, 141
141, 141, 165, 166, 142
142, 142, 166, 167, 143
143, 143, 167, 168, 144
144, 144, 168, 145, 121
145, 145, 169, 170, 146
146, 146, 170, 171, 147
147, 147, 171, 172, 148
148, 148, 172, 173, 149
149, 149, 173, 174, 150
150, 150, 174, 175, 151
151, 151, 175, 176, 152
152, 152, 176, 177, 153
153, 153, 177, 178, 154
154, 154, 178, 179, 155
155, 155, 179, 180, 156
156, 156, 180, 181, 157
157, 157, 181, 182, 158
158, 158, 182, 183, 159
159, 159, 183, 184, 160
160, 160, 184, 185, 161
161, 161, 185, 186, 162
162, 162, 186, 187, 163
163, 163, 187, 188, 164
164, 164, 188, 189, 165
165, 165, 189, 190, 166
166, 166, 190, 191, 167
167, 167, 191, 192, 168
168, 168, 192, 169, 145
169, 169, 193, 194, 170
170, 170, 194, 195, 171
171, 171, 195, 196, 172
172, 172, 196, 197, 173
173, 173, 197, 198, 174
174, 174, 198, 199, 175
175, 175, 199, 200, 176
176, 176, 200, 201, 177
177, 177, 201, 202, 178
178, 178, 202, 203, 179
179, 179, 203, 204, 180
180, 180, 204, 205, 181
181, 181, 205, 206, 182
182, 182, 206, 207, 183
183, 183, 207, 208, 184
184, 184, 208, 209, 185
185, 185, 209, 210, 186
186, 186, 210, 211, 187
187, 187, 211, 212, 188
188, 188, 212, 213, 189
189, 189, 213, 214, 190
190, 190, 214, 215, 191
191, 191, 215, 216, 192
192, 192, 216, 193, 169
193, 193, 217, 218, 194
194, 194, 218, 219, 195
195, 195, 219, 220, 196
196, 196, 220, 221, 197
197, 197, 221, 222, 198
198, 198, 222, 223, 199
199, 199, 223, 224, 200
200, 200, 224, 225, 201
201, 201, 225, 226, 202
202, 202, 226, 227, 203
203, 203, 227, 228, 204
204, 204, 228, 229, 205
205, 205, 229, 230, 206
206, 206, 230, 231, 207
207, 207, 231, 232, 208
208, 208, 232, 233, 209
209, 209, 233, 234, 210
210, 210, 234, 235, 211
211, 211, 235, 236, 212
212, 212, 236, 237, 213
213, 213, 237, 238, 214
214, 214, 238, 239, 215
215, 215, 239, 240, 216
216, 216, 240, 217, 193
217, 217, 241, 242, 218
218, 218, 242, 243, 219
219, 219, 243, 244, 220
220, 220, 244, 245, 221
221, 221, 245, 246, 222
222, 222, 246, 247, 223
223, 223, 247, 248, 224
224, 224, 248, 249, 225
225, 225, 249, 250, 226
226, 226, 250, 251, 227
227, 227, 251, 252, 228
228, 228, 252, 253, 229
229, 229, 253, 254, 230
230, 230, 254, 255, 231
231, 231, 255, 256, 232
232, 232, 256, 257, 233
233, 233, 257, 258, 234
234, 234, 258, 259, 235
235, 235, 259, 260, 236
236, 236, 260, 261, 237
237, 237, 261, 262, 238
238, 238, 262, 263, 239
239, 239, 263, 264, 240
240, 240, 264, 241, 217
241, 241, 265, 266, 242
242, 242, 266, 267, 243
243, 243, 267, 268, 244
244, 244, 268, 269, 245
245, 245, 269, 270, 246
246, 246, 270, 271, 247
247, 247, 271, 272, 248
248, 248, 272, 273, 249
249, 249, 273, 274, 250
250, 250, 274, 275, 251
251, 251, 275, 276, 252
252, 252, 276, 277, 253
253, 253, 277, 278, 254
254, 254, 278, 279, 255
255, 255, 279, 280, 256
256, 256, 280, 281, 257
257, 257, 281, 282, 258
258, 258, 282, 283, 259
259, 259, 283, 284, 260
260, 260, 284, 285, 261
261, 261, 285, 286, 262
262, 262, 286, 287, 263
263, 263, 287, 288, 264
264, 264, 288, 265, 241
265, 265, 289, 290, 266
266, 266, 290, 291, 267
267, 267, 291, 292, 268
268, 268, 292, 293, 269
269, 269, 293, 294, 270
270, 270, 294, 295, 271
271, 271, 295, 296, 272
272, 272, 296, 297, 273
273, 273, 297, 298, 274
274, 274, 298, 299, 275
275, 275, 299, 300, 276
276, 276, 300, 301, 277
277, 277, 301, 302, 278
278, 278, 302, 303, 279
279, 279, 303, 304, 280
280, 280, 304, 305, 281
281, 281, 305, 306, 282
282, 282, 306, 307, 283
283, 283, 307, 308, 284
284, 284, 308, 309, 285
285, 285, 309, 310, 286
286, 286, 310, 311, 287
287, 287, 311, 312, 288
288, 288, 312, 289, 265
289, 289, 313, 314, 290
290, 290, 314, 315, 291
291, 291, 315, 316, 292
292, 292, 316, 317, 293
293, 293, 317, 318, 294
294, 294, 318, 319, 295
295, 295, 319, 320, 296
296, 296, 320, 321, 297
297, 297, 321, 322, 298
298, 298, 322, 323, 299
299, 299, 323, 324, 300
300, 300, 324, 325, 301
301, 301, 325, 326, 302
302, 302, 326, 327, 303
303, 303, 327, 328, 304
304, 304, 328, 329, 305
305, 305, 329, 330, 306
306, 306, 330, 331, 307
307, 307, 331, 332, 308
308, 308, 332, 333, 309
309, 309, 333, 334, 310
310, 310, 334, 335, 311
311, 311, 335, 336, 312
312, 312, 336, 313, 289
313, 313, 337, 338, 314
314, 314, 338, 339, 315
315, 315, 339, 340, 316
316, 316, 340, 341, 317
317, 317, 341, 342, 318
318, 318, 342, 343, 319
319, 319, 343, 344, 320
320, 320, 344, 345, 321
321, 321, 345, 346, 322
322, 322, 346, 347, 323
323, 323, 347, 348, 324
324, 324, 348, 349, 325
325, 325, 349, 350, 326
326, 326, 350, 351, 327
327, 327, 351, 352, 328
328, 328, 352, 353, 329
329, 329, 353, 354, 330
330, 330, 354, 355, 331
331, 331, 355, 356, 332
332, 332, 356, 357, 333
333, 333, 357, 358, 334
334, 334, 358, 359, 335
335, 335, 359, 360, 336
336, 336, 360, 337, 313
337, 337, 361, 362, 338
338, 338, 362, 363, 339
339, 339, 363, 364, 340
340, 340, 364, 365, 341
341, 341, 365, 366, 342
342, 342, 366, 367, 343
343, 343, 367, 368, 344
344, 344, 368, 369, 345
345, 345, 369, 370, 346
346, 346, 370, 371, 347
347, 347, 371, 372, 348
348, 348, 372, 373, 349
349, 349, 373, 374, 350
350, 350, 374, 375, 351
351, 351, 375, 376, 352
352, 352, 376, 377, 353
353, 353, 377, 378, 354
354, 354, 378, 379, 355
355, 355, 379, 380, 356
356, 356, 380, 381, 357
357, 357, 381, 382, 358
358, 358, 382, 383, 359
359, 359, 383, 384, 360
360, 360, 384, 361, 337
361, 361, 385, 386, 362
362, 362, 386, 387, 363
363, 363, 387, 388, 364
364, 364, 388, 389, 365
365, 365, 389, 390, 366
366, 366, 390, 391, 367
367, 367, 391, 392, 368
368, 368, 392, 393, 369
369, 369, 393, 394, 370
370, 370, 394, 395, 371
371, 371, 395, 396, 372
372, 372, 396, 397, 373
373, 373, 397, 398, 374
374, 374, 398, 399, 375
375, 375, 399, 400, 376
376, 376, 400, 401, 377
377, 377, 401, 402, 378
378, 378, 402, 403, 379
379, 379, 403, 404, 380
380, 380, 404, 405, 381
381, 381, 405, 406, 382
382, 382, 406, 407, 383
383, 383, 407, 408, 384
384, 384, 408, 385, 361
385, 385, 409, 410, 386
386, 386, 410, 411, 387
387, 387, 411, 412, 388
388, 388, 412, 413, 389
389, 389, 413, 414, 390
390, 390, 414, 415, 391
391, 391, 415, 416, 392
392, 392, 416, 417, 393
393, 393, 417, 418, 394
394, 394, 418, 419, 395
395, 395, 419, 420, 396
396, 396, 420, 421, 397
397, 397, 421, 422, 398
398, 398, 422, 423, 399
399, 399, 423, 424, 400
400, 400, 424, 425, 401
401, 401, 425, 426, 402
402, 402, 426, 427, 403
403, 403, 427, 428, 404
404, 404, 428, 429, 405
405, 405, 429, 430, 406
406, 406, 430, 431, 407
407, 407, 431, 432, 408
408, 408, 432, 409, 385
409, 409, 433, 434, 410
410, 410, 434, 435, 411
411, 411, 435, 436, 412
412, 412, 436, 437, 413
413, 413, 437, 438, 414
414, 414, 438, 439, 415
415, 415, 439, 440, 416
416, 416, 440, 441, 417
417, 417, 441, 442, 418
418, 418, 442, 443, 419
419, 419, 443, 444, 420
420, 420, 444, 445, 421
421, 421, 445, 446, 422
422, 422, 446, 447, 423
423, 423, 447, 448, 424
424, 424, 448, 449, 425
425, 425, 449, 450, 426
426, 426, 450, 451, 427
427, 427, 451, 452, 428
428, 428, 452, 453, 429
429, 429, 453, 454, 430
430, 430, 454, 455, 431
431, 431, 455, 456, 432
432, 432, 456, 433, 409
433, 433, 457, 458, 434
434, 434, 458, 459, 435
435, 435, 459, 460, 436
436, 436, 460, 461, 437
437, 437, 461, 462, 438
438, 438, 462, 463, 439
439, 439, 463, 464, 440
440, 440, 464, 465, 441
441, 441, 465, 466, 442
442, 442, 466, 467, 443
443, 443, 467, 468, 444
444, 444, 468, 469, 445
445, 445, 469, 470, 446
446, 446, 470, 471, 447
447, 447, 471, 472, 448
448, 448, 472, 473, 449
449, 449, 473, 474, 450
450, 450, 474, 475, 451
451, 451, 475, 476, 452
452, 452, 476, 477, 453
453, 453, 477, 478, 454
454, 454, 478, 479, 455
455, 455, 479, 480, 456
456, 456, 480, 457, 433
457, 457, 481, 482, 458
458, 458, 482, 483, 459
459, 459, 483, 484, 460
460, 460, 484, 485, 461
461, 461, 485, 486, 462
462, 462, 486, 487, 463
463, 463, 487, 488, 464
464, 464, 488, 489, 465
465, 465, 489, 490, 466
466, 466, 490, 491, 467
467, 467, 491, 492, 468
468, 468, 492, 493, 469
469, 469, 493, 494, 470
470, 470, 494, 495, 471
471, 471, 495, 496, 472
472, 472, 496, 497, 473
473, 473, 497, 498, 474
474, 474, 498, 499, 475
475, 475, 499, 500, 476
476, 476, 500, 501, 477
477, 477, 501, 502, 478
478, 478, 502, 503, 479
479, 479, 503, 504, 480
480, 480, 504, 481, 457
481, 481, 505, 506, 482
482, 482, 506, 507, 483
483, 483, 507, 508, 484
484, 484, 508, 509, 485
485, 485, 509, 510, 486
486, 486, 510, 511, 487
487, 487, 511, 512, 488
488, 488, 512, 513, 489
489, 489, 513, 514, 490
490, 490, 514, 515, 491
491, 491, 515, 516, 492
492, 492, 516, 517, 493
493, 493, 517, 518, 494
494, 494, 518, 519, 495
495, 495, 519, 520, 496
496, 496, 520, 521, 497
497, 497, 521, 522, 498
498, 498, 522, 523, 499
499, 499, 523, 524, 500
500, 500, 524, 525, 501
501, 501, 525, 526, 502
502, 502, 526, 527, 503
503, 503, 527, 528, 504
504, 504, 528, 505, 481
505, 505, 529, 530, 506
506, 506, 530, 531, 507
507, 507, 531, 532, 508
508, 508, 532, 533, 509
509, 509, 533, 534, 510
510, 510, 534, 535, 511
511, 511, 535, 536, 512
512, 512, 536, 537, 513
513, 513, 537, 538, 514
514, 514, 538, 539, 515
515, 515, 539, 540, 516
516, 516, 540, 541, 517
517, 517, 541, 542, 518
518, 518, 542, 543, 519
519, 519, 543, 544, 520
520, 520, 544, 545, 521
521, 521, 545, 546, 522
522, 522, 546, 547, 523
523, 523, 547, 548, 524
524, 524, 548, 549, 525
525, 525, 549, 550, 526
526, 526, 550, 551, 527
527, 527, 551, 552, 528
528, 528, 552, 529, 505
529, 529, 553, 554, 530
530, 530, 554, 555, 531
531, 531, 555, 556, 532
532, 532, 556, 557, 533
533, 533, 557, 558, 534
534, 534, 558, 559, 535
535, 535, 559, 560, 536
536, 536, 560, 561, 537
537, 537, 561, 562, 538
538, 538, 562, 563, 539
539, 539, 563, 564, 540
540, 540, 564, 565, 541
541, 541, 565, 566, 542
542, 542, 566, 567, 543
543, 543, 567, 568, 544
544, 544, 568, 569, 545
545, 545, 569, 570, 546
546, 546, 570, 571, 547
547, 547, 571, 572, 548
548, 548, 572, 573, 549
549, 549, 573, 574, 550
550, 550, 574, 575, 551
551, 551, 575, 576, 552
552, 552, 576, 553, 529
553, 553, 577, 578, 554
554, 554, 578, 579, 555
555, 555, 579, 580, 556
556, 556, 580, 581, 557
557, 557, 581, 582, 558
558, 558, 582, 583, 559
559, 559, 583, 584, 560
560, 560, 584, 585, 561
561, 561, 585, 586, 562
562, 562, 586, 587, 563
563, 563, 587, 588, 564
564, 564, 588, 589, 565
565, 565, 589, 590, 566
566, 566, 590, 591, 567
567, 567, 591, 592, 568
568, 568, 592, 593, 569
569, 569, 593, 594, 570
570, 570, 594, 595, 571
571, 571, 595, 596, 572
572, 572, 596, 597, 573
573, 573, 597, 598, 574
574, 574, 598, 599, 575
575, 575, 599, 600, 576
576, 576, 600, 577, 553
577, 577, 601, 602, 578
578, 578, 602, 603, 579
579, 579, 603, 604, 580
580, 580, 604, 605, 581
581, 581, 605, 606, 582
582, 582, 606, 607, 583
583, 583, 607, 608, 584
584, 584, 608, 609, 585
585, 585, 609, 610, 586
586, 586, 610, 611, 587
587, 587, 611, 612, 588
588, 588, 612, 613, 589
589, 589, 613, 614, 590
590, 590, 614, 615, 591
591, 591, 615, 616, 592
592, 592, 616, 617, 593
593, 593, 617, 618, 594
594, 594, 618, 619, 595
595, 595, 619, 620, 596
596, 596, 620, 621, 597
597, 597, 621, 622, 598
598, 598, 622, 623, 599
599, 599, 623, 624, 600
600, 600, 624, 601, 577
601, 601, 625, 626, 602
602, 602, 626, 627, 603
603, 603, 627, 628, 604
604, 604, 628, 629, 605
605, 605, 629, 630, 606
606, 606, 630, 631, 607
607, 607, 631, 632, 608
608, 608, 632, 633, 609
609, 609, 633, 634, 610
610, 610, 634, 635, 611
611, 611, 635, 636, 612
612, 612, 636, 637, 613
613, 613, 637, 638, 614
614, 614, 638, 639, 615
615, 615, 639, 640, 616
616, 616, 640, 641, 617
617, 617, 641, 642, 618
618, 618, 642, 643, 619
619, 619, 643, 644, 620
620, 620, 644, 645, 621
621, 621, 645, 646, 622
622, 622, 646, 647, 623
623, 623, 647, 648, 624
624, 624, 648, 625, 601
625, 625, 649, 650, 626
626, 626, 650, 651, 627
627, 627, 651, 652, 628
628, 628, 652, 653, 629
629, 629, 653, 654, 630
630, 630, 654, 655, 631
631, 631, 655, 656, 632
632, 632, 656, 657, 633
633, 633, 657, 658, 634
634, 634, 658, 659, 635
635, 635, 659, 660, 636
636, 636, 660, 661, 637
637, 637, 661, 662, 638
638, 638, 662, 663, 639
639, 639, 663, 664, 640
640, 640, 664, 665, 641
641, 641, 665, 666, 642
642, 642, 666, 667, 643
643, 643, 667, 668, 644
644, 644, 668, 669, 645
645, 645, 669, 670, 646
646, 646, 670, 671, 647
647, 647, 671, 672, 648
648, 648, 672, 649, 625
649, 649, 673, 674, 650
650, 650, 674, 675, 651
651, 651, 675, 676, 652
652, 652, 676, 677, 653
653, 653, 677, 678, 654
654, 654, 678, 679, 655
655, 655, 679, 680, 656
656, 656, 680, 681, 657
657, 657, 681, 682, 658
658, 658, 682, 683, 659
659, 659, 683, 684, 660
660, 660, 684, 685, 661
661, 661, 685, 686, 662
662, 662, 686, 687, 663
663, 663, 687, 688, 664
664, 664, 688, 689, 665
665, 665, 689, 690, 666
666, 666, 690, 691, 667
667, 667, 691, 692, 668
668, 668, 692, 693, 669
669, 669, 693, 694, 670
670, 670, 694, 695, 671
671, 671, 695, 696, 672
672, 672, 696, 673, 649
673, 673, 697, 698, 674
674, 674, 698, 699, 675
675, 675, 699, 700, 676
676, 676, 700, 701, 677
677, 677, 701, 702, 678
678, 678, 702, 703, 679
679, 679, 703, 704, 680
680, 680, 704, 705, 681
681, 681, 705, 706, 682
682, 682, 706, 707, 683
683, 683, 707, 708, 684
684, 684, 708, 709, 685
685, 685, 709, 710, 686
686, 686, 710, 711, 687
687, 687, 711, 712, 688
688, 688, 712, 713, 689
689, 689, 713, 714, 690
690, 690, 714, 715, 691
691, 691, 715, 716, 692
692, 692, 716, 717, 693
693, 693, 717, 718, 694
694, 694, 718, 719, 695
695, 695, 719, 720, 696
696, 696, 720, 697, 673
697, 697, 721, 722, 698
698, 698, 722, 723, 699
699, 699, 723, 724, 700
700, 700, 724, 725, 701
701, 701, 725, 726, 702
702, 702, 726, 727, 703
703, 703, 727, 728, 704
704, 704, 728, 729, 705
705, 705, 729, 730, 706
706, 706, 730, 731, 707
707, 707, 731, 732, 708
708, 708, 732, 733, 709
709, 709, 733, 734, 710
710, 710, 734, 735, 711
711, 711, 735, 736, 712
712, 712, 736, 737, 713
713, 713, 737, 738, 714
714, 714, 738, 739, 715
715, 715, 739, 740, 716
716, 716, 740, 741, 717
717, 717, 741, 742, 718
718, 718, 742, 743, 719
719, 719, 743, 744, 720
720, 720, 744, 721, 697
721, 721, 745, 746, 722
722, 722, 746, 747, 723
723, 723, 747, 748, 724
724, 724, 748, 749, 725
725, 725, 749, 750, 726
726, 726, 750, 751, 727
727, 727, 751, 752, 728
728, 728, 752, 753, 729
729, 729, 753, 754, 730
730, 730, 754, 755, 731
731, 731, 755, 756, 732
732, 732, 756, 757, 733
733, 733, 757, 758, 734
734, 734, 758, 759, 735
735, 735, 759, 760, 736
736, 736, 760, 761, 737
737, 737, 761, 762, 738
738, 738, 762, 763, 739
739, 739, 763, 764, 740
740, 740, 764, 765, 741
741, 741, 765, 766, 742
742, 742, 766, 767, 743
743, 743, 767, 768, 744
744, 744, 768, 745, 721
745, 745, 769, 770, 746
746, 746, 770, 771, 747
747, 747, 771, 772, 748
748, 748, 772, 773, 749
749, 749, 773, 774, 750
750, 750, 774, 775, 751
751, 751, 775, 776, 752
752, 752, 776, 777, 753
753, 753, 777, 778, 754
754, 754, 778, 779, 755
755, 755, 779, 780, 756
756, 756, 780, 781, 757
757, 757, 781, 782, 758
758, 758, 782, 783, 759
759, 759, 783, 784, 760
760, 760, 784, 785, 761
761, 761, 785, 786, 762
762, 762, 786, 787, 763
763, 763, 787, 788, 764
764, 764, 788, 789, 765
765, 765, 789, 790, 766
766, 766, 790, 791, 767
767, 767, 791, 792, 768
768, 768, 792, 769, 745
769, 769, 793, 794, 770
770, 770, 794, 795, 771
771, 771, 795, 796, 772
772, 772, 796, 797, 773
773, 773, 797, 798, 774
774, 774, 798, 799, 775
775, 775, 799, 800, 776
776, 776, 800, 801, 777
777, 777, 801, 802, 778
778, 778, 802, 803, 779
779, 779, 803, 804, 780
780, 780, 804, 805, 781
781, 781, 805, 806, 782
782, 782, 806, 807, 783
783, 783, 807, 808, 784
784, 784, 808, 809, 785
785, 785, 809, 810, 786
786, 786, 810, 811, 787
787, 787, 811, 812, 788
788, 788, 812, 813, 789
789, 789, 813, 814, 790
790, 790, 814, 815, 791
791, 791, 815, 816, 792
792, 792, 816, 793, 769
793, 793, 817, 818, 794
794, 794, 818, 819, 795
795, 795, 819, 820, 796
796, 796, 820, 821, 797
797, 797, 821, 822, 798
798, 798, 822, 823, 799
799, 799, 823, 824, 800
800, 800, 824, 825, 801
801, 801, 825, 826, 802
802, 802, 826, 827, 803
803, 803, 827, 828, 804
804, 804, 828, 829, 805
805, 805, 829, 830, 806
806, 806, 830, 831, 807
807, 807, 831, 832, 808
808, 808, 832, 833, 809
809, 809, 833, 834, 810
810, 810, 834, 835, 811
811, 811, 835, 836, 812
812, 812, 836, 837, 813
813, 813, 837, 838, 814
814, 814, 838, 839, 815
815, 815, 839, 840, 816
816, 816, 840, 817, 793
817, 817, 841, 842, 818
818, 818, 842, 843, 819
819, 819, 843, 844, 820
820, 820, 844, 845, 821
821, 821, 845, 846, 822
822, 822, 846, 847, 823
823, 823, 847, 848, 824
824, 824, 848, 849, 825
825, 825, 849, 850, 826
826, 826, 850, 851, 827
827, 827, 851, 852, 828
828, 828, 852, 853, 829
829, 829, 853, 854, 830
830, 830, 854, 855, 831
831, 831, 855, 856, 832
832, 832, 856, 857, 833
833, 833, 857, 858, 834
834, 834, 858, 859, 835
835, 835, 859, 860, 836
836, 836, 860, 861, 837
837, 837, 861, 862, 838
838, 838, 862, 863, 839
839, 839, 863, 864, 840
840, 840, 864, 841, 817
841, 841, 865, 866, 842
842, 842, 866, 867, 843
843, 843, 867, 868, 844
844, 844, 868, 869, 845
845, 845, 869, 870, 846
846, 846, 870, 871, 847
847, 847, 871, 872, 848
848, 848, 872, 873, 849
849, 849, 873, 874, 850
850, 850, 874, 875, 851
851, 851, 875, 876, 852
852, 852, 876, 877, 853
853, 853, 877, 878, 854
854, 854, 878, 879, 855
855, 855, 879, 880, 856
856, 856, 880, 881, 857
857, 857, 881, 882, 858
858, 858, 882, 883, 859
859, 859, 883, 884, 860
860, 860, 884, 885, 861
861, 861, 885, 886, 862
862, 862, 886, 887, 863
863, 863, 887, 888, 864
864, 864, 888, 865, 841
865, 865, 889, 890, 866
866, 866, 890, 891, 867
867, 867, 891, 892, 868
868, 868, 892, 893, 869
869, 869, 893, 894, 870
870, 870, 894, 895, 871
871, 871, 895, 896, 872
872, 872, 896, 897, 873
873, 873, 897, 898, 874
874, 874, 898, 899, 875
875, 875, 899, 900, 876
876, 876, 900, 901, 877
877, 877, 901, 902, 878
878, 878, 902, 903, 879
879, 879, 903, 904, 880
880, 880, 904, 905, 881
881, 881, 905, 906, 882
882, 882, 906, 907, 883
883, 883, 907, 908, 884
884, 884, 908, 909, 885
885, 885, 909, 910, 886
886, 886, 910, 911, 887
887, 887, 911, 912, 888
888, 888, 912, 889, 865
889, 889, 913, 914, 890
890, 890, 914, 915, 891
891, 891, 915, 916, 892
892, 892, 916, 917, 893
893, 893, 917, 918, 894
894, 894, 918, 919, 895
895, 895, 919, 920, 896
896, 896, 920, 921, 897
897, 897, 921, 922, 898
898, 898, 922, 923, 899
899, 899, 923, 924, 900
900, 900, 924, 925, 901
901, 901, 925, 926, 902
902, 902, 926, 927, 903
903, 903, 927, 928, 904
904, 904, 928, 929, 905
905, 905, 929, 930, 906
906, 906, 930, 931, 907
907, 907, 931, 932, 908
908, 908, 932, 933, 909
909, 909, 933, 934, 910
910, 910, 934, 935, 911
911, 911, 935, 936, 912
912, 912, 936, 913, 889
913, 913, 937, 938, 914
914, 914, 938, 939, 915
915, 915, 939, 940, 916
916, 916, 940, 941, 917
917, 917, 941, 942, 918
918, 918, 942, 943, 919
919, 919, 943, 944, 920
920, 920, 944, 945, 921
921, 921, 945, 946, 922
922, 922, 946, 947, 923
923, 923, 947, 948, 924
924, 924, 948, 949, 925
925, 925, 949, 950, 926
926, 926, 950, 951, 927
927, 927, 951, 952, 928
928, 928, 952, 953, 929
929, 929, 953, 954, 930
930, 930, 954, 955, 931
931, 931, 955, 956, 932
932, 932, 956, 957, 933
933, 933, 957, 958, 934
934, 934, 958, 959, 935
935, 935, 959, 960, 936
936, 936, 960, 937, 913
937, 937, 961, 962, 938
938, 938, 962, 963, 939
939, 939, 963, 964, 940
940, 940, 964, 965, 941
941, 941, 965, 966, 942
942, 942, 966, 967, 943
943, 943, 967, 968, 944
944, 944, 968, 969, 945
945, 945, 969, 970, 946
946, 946, 970, 971, 947
947, 947, 971, 972, 948
948, 948, 972, 973, 949
949, 949, 973, 974, 950
950, 950, 974, 975, 951
951, 951, 975, 976, 952
952, 952, 976, 977, 953
953, 953, 977, 978, 954
954, 954, 978, 979, 955
955, 955, 979, 980, 956
956, 956, 980, 981, 957
957, 957, 981, 982, 958
958, 958, 982, 983, 959
959, 959, 983, 984, 960
960, 960, 984, 961, 937
961, 961, 985, 986, 962
962, 962, 986, 987, 963
963, 963, 987, 988, 964
964, 964, 988, 989, 965
965, 965, 989, 990, 966
966, 966, 990, 991, 967
967, 967, 991, 992, 968
968, 968, 992, 993, 969
969, 969, 993, 994, 970
970, 970, 994, 995, 971
971, 971, 995, 996, 972
972, 972, 996, 997, 973
973, 973, 997, 998, 974
974, 974, 998, 999, 975
975, 975, 999, 1000, 976
976, 976, 1000, 1001, 977
977, 977, 1001, 1002, 978
978, 978, 1002, 1003, 979
979, 979, 1003, 1004, 980
980, 980, 1004, 1005, 981
981, 981, 1005, 1006, 982
982, 982, 1006, 1007, 983
983, 983, 1007, 1008, 984
984, 984, 1008, 985, 961
985, 985, 1009, 1010, 986
986, 986, 1010, 1011, 987
987, 987, 1011, 1012, 988
988, 988, 1012, 1013, 989
989, 989, 1013, 1014, 990
990, 990, 1014, 1015, 991
991, 991, 1015, 1016, 992
992, 992, 1016, 1017, 993
993, 993, 1017, 1018, 994
994, 994, 1018, 1019, 995
995, 995, 1019, 1020, 996
996, 996, 1020, 1021, 997
997, 997, 1021, 1022, 998
998, 998, 1022, 1023, 999
999, 999, 1023, 1024, 1000
1000, 1000, 1024, 1025, 1001
1001, 1001, 1025, 1026, 1002
1002, 1002, 1026, 1027, 1003
1003, 1003, 1027, 1028, 1004
1004, 1004, 1028, 1029, 1005
1005, 1005, 1029, 1030, 1006
1006, 1006, 1030, 1031, 1007
1007, 1007, 1031, 1032, 1008
1008, 1008, 1032, 1009, 985
1009, 1009, 1033, 1034, 1010
1010, 1010, 1034, 1035, 1011
1011, 1011, 1035, 1036, 1012
1012, 1012, 1036, 1037, 1013
1013, 1013, 1037, 1038, 1014
1014, 1014, 1038, 1039, 1015
1015, 1015, 1039, 1040, 1016
1016, 1016, 1040, 1041, 1017
1017, 1017, 1041, 1042, 1018
1018, 1018, 1042, 1043, 1019
1019, 1019, 1043, 1044, 1020
1020, 1020, 1044, 1045, 1021
1021, 1021, 1045, 1046, 1022
1022, 1022, 1046, 1047, 1023
1023, 1023, 1047, 1048, 1024
1024, 1024, 1048, 1049, 1025
1025, 1025, 1049, 1050, 1026
1026, 1026, 1050, 1051, 1027
1027, 1027, 1051, 1052, 1028
1028, 1028, 1052, 1053, 1029
1029, 1029, 1053, 1054, 1030
1030, 1030, 1054, 1055, 1031
1031, 1031, 1055, 1056, 1032
1032, 1032, 1056, 1033, 1009
1033, 1033, 1057, 1058, 1034
1034, 1034, 1058, 1059, 1035
1035, 1035, 1059, 1060, 1036
1036, 1036, 1060, 1061, 1037
1037, 1037, 1061, 1062, 1038
1038, 1038, 1062, 1063, 1039
1039, 1039, 1063, 1064, 1040
1040, 1040, 1064, 1065, 1041
1041, 1041, 1065, 1066, 1042
1042, 1042, 1066, 1067, 1043
1043, 1043, 1067, 1068, 1044
1044, 1044, 1068, 1069, 1045
1045, 1045, 1069, 1070, 1046
1046, 1046, 1070, 1071, 1047
1047, 1047, 1071, 1072, 1048
1048, 1048, 1072, 1073, 1049
1049, 1049, 1073, 1074, 1050
1050, 1050, 1074, 1075, 1051
1051, 1051, 1075, 1076, 1052
1052, 1052, 1076, 1077, 1053
1053, 1053, 1077, 1078, 1054
1054, 1054, 1078, 1079, 1055
1055, 1055, 1079, 1080, 1056
1056, 1056, 1080, 1057, 1033
1057, 1057, 1081, 1082, 1058
1058, 1058, 1082, 1083, 1059
1059, 1059, 1083, 1084, 1060
1060, 1060, 1084, 1085, 1061
1061, 1061, 1085, 1086, 1062
1062, 1062, 1086, 1087, 1063
1063, 1063, 1087, 1088, 1064
1064, 1064, 1088, 1089, 1065
1065, 1065, 1089, 1090, 1066
1066, 1066, 1090, 1091, 1067
1067, 1067, 1091, 1092, 1068
1068, 1068, 1092, 1093, 1069
1069, 1069, 1093, 1094, 1070
1070, 1070, 1094, 1095, 1071
1071, 1071, 1095, 1096, 1072
1072, 1072, 1096, 1097, 1073
1073, 1073, 1097, 1098, 1074
1074, 1074, 1098, 1099, 1075
1075, 1075, 1099, 1100, 1076
1076, 1076, 1100, 1101, 1077
1077, 1077, 1101, 1102, 1078
1078, 1078, 1102, 1103, 1079
1079, 1079, 1103, 1104, 1080
1080, 1080, 1104, 1081, 1057
1081, 1081, 1105, 1106, 1082
1082, 1082, 1106, 1107, 1083
1083, 1083, 1107, 1108, 1084
1084, 1084, 1108, 1109, 1085
1085, 1085, 1109, 1110, 1086
1086, 1086, 1110, 1111, 1087
1087, 1087, 1111, 1112, 1088
1088, 1088, 1112, 1113, 1089
1089, 1089, 1113, 1114, 1090
1090, 1090, 1114, 1115, 1091
1091, 1091, 1115, 1116, 1092
1092, 1092, 1116, 1117, 1093
1093, 1093, 1117, 1118, 1094
1094, 1094, 1118, 1119, 1095
1095, 1095, 1119, 1120, 1096
1096, 1096, 1120, 1121, 1097
1097, 1097, 1121, 1122, 1098
1098, 1098, 1122, 1123, 1099
1099, 1099, 1123, 1124, 1100
1100, 1100, 1124, 1125, 1101
1101, 1101, 1125, 1126, 1102
1102, 1102, 1126, 1127, 1103
1103, 1103, 1127, 1128, 1104
1104, 1104, 1128, 1105, 1081
1105, 1105, 1129, 1130, 1106
1106, 1106, 1130, 1131, 1107
1107, 1107, 1131, 1132, 1108
1108, 1108, 1132, 1133, 1109
1109, 1109, 1133, 1134, 1110
1110, 1110, 1134, 1135, 1111
1111, 1111, 1135, 1136, 1112
1112, 1112, 1136, 1137, 1113
1113, 1113, 1137, 1138, 1114
1114, 1114, 1138, 1139, 1115
1115, 1115, 1139, 1140, 1116
1116, 1116, 1140, 1141, 1117
1117, 1117, 1141, 1142, 1118
1118, 1118, 1142, 1143, 1119
1119, 1119, 1143, 1144, 1120
1120, 1120, 1144, 1145, 1121
1121, 1121, 1145, 1146, 1122
1122, 1122, 1146, 1147, 1123
1123, 1123, 1147, 1148, 1124
1124, 1124, 1148, 1149, 1125
1125, 1125, 1149, 1150, 1126
1126, 1126, 1150, 1151, 1127
1127, 1127, 1151, 1152, 1128
1128, 1128, 1152, 1129, 1105
1129, 1129, 1153, 1154, 1130
1130, 1130, 1154, 1155, 1131
1131, 1131, 1155, 1156, 1132
1132, 1132, 1156, 1157, 1133
1133, 1133, 1157, 1158, 1134
1134, 1134, 1158, 1159, 1135
1135, 1135, 1159, 1160, 1136
1136, 1136, 1160, 1161, 1137
1137, 1137, 1161, 1162, 1138
1138, 1138, 1162, 1163, 1139
1139, 1139, 1163, 1164, 1140
1140, 1140, 1164, 1165, 1141
1141, 1141, 1165, 1166, 1142
1142, 1142, 1166, 1167, 1143
1143, 1143, 1167, 1168, 1144
1144, 1144, 1168, 1169, 1145
1145, 1145, 1169, 1170, 1146
1146, 1146, 1170, 1171, 1147
1147, 1147, 1171, 1172, 1148
1148, 1148, 1172, 1173, 1149
1149, 1149, 1173, 1174, 1150
1150, 1150, 1174, 1175, 1151
1151, 1151, 1175, 1176, 1152
1152, 1152, 1176, 1153, 1129
1153, 1153, 1177, 1178, 1154
1154, 1154, 1178, 1179, 1155
1155, 1155, 1179, 1180, 1156
1156, 1156, 1180, 1181, 1157
1157, 1157, 1181, 1182, 1158
1158, 1158, 1182, 1183, 1159
1159, 1159, 1183, 1184, 1160
1160, 1160, 1184, 1185, 1161
1161, 1161, 1185, 1186, 1162
1162, 1162, 1186, 1187, 1163
1163, 1163, 1187, 1188, 1164
1164, 1164, 1188, 1189, 1165
1165, 1165, 1189, 1190, 1166
1166, 1166, 1190, 1191, 1167
1167, 1167, 1191, 1192, 1168
1168, 1168, 1192, 1193, 1169
1169, 1169, 1193, 1194, 1170
1170, 1170, 1194, 1195, 1171
1171, 1171, 1195, 1196, 1172
1172, 1172, 1196, 1197, 1173
1173, 1173, 1197, 1198, 1174
1174, 1174, 1198, 1199, 1175
1175, 1175, 1199, 1200, 1176
1176, 1176, 1200, 1177, 1153
1177, 1177, 1201, 1202, 1178
1178, 1178, 1202, 1203, 1179
1179, 1179, 1203, 1204, 1180
1180, 1180, 1204, 1205, 1181
1181, 1181, 1205, 1206, 1182
1182, 1182, 1206, 1207, 1183
1183, 1183, 1207, 1208, 1184
1184, 1184, 1208, 1209, 1185
1185, 1185, 1209, 1210, 1186
1186, 1186, 1210, 1211, 1187
1187, 1187, 1211, 1212, 1188
1188, 1188, 1212, 1213, 1189
1189, 1189, 1213, 1214, 1190
1190, 1190, 1214, 1215, 1191
1191, 1191, 1215, 1216, 1192
1192, 1192, 1216, 1217, 1193
1193, 1193, 1217, 1218, 1194
1194, 1194, 1218, 1219, 1195
1195, 1195, 1219, 1220, 1196
1196, 1196, 1220, 1221, 1197
1197, 1197, 1221, 1222, 1198
1198, 1198, 1222, 1223, 1199
1199, 1199, 1223, 1224, 1200
1200, 1200, 1224, 1201, 1177
1201, 1201, 1225, 1226, 1202
1202, 1202, 1226, 1227, 1203
1203, 1203, 1227, 1228, 1204
1204, 1204, 1228, 1229, 1205
1205, 1205, 1229, 1230, 1206
1206, 1206, 1230, 1231, 1207
1207, 1207, 1231, 1232, 1208
1208, 1208, 1232, 1233, 1209
1209, 1209, 1233, 1234, 1210
1210, 1210, 1234, 1235, 1211
1211, 1211, 1235, 1236, 1212
1212, 1212, 1236, 1237, 1213
1213, 1213, 1237, 1238, 1214
1214, 1214, 1238, 1239, 1215
1215, 1215, 1239, 1240, 1216
1216, 1216, 1240, 1241, 1217
1217, 1217, 1241, 1242, 1218
1218, 1218, 1242, 1243, 1219
1219, 1219, 1243, 1244, 1220
1220, 1220, 1244, 1245, 1221
1221, 1221, 1245, 1246, 1222
1222, 1222, 1246, 1247, 1223
1223, 1223, 1247, 1248, 1224
1224, 1224, 1248, 1225, 1201
1225, 1225, 1249, 1250, 1226
1226, 1226, 1250, 1251, 1227
1227, 1227, 1251, 1252, 1228
1228, 1228, 1252, 1253, 1229
1229, 1229, 1253, 1254, 1230
1230, 1230, 1254, 1255, 1231
1231, 1231, 1255, 1256, 1232
1232, 1232, 1256, 1257, 1233
1233, 1233, 1257, 1258, 1234
1234, 1234, 1258, 1259, 1235
1235, 1235, 1259, 1260, 1236
1236, 1236, 1260, 1261, 1237
1237, 1237, 1261, 1262, 1238
1238, 1238, 1262, 1263, 1239
1239, 1239, 1263, 1264, 1240
1240, 1240, 1264, 1265, 1241
1241, 1241, 1265, 1266, 1242
1242, 1242, 1266, 1267, 1243
1243, 1243, 1267, 1268, 1244
1244, 1244, 1268, 1269, 1245
1245, 1245, 1269, 1270, 1246
1246, 1246, 1270, 1271, 1247
1247, 1247, 1271, 1272, 1248
1248, 1248, 1272, 1249, 1225
1249, 1249, 1273, 1274, 1250
1250, 1250, 1274, 1275, 1251
1251, 1251, 1275, 1276, 1252
1252, 1252, 1276, 1277, 1253
1253, 1253, 1277, 1278, 1254
1254, 1254, 1278, 1279, 1255
1255, 1255, 1279, 1280, 1256
1256, 1256, 1280, 1281, 1257
1257, 1257, 1281, 1282, 1258
1258, 1258, 1282, 1283, 1259
1259, 1259, 1283, 1284, 1260
1260, 1260, 1284, 1285, 1261
1261, 1261, 1285, 1286, 1262
1262, 1262, 1286, 1287, 1263
1263, 1263, 1287, 1288, 1264
1264, 1264, 1288, 1289, 1265
1265, 1265, 1289, 1290, 1266
1266, 1266, 1290, 1291, 1267
1267, 1267, 1291, 1292, 1268
1268, 1268, 1292, 1293, 1269
1269, 1269, 1293, 1294, 1270
1270, 1270, 1294, 1295, 1271
1271, 1271, 1295, 1296, 1272
1272, 1272, 1296, 1273, 1249
1273, 1273, 1297, 1298, 1274
1274, 1274, 1298, 1299, 1275
1275, 1275, 1299, 1300, 1276
1276, 1276, 1300, 1301, 1277
1277, 1277, 1301, 1302, 1278
1278, 1278, 1302, 1303, 1279
1279, 1279, 1303, 1304, 1280
1280, 1280, 1304, 1305, 1281
1281, 1281, 1305, 1306, 1282
1282, 1282, 1306, 1307, 1283
1283, 1283, 1307, 1308, 1284
1284, 1284, 1308, 1309, 1285
1285, 1285, 1309, 1310, 1286
1286, 1286, 1310, 1311, 1287
1287, 1287, 1311, 1312, 1288
1288, 1288, 1312, 1313, 1289
1289, 1289, 1313, 1314, 1290
1290, 1290, 1314, 1315, 1291
1291, 1291, 1315, 1316, 1292
1292, 1292, 1316, 1317, 1293
1293, 1293, 1317, 1318, 1294
1294, 1294, 1318, 1319, 1295
1295, 1295, 1319, 1320, 1296
1296, 1296, 1320, 1297, 1273
1297, 1297, 1321, 1322, 1298
1298, 1298, 1322, 1323, 1299
1299, 1299, 1323, 1324, 1300
1300, 1300, 1324, 1325, 1301
1301, 1301, 1325, 1326, 1302
1302, 1302, 1326, 1327, 1303
1303, 1303, 1327, 1328, 1304
1304, 1304, 1328, 1329, 1305
1305, 1305, 1329, 1330, 1306
1306, 1306, 1330, 1331, 1307
1307, 1307, 1331, 1332, 1308
1308, 1308, 1332, 1333, 1309
1309, 1309, 1333, 1334, 1310
1310, 1310, 1334, 1335, 1311
1311, 1311, 1335, 1336, 1312
1312, 1312, 1336, 1337, 1313
1313, 1313, 1337, 1338, 1314
1314, 1314, 1338, 1339, 1315
1315, 1315, 1339, 1340, 1316
1316, 1316, 1340, 1341, 1317
1317, 1317, 1341, 1342, 1318
1318, 1318, 1342, 1343, 1319
1319, 1319, 1343, 1344, 1320
1320, 1320, 1344, 1321, 1297
1321, 1321, 1345, 1346, 1322
1322, 1322, 1346, 1347, 1323
1323, 1323, 1347, 1348, 1324
1324, 1324, 1348, 1349, 1325
1325, 1325, 1349, 1350, 1326
1326, 1326, 1350, 1351, 1327
1327, 1327, 1351, 1352, 1328
1328, 1328, 1352, 1353, 1329
1329, 1329, 1353, 1354, 1330
1330, 1330, 1354, 1355, 1331
1331, 1331, 1355, 1356, 1332
1332, 1332, 1356, 1357, 1333
1333, 1333, 1357, 1358, 1334
1334, 1334, 1358, 1359, 1335
1335, 1335, 1359, 1360, 1336
1336, 1336, 1360, 1361, 1337
1337, 1337, 1361, 1362, 1338
1338, 1338, 1362, 1363, 1339
1339, 1339, 1363, 1364, 1340
1340, 1340, 1364, 1365, 1341
1341, 1341, 1365, 1366, 1342
1342, 1342, 1366, 1367, 1343
1343, 1343, 1367, 1368, 1344
1344, 1344, 1368, 1345, 1321
1345, 1345, 1369, 1370, 1346
1346, 1346, 1370, 1371, 1347
1347, 1347, 1371, 1372, 1348
1348, 1348, 1372, 1373, 1349
1349, 1349, 1373, 1374, 1350
1350, 1350, 1374, 1375, 1351
1351, 1351, 1375, 1376, 1352
1352, 1352, 1376, 1377, 1353
1353, 1353, 1377, 1378, 1354
1354, 1354, 1378, 1379, 1355
1355, 1355, 1379, 1380, 1356
1356, 1356, 1380, 1381, 1357
1357, 1357, 1381, 1382, 1358
1358, 1358, 1382, 1383, 1359
1359, 1359, 1383, 1384, 1360
1360, 1360, 1384, 1385, 1361
1361, 1361, 1385, 1386, 1362
1362, 1362, 1386, 1387, 1363
1363, 1363, 1387, 1388, 1364
1364, 1364, 1388, 1389, 1365
1365, 1365, 1389, 1390, 1366
1366, 1366, 1390, 1391, 1367
1367, 1367, 1391, 1392, 1368
1368, 1368, 1392, 1369, 1345
1369, 1369, 1393, 1394, 1370
1370, 1370, 1394, 1395, 1371
1371, 1371, 1395, 1396, 1372
1372, 1372, 1396, 1397, 1373
1373, 1373, 1397, 1398, 1374
1374, 1374, 1398, 1399, 1375
1375, 1375, 1399, 1400, 1376
1376, 1376, 1400, 1401, 1377
1377, 1377, 1401, 1402, 1378
1378, 1378, 1402, 1403, 1379
1379, 1379, 1403, 1404, 1380
1380, 1380, 1404, 1405, 1381
1381, 1381, 1405, 1406, 1382
1382, 1382, 1406, 1407, 1383
1383, 1383, 1407, 1408, 1384
1384, 1384, 1408, 1409, 1385
1385, 1385, 1409, 1410, 1386
1386, 1386, 1410, 1411, 1387
1387, 1387, 1411, 1412, 1388
1388, 1388, 1412, 1413, 1389
1389, 1389, 1413, 1414, 1390
1390, 1390, 1414, 1415, 1391
1391, 1391, 1415, 1416, 1392
1392, 1392, 1416, 1393, 1369
1393, 1393, 1417, 1418, 1394
1394, 1394, 1418, 1419, 1395
1395, 1395, 1419, 1420, 1396
1396, 1396, 1420, 1421, 1397
1397, 1397, 1421, 1422, 1398
1398, 1398, 1422, 1423, 1399
1399, 1399, 1423, 1424, 1400
1400, 1400, 1424, 1425, 1401
1401, 1401, 1425, 1426, 1402
1402, 1402, 1426, 1427, 1403
1403, 1403, 1427, 1428, 1404
1404, 1404, 1428, 1429, 1405
1405, 1405, 1429, 1430, 1406
1406, 1406, 1430, 1431, 1407
1407, 1407, 1431, 1432, 1408
1408, 1408, 1432, 1433, 1409
1409, 1409, 1433, 1434, 1410
1410, 1410, 1434, 1435, 1411
1411, 1411, 1435, 1436, 1412
1412, 1412, 1436, 1437, 1413
1413, 1413, 1437, 1438, 1414
1414, 1414, 1438, 1439, 1415
1415, 1415, 1439, 1440, 1416
1416, 1416, 1440, 1417, 1393
1417, 1417, 1441, 1442, 1418
1418, 1418, 1442, 1443, 1419
1419, 1419, 1443, 1444, 1420
1420, 1420, 1444, 1445, 1421
1421, 1421, 1445, 1446, 1422
1422, 1422, 1446, 1447, 1423
1423, 1423, 1447, 1448, 1424
1424, 1424, 1448, 1449, 1425
1425, 1425, 1449, 1450, 1426
1426, 1426, 1450, 1451, 1427
1427, 1427, 1451, 1452, 1428
1428, 1428, 1452, 1453, 1429
1429, 1429, 1453, 1454, 1430
1430, 1430, 1454, 1455, 1431
1431, 1431, 1455, 1456, 1432
1432, 1432, 1456, 1457, 1433
1433, 1433, 1457, 1458, 1434
1434, 1434, 1458, 1459, 1435
1435, 1435, 1459, 1460, 1436
1436, 1436, 1460, 1461, 1437
1437, 1437, 1461, 1462, 1438
1438, 1438, 1462, 1463, 1439
1439, 1439, 1463, 1464, 1440
1440, 1440, 1464, 1441, 1417
1441, 1441, 1465, 1466, 1442
1442, 1442, 1466, 1467, 1443
1443, 1443, 1467, 1468, 1444
1444, 1444, 1468, 1469, 1445
1445, 1445, 1469, 1470, 1446
1446, 1446, 1470, 1471, 1447
1447, 1447, 1471, 1472, 1448
1448, 1448, 1472, 1473, 1449
1449, 1449, 1473, 1474, 1450
1450, 1450, 1474, 1475, 1451
1451, 1451, 1475, 1476, 1452
1452, 1452, 1476, 1477, 1453
1453, 1453, 1477, 1478, 1454
1454, 1454, 1478, 1479, 1455
1455, 1455, 1479, 1480, 1456
1456, 1456, 1480, 1481, 1457
1457, 1457, 1481, 1482, 1458
1458, 1458, 1482, 1483, 1459
1459, 1459, 1483, 1484, 1460
1460, 1460, 1484, 1485, 1461
1461, 1461, 1485, 1486, 1462
1462, 1462, 1486, 1487, 1463
1463, 1463, 1487, 1488, 1464
1464, 1464, 1488, 1465, 1441
1465, 1465, 1489, 1490, 1466
1466, 1466, 1490, 1491, 1467
1467, 1467, 1491, 1492, 1468
1468, 1468, 1492, 1493, 1469
1469, 1469, 1493, 1494, 1470
1470, 1470, 1494, 1495, 1471
1471, 1471, 1495, 1496, 1472
1472, 1472, 1496, 1497, 1473
1473, 1473, 1497, 1498, 1474
1474, 1474, 1498, 1499, 1475
1475, 1475, 1499, 1500, 1476
1476, 1476, 1500, 1501, 1477
1477, 1477, 1501, 1502, 1478
1478, 1478, 1502, 1503, 1479
1479, 1479, 1503, 1504, 1480
1480, 1480, 1504, 1505, 1481
1481, 1481, 1505, 1506, 1482
1482, 1482, 1506, 1507, 1483
1483, 1483, 1507, 1508, 1484
1484, 1484, 1508, 1509, 1485
1485, 1485, 1509, 1510, 1486
1486, 1486, 1510, 1511, 1487
1487, 1487, 1511, 1512, 1488
1488, 1488, 1512, 1489, 1465
1489, 1489, 1513, 1514, 1490
1490, 1490, 1514, 1515, 1491
1491, 1491, 1515, 1516, 1492
1492, 1492, 1516, 1517, 1493
1493, 1493, 1517, 1518, 1494
1494, 1494, 1518, 1519, 1495
1495, 1495, 1519, 1520, 1496
1496, 1496, 1520, 1521, 1497
1497, 1497, 1521, 1522, 1498
1498, 1498, 1522, 1523, 1499
1499, 1499, 1523, 1524, 1500
1500, 1500, 1524, 1525, 1501
1501, 1501, 1525, 1526, 1502
1502, 1502, 1526, 1527, 1503
1503, 1503, 1527, 1528, 1504
1504, 1504, 1528, 1529, 1505
1505, 1505, 1529, 1530, 1506
1506, 1506, 1530, 1531, 1507
1507, 1507, 1531, 1532, 1508
1508, 1508, 1532, 1533, 1509
1509, 1509, 1533, 1534, 1510
1510, 1510, 1534, 1535, 1511
1511, 1511, 1535, 1536, 1512
1512, 1512, 1536, 1513, 1489
1513, 1513, 1537, 1538, 1514
1514, 1514, 1538, 1539, 1515
1515, 1515, 1539, 1540, 1516
1516, 1516, 1540, 1541, 1517
1517, 1517, 1541, 1542, 1518
1518, 1518, 1542, 1543, 1519
1519, 1519, 1543, 1544, 1520
1520, 1520, 1544, 1545, 1521
1521, 1521, 1545, 1546, 1522
1522, 1522, 1546, 1547, 1523
1523, 1523, 1547, 1548, 1524
1524, 1524, 1548, 1549, 1525
1525, 1525, 1549, 1550, 1526
1526, 1526, 1550, 1551, 1527
1527, 1527, 1551, 1552, 1528
1528, 1528, 1552, 1553, 1529
1529, 1529, 1553, 1554, 1530
1530, 1530, 1554, 1555, 1531
1531, 1531, 1555, 1556, 1532
1532, 1532, 1556, 1557, 1533
1533, 1533, 1557, 1558, 1534
1534, 1534, 1558, 1559, 1535
1535, 1535, 1559, 1560, 1536
1536, 1536, 1560, 1537, 1513
1537, 1537, 1561, 1562, 1538
1538, 1538, 1562, 1563, 1539
1539, 1539, 1563, 1564, 1540
1540, 1540, 1564, 1565, 1541
1541, 1541, 1565, 1566, 1542
1542, 1542, 1566, 1567, 1543
1543, 1543, 1567, 1568, 1544
1544, 1544, 1568, 1569, 1545
1545, 1545, 1569, 1570, 1546
1546, 1546, 1570, 1571, 1547
1547, 1547, 1571, 1572, 1548
1548, 1548, 1572, 1573, 1549
1549, 1549, 1573, 1574, 1550
1550, 1550, 1574, 1575, 1551
1551, 1551, 1575, 1576, 1552
1552, 1552, 1576, 1577, 1553
1553, 1553, 1577, 1578, 1554
1554, 1554, 1578, 1579, 1555
1555, 1555, 1579, 1580, 1556
1556, 1556, 1580, 1581, 1557
1557, 1557, 1581, 1582, 1558
1558, 1558, 1582, 1583, 1559
1559, 1559, 1583, 1584, 1560
1560, 1560, 1584, 1561, 1537
1561, 1561, 1585, 1586, 1562
1562, 1562, 1586, 1587, 1563
1563, 1563, 1587, 1588, 1564
1564, 1564, 1588, 1589, 1565
1565, 1565, 1589, 1590, 1566
1566, 1566, 1590, 1591, 1567
1567, 1567, 1591, 1592, 1568
1568, 1568, 1592, 1593, 1569
1569, 1569, 1593, 1594, 1570
1570, 1570, 1594, 1595, 1571
1571, 1571, 1595, 1596, 1572
1572, 1572, 1596, 1597, 1573
1573, 1573, 1597, 1598, 1574
1574, 1574, 1598, 1599, 1575
1575, 1575, 1599, 1600, 1576
1576, 1576, 1600, 1601, 1577
1577, 1577, 1601, 1602, 1578
1578, 1578, 1602, 1603, 1579
1579, 1579, 1603, 1604, 1580
1580, 1580, 1604, 1605, 1581
1581, 1581, 1605, 1606, 1582
1582, 1582, 1606, 1607, 1583
1583, 1583, 1607, 1608, 1584
1584, 1584, 1608, 1585, 1561
1585, 1585, 1609, 1610, 1586
1586, 1586, 1610, 1611, 1587
1587, 1587, 1611, 1612, 1588
1588, 1588, 1612, 1613, 1589
1589, 1589, 1613, 1614, 1590
1590, 1590, 1614, 1615, 1591
1591, 1591, 1615, 1616, 1592
1592, 1592, 1616, 1617, 1593
1593, 1593, 1617, 1618, 1594
1594, 1594, 1618, 1619, 1595
1595, 1595, 1619, 1620, 1596
1596, 1596, 1620, 1621, 1597
1597, 1597, 1621, 1622, 1598
1598, 1598, 1622, 1623, 1599
1599, 1599, 1623, 1624, 1600
1600, 1600, 1624, 1625, 1601
1601, 1601, 1625, 1626, 1602
1602, 1602, 1626, 1627, 1603
1603, 1603, 1627, 1628, 1604
1604, 1604, 1628, 1629, 1605
1605, 1605, 1629, 1630, 1606
1606, 1606, 1630, 1631, 1607
1607, 1607, 1631, 1632, 1608
1608, 1608, 1632, 1609, 1585
1609, 1609, 1633, 1634, 1610
1610, 1610, 1634, 1635, 1611
1611, 1611, 1635, 1636, 1612
1612, 1612, 1636, 1637, 1613
1613, 1613, 1637, 1638, 1614
1614, 1614, 1638, 1639, 1615
1615, 1615, 1639, 1640, 1616
1616, 1616, 1640, 1641, 1617
1617, 1617, 1641, 1642, 1618
1618, 1618, 1642, 1643, 1619
1619, 1619, 1643, 1644, 1620
1620, 1620, 1644, 1645, 1621
1621, 1621, 1645, 1646, 1622
1622, 1622, 1646, 1647, 1623
1623, 1623, 1647, 1648, 1624
1624, 1624, 1648, 1649, 1625
1625, 1625, 1649, 1650, 1626
1626, 1626, 1650, 1651, 1627
1627, 1627, 1651, 1652, 1628
1628, 1628, 1652, 1653, 1629
1629, 1629, 1653, 1654, 1630
1630, 1630, 1654, 1655, 1631
1631, 1631, 1655, 1656, 1632
1632, 1632, 1656, 1633, 1609
1633, 1633, 1657, 1658, 1634
1634, 1634, 1658, 1659, 1635
1635, 1635, 1659, 1660, 1636
1636, 1636, 1660, 1661, 1637
1637, 1637, 1661, 1662, 1638
1638, 1638, 1662, 1663, 1639
1639, 1639, 1663, 1664, 1640
1640, 1640, 1664, 1665, 1641
1641, 1641, 1665, 1666, 1642
1642, 1642, 1666, 1667, 1643
1643, 1643, 1667, 1668, 1644
1644, 1644, 1668, 1669, 1645
1645, 1645, 1669, 1670, 1646
1646, 1646, 1670, 1671, 1647
1647, 1647, 1671, 1672, 1648
1648, 1648, 1672, 1673, 1649
1649, 1649, 1673, 1674, 1650
1650, 1650, 1674, 1675, 1651
1651, 1651, 1675, 1676, 1652
1652, 1652, 1676, 1677, 1653
1653, 1653, 1677, 1678, 1654
1654, 1654, 1678, 1679, 1655
1655, 1655, 1679, 1680, 1656
1656, 1656, 1680, 1657, 1633
1657, 1657, 1681, 1682, 1658
1658, 1658, 1682, 1683, 1659
1659, 1659, 1683, 1684, 1660
1660, 1660, 1684, 1685, 1661
1661, 1661, 1685, 1686, 1662
1662, 1662, 1686, 1687, 1663
1663, 1663, 1687, 1688, 1664
1664, 1664, 1688, 1689, 1665
1665, 1665, 1689, 1690, 1666
1666, 1666, 1690, 1691, 1667
1667, 1667, 1691, 1692, 1668
1668, 1668, 1692, 1693, 1669
1669, 1669, 1693, 1694, 1670
1670, 1670, 1694, 1695, 1671
1671, 1671, 1695, 1696, 1672
1672, 1672, 1696, 1697, 1673
1673, 1673, 1697, 1698, 1674
1674, 1674, 1698, 1699, 1675
1675, 1675, 1699, 1700, 1676
1676, 1676, 1700, 1701, 1677
1677, 1677, 1701, 1702, 1678
1678, 1678, 1702, 1703, 1679
1679, 1679, 1703, 1704, 1680
1680, 1680, 1704, 1681, 1657
1681, 1681, 1705, 1706, 1682
1682, 1682, 1706, 1707, 1683
1683, 1683, 1707, 1708, 1684
1684, 1684, 1708, 1709, 1685
1685, 1685, 1709, 1710, 1686
1686, 1686, 1710, 1711, 1687
1687, 1687, 1711, 1712, 1688
1688, 1688, 1712, 1713, 1689
1689, 1689, 1713, 1714, 1690
1690, 1690, 1714, 1715, 1691
1691, 1691, 1715, 1716, 1692
1692, 1692, 1716, 1717, 1693
1693, 1693, 1717, 1718, 1694
1694, 1694, 1718, 1719, 1695
1695, 1695, 1719, 1720, 1696
1696, 1696, 1720, 1721, 1697
1697, 1697, 1721, 1722, 1698
1698, 1698, 1722, 1723, 1699
1699, 1699, 1723, 1724, 1700
1700, 1700, 1724, 1725, 1701
1701, 1701, 1725, 1726, 1702
1702, 1702, 1726, 1727, 1703
1703, 1703, 1727, 1728, 1704
1704, 1704, 1728, 1705, 1681
1705, 1705, 1729, 1730, 1706
1706, 1706, 1730, 1731, 1707
1707, 1707, 1731, 1732, 1708
1708, 1708, 1732, 1733, 1709
1709, 1709, 1733, 1734, 1710
1710, 1710, 1734, 1735, 1711
1711, 1711, 1735, 1736, 1712
1712, 1712, 1736, 1737, 1713
1713, 1713, 1737, 1738, 1714
1714, 1714, 1738, 1739, 1715
1715, 1715, 1739, 1740, 1716
1716, 1716, 1740, 1741, 1717
1717, 1717, 1741, 1742, 1718
1718, 1718, 1742, 1743, 1719
1719, 1719, 1743, 1744, 1720
1720, 1720, 1744, 1745, 1721
1721, 1721, 1745, 1746, 1722
1722, 1722, 1746, 1747, 1723
1723, 1723, 1747, 1748, 1724
1724, 1724, 1748, 1749, 1725
1725, 1725, 1749, 1750, 1726
1726, 1726, 1750, 1751, 1727
1727, 1727, 1751, 1752, 1728
1728, 1728, 1752, 1729, 1705
1729, 1729, 1753, 1754, 1730
1730, 1730, 1754, 1755, 1731
1731, 1731, 1755, 1756, 1732
1732, 1732, 1756, 1757, 1733
1733, 1733, 1757, 1758, 1734
1734, 1734, 1758, 1759, 1735
1735, 1735, 1759, 1760, 1736
1736, 1736, 1760, 1761, 1737
1737, 1737, 1761, 1762, 1738
1738, 1738, 1762, 1763, 1739
1739, 1739, 1763, 1764, 1740
1740, 1740, 1764, 1765, 1741
1741, 1741, 1765, 1766, 1742
1742, 1742, 1766, 1767, 1743
1743, 1743, 1767, 1768, 1744
1744, 1744, 1768, 1769, 1745
1745, 1745, 1769, 1770, 1746
1746, 1746, 1770, 1771, 1747
1747, 1747, 1771, 1772, 1748
1748, 1748, 1772, 1773, 1749
1749, 1749, 1773, 1774, 1750
1750, 1750, 1774, 1775, 1751
1751, 1751, 1775, 1776, 1752
1752, 1752, 1776, 1753, 1729
1753, 1753, 1777, 1778, 1754
1754, 1754, 1778, 1779, 1755
1755, 1755, 1779, 1780, 1756
1756, 1756, 1780, 1781, 1757
1757, 1757, 1781, 1782, 1758
1758, 1758, 1782, 1783, 1759
1759, 1759, 1783, 1784, 1760
1760, 1760, 1784, 1785, 1761
1761, 1761, 1785, 1786, 1762
1762, 1762, 1786, 1787, 1763
1763, 1763, 1787, 1788, 1764
1764, 1764, 1788, 1789, 1765
1765, 1765, 1789, 1790, 1766
1766, 1766, 1790, 1791, 1767
1767, 1767, 1791, 1792, 1768
1768, 1768, 1792, 1793, 1769
1769, 1769, 1793, 1794, 1770
1770, 1770, 1794, 1795, 1771
1771, 1771, 1795, 1796, 1772
1772, 1772, 1796, 1797, 1773
1773, 1773, 1797, 1798, 1774
1774, 1774, 1798, 1799, 1775
1775, 1775, 1799, 1800, 1776
1776, 1776, 1800, 1777, 1753
1777, 1777, 1801, 1802, 1778
1778, 1778, 1802, 1803, 1779
1779, 1779, 1803, 1804, 1780
1780, 1780, 1804, 1805, 1781
1781, 1781, 1805, 1806, 1782
1782, 1782, 1806, 1807, 1783
1783, 1783, 1807, 1808, 1784
1784, 1784, 1808, 1809, 1785
1785, 1785, 1809, 1810, 1786
1786, 1786, 1810, 1811, 1787
1787, 1787, 1811, 1812, 1788
1788, 1788, 1812, 1813, 1789
1789, 1789, 1813, 1814, 1790
1790, 1790, 1814, 1815, 1791
1791, 1791, 1815, 1816, 1792
1792, 1792, 1816, 1817, 1793
1793, 1793, 1817, 1818, 1794
1794, 1794, 1818, 1819, 1795
1795, 1795, 1819, 1820, 1796
1796, 1796, 1820, 1821, 1797
1797, 1797, 1821, 1822, 1798
1798, 1798, 1822, 1823, 1799
1799, 1799, 1823, 1824, 1800
1800, 1800, 1824, 1801, 1777
1801, 1801, 1825, 1826, 1802
1802, 1802, 1826, 1827, 1803
1803, 1803, 1827, 1828, 1804
1804, 1804, 1828, 1829, 1805
1805, 1805, 1829, 1830, 1806
1806, 1806, 1830, 1831, 1807
1807, 1807, 1831, 1832, 1808
1808, 1808, 1832, 1833, 1809
1809, 1809, 1833, 1834, 1810
1810, 1810, 1834, 1835, 1811
1811, 1811, 1835, 1836, 1812
1812, 1812, 1836, 1837, 1813
1813, 1813, 1837, 1838, 1814
1814, 1814, 1838, 1839, 1815
1815, 1815, 1839, 1840, 1816
1816, 1816, 1840, 1841, 1817
1817, 1817, 1841, 1842, 1818
1818, 1818, 1842, 1843, 1819
1819, 1819, 1843, 1844, 1820
1820, 1820, 1844, 1845, 1821
1821, 1821, 1845, 1846, 1822
1822, 1822, 1846, 1847, 1823
1823, 1823, 1847, 1848, 1824
1824, 1824, 1848, 1825, 1801
1825, 1825, 1849, 1850, 1826
1826, 1826, 1850, 1851, 1827
1827, 1827, 1851, 1852, 1828
1828, 1828, 1852, 1853, 1829
1829, 1829, 1853, 1854, 1830
1830, 1830, 1854, 1855, 1831
1831, 1831, 1855, 1856, 1832
1832, 1832, 1856, 1857, 1833
1833, 1833, 1857, 1858, 1834
1834, 1834, 1858, 1859, 1835
1835, 1835, 1859, 1860, 1836
1836, 1836, 1860, 1861, 1837
1837, 1837, 1861, 1862, 1838
1838, 1838, 1862, 1863, 1839
1839, 1839, 1863, 1864, 1840
1840, 1840, 1864, 1865, 1841
1841, 1841, 1865, 1866, 1842
1842, 1842, 1866, 1867, 1843
1843, 1843, 1867, 1868, 1844
1844, 1844, 1868, 1869, 1845
1845, 1845, 1869, 1870, 1846
1846, 1846, 1870, 1871, 1847
1847, 1847, 1871, 1872, 1848
1848, 1848, 1872, 1849, 1825
1849, 1849, 1873, 1874, 1850
1850, 1850, 1874, 1875, 1851
1851, 1851, 1875, 1876, 1852
1852, 1852, 1876, 1877, 1853
1853, 1853, 1877, 1878, 1854
1854, 1854, 1878, 1879, 1855
1855, 1855, 1879, 1880, 1856
1856, 1856, 1880, 1881, 1857
1857, 1857, 1881, 1882, 1858
1858, 1858, 1882, 1883, 1859
1859, 1859, 1883, 1884, 1860
1860, 1860, 1884, 1885, 1861
1861, 1861, 1885, 1886, 1862
1862, 1862, 1886, 1887, 1863
1863, 1863, 1887, 1888, 1864
1864, 1864, 1888, 1889, 1865
1865, 1865, 1889, 1890, 1866
1866, 1866, 1890, 1891, 1867
1867, 1867, 1891, 1892, 1868
1868, 1868, 1892, 1893, 1869
1869, 1869, 1893, 1894, 1870
1870, 1870, 1894, 1895, 1871
1871, 1871, 1895, 1896, 1872
1872, 1872, 1896, 1873, 1849
1873, 1873, 1897, 1898, 1874
1874, 1874, 1898, 1899, 1875
1875, 1875, 1899, 1900, 1876
1876, 1876, 1900, 1901, 1877
1877, 1877, 1901, 1902, 1878
1878, 1878, 1902, 1903, 1879
1879, 1879, 1903, 1904, 1880
1880, 1880, 1904, 1905, 1881
1881, 1881, 1905, 1906, 1882
1882, 1882, 1906, 1907, 1883
1883, 1883, 1907, 1908, 1884
1884, 1884, 1908, 1909, 1885
1885, 1885, 1909, 1910, 1886
1886, 1886, 1910, 1911, 1887
1887, 1887, 1911, 1912, 1888
1888, 1888, 1912, 1913, 1889
1889, 1889, 1913, 1914, 1890
1890, 1890, 1914, 1915, 1891
1891, 1891, 1915, 1916, 1892
1892, 1892, 1916, 1917, 1893
1893, 1893, 1917, 1918, 1894
1894, 1894, 1918, 1919, 1895
1895, 1895, 1919, 1920, 1896
1896, 1896, 1920, 1897, 1873
1897, 1897, 1921, 1922, 1898
1898, 1898, 1922, 1923, 1899
1899, 1899, 1923, 1924, 1900
1900, 1900, 1924, 1925, 1901
1901, 1901, 1925, 1926, 1902
1902, 1902, 1926, 1927, 1903
1903, 1903, 1927, 1928, 1904
1904, 1904, 1928, 1929, 1905
1905, 1905, 1929, 1930, 1906
1906, 1906, 1930, 1931, 1907
1907, 1907, 1931, 1932, 1908
1908, 1908, 1932, 1933, 1909
1909, 1909, 1933, 1934, 1910
1910, 1910, 1934, 1935, 1911
1911, 1911, 1935, 1936, 1912
1912, 1912, 1936, 1937, 1913
1913, 1913, 1937, 1938, 1914
1914, 1914, 1938, 1939, 1915
1915, 1915, 1939, 1940, 1916
1916, 1916, 1940, 1941, 1917
1917, 1917, 1941, 1942, 1918
1918, 1918, 1942, 1943, 1919
1919, 1919, 1943, 1944, 1920
1920, 1920, 1944, 1921, 1897
1921, 1921, 1945, 1946, 1922
1922, 1922, 1946, 1947, 1923
1923, 1923, 1947, 1948, 1924
1924, 1924, 1948, 1949, 1925
1925, 1925, 1949, 1950, 1926
1926, 1926, 1950, 1951, 1927
1927, 1927, 1951, 1952, 1928
1928, 1928, 1952, 1953, 1929
1929, 1929, 1953, 1954, 1930
1930, 1930, 1954, 1955, 1931
1931, 1931, 1955, 1956, 1932
1932, 1932, 1956, 1957, 1933
1933, 1933, 1957, 1958, 1934
1934, 1934, 1958, 1959, 1935
1935, 1935, 1959, 1960, 1936
1936, 1936, 1960, 1961, 1937
1937, 1937, 1961, 1962, 1938
1938, 1938, 1962, 1963, 1939
1939, 1939, 1963, 1964, 1940
1940, 1940, 1964, 1965, 1941
1941, 1941, 1965, 1966, 1942
1942, 1942, 1966, 1967, 1943
1943, 1943, 1967, 1968, 1944
1944, 1944, 1968, 1945, 1921
1945, 1945, 1969, 1970, 1946
1946, 1946, 1970, 1971, 1947
1947, 1947, 1971, 1972, 1948
1948, 1948, 1972, 1973, 1949
1949, 1949, 1973, 1974, 1950
1950, 1950, 1974, 1975, 1951
1951, 1951, 1975, 1976, 1952
1952, 1952, 1976, 1977, 1953
1953, 1953, 1977, 1978, 1954
1954, 1954, 1978, 1979, 1955
1955, 1955, 1979, 1980, 1956
1956, 1956, 1980, 1981, 1957
1957, 1957, 1981, 1982, 1958
1958, 1958, 1982, 1983, 1959
1959, 1959, 1983, 1984, 1960
1960, 1960, 1984, 1985, 1961
1961, 1961, 1985, 1986, 1962
1962, 1962, 1986, 1987, 1963
1963, 1963, 1987, 1988, 1964
1964, 1964, 1988, 1989, 1965
1965, 1965, 1989, 1990, 1966
1966, 1966, 1990, 1991, 1967
1967, 1967, 1991, 1992, 1968
1968, 1968, 1992, 1969, 1945
1969, 1969, 1993, 1994, 1970
1970, 1970, 1994, 1995, 1971
1971, 1971, 1995, 1996, 1972
1972, 1972, 1996, 1997, 1973
1973, 1973, 1997, 1998, 1974
1974, 1974, 1998, 1999, 1975
1975, 1975, 1999, 2000, 1976
1976, 1976, 2000, 2001, 1977
1977, 1977, 2001, 2002, 1978
1978, 1978, 2002, 2003, 1979
1979, 1979, 2003, 2004, 1980
1980, 1980, 2004, 2005, 1981
1981, 1981, 2005, 2006, 1982
1982, 1982, 2006, 2007, 1983
1983, 1983, 2007, 2008, 1984
1984, 1984, 2008, 2009, 1985
1985, 1985, 2009, 2010, 1986
1986, 1986, 2010, 2011, 1987
1987, 1987, 2011, 2012, 1988
1988, 1988, 2012, 2013, 1989
1989, 1989, 2013, 2014, 1990
1990, 1990, 2014, 2015, 1991
1991, 1991, 2015, 2016, 1992
1992, 1992, 2016, 1993, 1969
1993, 1993, 2017, 2018, 1994
1994, 1994, 2018, 2019, 1995
1995, 1995, 2019, 2020, 1996
1996, 1996, 2020, 2021, 1997
1997, 1997, 2021, 2022, 1998
1998, 1998, 2022, 2023, 1999
1999, 1999, 2023, 2024, 2000
2000, 2000, 2024, 2025, 2001
2001, 2001, 2025, 2026, 2002
2002, 2002, 2026, 2027, 2003
2003, 2003, 2027, 2028, 2004
2004, 2004, 2028, 2029, 2005
2005, 2005, 2029, 2030, 2006
2006, 2006, 2030, 2031, 2007
2007, 2007, 2031, 2032, 2008
2008, 2008, 2032, 2033, 2009
2009, 2009, 2033, 2034, 2010
2010, 2010, 2034, 2035, 2011
2011, 2011, 2035, 2036, 2012
2012, 2012, 2036, 2037, 2013
2013, 2013, 2037, 2038, 2014
2014, 2014, 2038, 2039, 2015
2015, 2015, 2039, 2040, 2016
2016, 2016, 2040, 2017, 1993
2017, 2017, 2041, 2042, 2018
2018, 2018, 2042, 2043, 2019
2019, 2019, 2043, 2044, 2020
2020, 2020, 2044, 2045, 2021
2021, 2021, 2045, 2046, 2022
2022, 2022, 2046, 2047, 2023
2023, 2023, 2047, 2048, 2024
2024, 2024, 2048, 2049, 2025
2025, 2025, 2049, 2050, 2026
2026, 2026, 2050, 2051, 2027
2027, 2027, 2051, 2052, 2028
2028, 2028, 2052, 2053, 2029
2029, 2029, 2053, 2054, 2030
2030, 2030, 2054, 2055, 2031
2031, 2031, 2055, 2056, 2032
2032, 2032, 2056, 2057, 2033
2033, 2033, 2057, 2058, 2034
2034, 2034, 2058, 2059, 2035
2035, 2035, 2059, 2060, 2036
2036, 2036, 2060, 2061, 2037
2037, 2037, 2061, 2062, 2038
2038, 2038, 2062, 2063, 2039
2039, 2039, 2063, 2064, 2040
2040, 2040, 2064, 2041, 2017
2041, 2041, 2065, 2066, 2042
2042, 2042, 2066, 2067, 2043
2043, 2043, 2067, 2068, 2044
2044, 2044, 2068, 2069, 2045
2045, 2045, 2069, 2070, 2046
2046, 2046, 2070, 2071, 2047
2047, 2047, 2071, 2072, 2048
2048, 2048, 2072, 2073, 2049
2049, 2049, 2073, 2074, 2050
2050, 2050, 2074, 2075, 2051
2051, 2051, 2075, 2076, 2052
2052, 2052, 2076, 2077, 2053
2053, 2053, 2077, 2078, 2054
2054, 2054, 2078, 2079, 2055
2055, 2055, 2079, 2080, 2056
2056, 2056, 2080, 2081, 2057
2057, 2057, 2081, 2082, 2058
2058, 2058, 2082, 2083, 2059
2059, 2059, 2083, 2084, 2060
2060, 2060, 2084, 2085, 2061
2061, 2061, 2085, 2086, 2062
2062, 2062, 2086, 2087, 2063
2063, 2063, 2087, 2088, 2064
2064, 2064, 2088, 2065, 2041
2065, 2065, 2089, 2090, 2066
2066, 2066, 2090, 2091, 2067
2067, 2067, 2091, 2092, 2068
2068, 2068, 2092, 2093, 2069
2069, 2069, 2093, 2094, 2070
2070, 2070, 2094, 2095, 2071
2071, 2071, 2095, 2096, 2072
2072, 2072, 2096, 2097, 2073
2073, 2073, 2097, 2098, 2074
2074, 2074, 2098, 2099, 2075
2075, 2075, 2099, 2100, 2076
2076, 2076, 2100, 2101, 2077
2077, 2077, 2101, 2102, 2078
2078, 2078, 2102, 2103, 2079
2079, 2079, 2103, 2104, 2080
2080, 2080, 2104, 2105, 2081
2081, 2081, 2105, 2106, 2082
2082, 2082, 2106, 2107, 2083
2083, 2083, 2107, 2108, 2084
2084, 2084, 2108, 2109, 2085
2085, 2085, 2109, 2110, 2086
2086, 2086, 2110, 2111, 2087
2087, 2087, 2111, 2112, 2088
2088, 2088, 2112, 2089, 2065
2089, 2089, 2113, 2114, 2090
2090, 2090, 2114, 2115, 2091
2091, 2091, 2115, 2116, 2092
2092, 2092, 2116, 2117, 2093
2093, 2093, 2117, 2118, 2094
2094, 2094, 2118, 2119, 2095
2095, 2095, 2119, 2120, 2096
2096, 2096, 2120, 2121, 2097
2097, 2097, 2121, 2122, 2098
2098, 2098, 2122, 2123, 2099
2099, 2099, 2123, 2124, 2100
2100, 2100, 2124, 2125, 2101
2101, 2101, 2125, 2126, 2102
2102, 2102, 2126, 2127, 2103
2103, 2103, 2127, 2128, 2104
2104, 2104, 2128, 2129, 2105
2105, 2105, 2129, 2130, 2106
2106, 2106, 2130, 2131, 2107
2107, 2107, 2131, 2132, 2108
2108, 2108, 2132, 2133, 2109
2109, 2109, 2133, 2134, 2110
2110, 2110, 2134, 2135, 2111
2111, 2111, 2135, 2136, 2112
2112, 2112, 2136, 2113, 2089
2113, 2113, 2137, 2138, 2114
2114, 2114, 2138, 2139, 2115
2115, 2115, 2139, 2140, 2116
2116, 2116, 2140, 2141, 2117
2117, 2117, 2141, 2142, 2118
2118, 2118, 2142, 2143, 2119
2119, 2119, 2143, 2144, 2120
2120, 2120, 2144, 2145, 2121
2121, 2121, 2145, 2146, 2122
2122, 2122, 2146, 2147, 2123
2123, 2123, 2147, 2148, 2124
2124, 2124, 2148, 2149, 2125
2125, 2125, 2149, 2150, 2126
2126, 2126, 2150, 2151, 2127
2127, 2127, 2151, 2152, 2128
2128, 2128, 2152, 2153, 2129
2129, 2129, 2153, 2154, 2130
2130, 2130, 2154, 2155, 2131
2131, 2131, 2155, 2156, 2132
2132, 2132, 2156, 2157, 2133
2133, 2133, 2157, 2158, 2134
2134, 2134, 2158, 2159, 2135
2135, 2135, 2159, 2160, 2136
2136, 2136, 2160, 2137, 2113
2137, 2137, 2161, 2162, 2138
2138, 2138, 2162, 2163, 2139
2139, 2139, 2163, 2164, 2140
2140, 2140, 2164, 2165, 2141
2141, 2141, 2165, 2166, 2142
2142, 2142, 2166, 2167, 2143
2143, 2143, 2167, 2168, 2144
2144, 2144, 2168, 2169, 2145
2145, 2145, 2169, 2170, 2146
2146, 2146, 2170, 2171, 2147
2147, 2147, 2171, 2172, 2148
2148, 2148, 2172, 2173, 2149
2149, 2149, 2173, 2174, 2150
2150, 2150, 2174, 2175, 2151
2151, 2151, 2175, 2176, 2152
2152, 2152, 2176, 2177, 2153
2153, 2153, 2177, 2178, 2154
2154, 2154, 2178, 2179, 2155
2155, 2155, 2179, 2180, 2156
2156, 2156, 2180, 2181, 2157
2157, 2157, 2181, 2182, 2158
2158, 2158, 2182, 2183, 2159
2159, 2159, 2183, 2184, 2160
2160, 2160, 2184, 2161, 2137
2161, 2161, 2185, 2186, 2162
2162, 2162, 2186, 2187, 2163
2163, 2163, 2187, 2188, 2164
2164, 2164, 2188, 2189, 2165
2165, 2165, 2189, 2190, 2166
2166, 2166, 2190, 2191, 2167
2167, 2167, 2191, 2192, 2168
2168, 2168, 2192, 2193, 2169
2169, 2169, 2193, 2194, 2170
2170, 2170, 2194, 2195, 2171
2171, 2171, 2195, 2196, 2172
2172, 2172, 2196, 2197, 2173
2173, 2173, 2197, 2198, 2174
2174, 2174, 2198, 2199, 2175
2175, 2175, 2199, 2200, 2176
2176, 2176, 2200, 2201, 2177
2177, 2177, 2201, 2202, 2178
2178, 2178, 2202, 2203, 2179
2179, 2179, 2203, 2204, 2180
2180, 2180, 2204, 2205, 2181
2181, 2181, 2205, 2206, 2182
2182, 2182, 2206, 2207, 2183
2183, 2183, 2207, 2208, 2184
2184, 2184, 2208, 2185, 2161
2185, 2185, 2209, 2210, 2186
2186, 2186, 2210, 2211, 2187
2187, 2187, 2211, 2212, 2188
2188, 2188, 2212, 2213, 2189
2189, 2189, 2213, 2214, 2190
2190, 2190, 2214, 2215, 2191
2191, 2191, 2215, 2216, 2192
2192, 2192, 2216, 2217, 2193
2193, 2193, 2217, 2218, 2194
2194, 2194, 2218, 2219, 2195
2195, 2195, 2219, 2220, 2196
2196, 2196, 2220, 2221, 2197
2197, 2197, 2221, 2222, 2198
2198, 2198, 2222, 2223, 2199
2199, 2199, 2223, 2224, 2200
2200, 2200, 2224, 2225, 2201
2201, 2201, 2225, 2226, 2202
2202, 2202, 2226, 2227, 2203
2203, 2203, 2227, 2228, 2204
2204, 2204, 2228, 2229, 2205
2205, 2205, 2229, 2230, 2206
2206, 2206, 2230, 2231, 2207
2207, 2207, 2231, 2232, 2208
2208, 2208, 2232, 2209, 2185
2209, 2209, 2233, 2234, 2210
2210, 2210, 2234, 2235, 2211
2211, 2211, 2235, 2236, 2212
2212, 2212, 2236, 2237, 2213
2213, 2213, 2237, 2238, 2214
2214, 2214, 2238, 2239, 2215
2215, 2215, 2239, 2240, 2216
2216, 2216, 2240, 2241, 2217
2217, 2217, 2241, 2242, 2218
2218, 2218, 2242, 2243, 2219
2219, 2219, 2243, 2244, 2220
2220, 2220, 2244, 2245, 2221
2221, 2221, 2245, 2246, 2222
2222, 2222, 2246, 2247, 2223
2223, 2223, 2247, 2248, 2224
2224, 2224, 2248, 2249, 2225
2225, 2225, 2249, 2250, 2226
2226, 2226, 2250, 2251, 2227
2227, 2227, 2251, 2252, 2228
2228, 2228, 2252, 2253, 2229
2229, 2229, 2253, 2254, 2230
2230, 2230, 2254, 2255, 2231
2231, 2231, 2255, 2256, 2232
2232, 2232, 2256, 2233, 2209
2233, 2233, 2257, 2258, 2234
2234, 2234, 2258, 2259, 2235
2235, 2235, 2259, 2260, 2236
2236, 2236, 2260, 2261, 2237
2237, 2237, 2261, 2262, 2238
2238, 2238, 2262, 2263, 2239
2239, 2239, 2263, 2264, 2240
2240, 2240, 2264, 2265, 2241
2241, 2241, 2265, 2266, 2242
2242, 2242, 2266, 2267, 2243
2243, 2243, 2267, 2268, 2244
2244, 2244, 2268, 2269, 2245
2245, 2245, 2269, 2270, 2246
2246, 2246, 2270, 2271, 2247
2247, 2247, 2271, 2272, 2248
2248, 2248, 2272, 2273, 2249
2249, 2249, 2273, 2274, 2250
2250, 2250, 2274, 2275, 2251
2251, 2251, 2275, 2276, 2252
2252, 2252, 2276, 2277, 2253
2253, 2253, 2277, 2278, 2254
2254, 2254, 2278, 2279, 2255
2255, 2255, 2279, 2280, 2256
2256, 2256, 2280, 2257, 2233
2257, 2257, 2281, 2282, 2258
2258, 2258, 2282, 2283, 2259
2259, 2259, 2283, 2284, 2260
2260, 2260, 2284, 2285, 2261
2261, 2261, 2285, 2286, 2262
2262, 2262, 2286, 2287, 2263
2263, 2263, 2287, 2288, 2264
2264, 2264, 2288, 2289, 2265
2265, 2265, 2289, 2290, 2266
2266, 2266, 2290, 2291, 2267
2267, 2267, 2291, 2292, 2268
2268, 2268, 2292, 2293, 2269
2269, 2269, 2293, 2294, 2270
2270, 2270, 2294, 2295, 2271
2271, 2271, 2295, 2296, 2272
2272, 2272, 2296, 2297, 2273
2273, 2273, 2297, 2298, 2274
2274, 2274, 2298, 2299, 2275
2275, 2275, 2299, 2300, 2276
2276, 2276, 2300, 2301, 2277
2277, 2277, 2301, 2302, 2278
2278, 2278, 2302, 2303, 2279
2279, 2279, 2303, 2304, 2280
2280, 2280, 2304, 2281, 2257
2281, 2281, 2305, 2306, 2282
2282, 2282, 2306, 2307, 2283
2283, 2283, 2307, 2308, 2284
2284, 2284, 2308, 2309, 2285
2285, 2285, 2309, 2310, 2286
2286, 2286, 2310, 2311, 2287
2287, 2287, 2311, 2312, 2288
2288, 2288, 2312, 2313, 2289
2289, 2289, 2313, 2314, 2290
2290, 2290, 2314, 2315, 2291
2291, 2291, 2315, 2316, 2292
2292, 2292, 2316, 2317, 2293
2293, 2293, 2317, 2318, 2294
2294, 2294, 2318, 2319, 2295
2295, 2295, 2319, 2320, 2296
2296, 2296, 2320, 2321, 2297
2297, 2297, 2321, 2322, 2298
2298, 2298, 2322, 2323, 2299
2299, 2299, 2323, 2324, 2300
2300, 2300, 2324, 2325, 2301
2301, 2301, 2325, 2326, 2302
2302, 2302, 2326, 2327, 2303
2303, 2303, 2327, 2328, 2304
2304, 2304, 2328, 2305, 2281
2305, 2305, 2329, 2330, 2306
2306, 2306, 2330, 2331, 2307
2307, 2307, 2331, 2332, 2308
2308, 2308, 2332, 2333, 2309
2309, 2309, 2333, 2334, 2310
2310, 2310, 2334, 2335, 2311
2311, 2311, 2335, 2336, 2312
2312, 2312, 2336, 2337, 2313
2313, 2313, 2337, 2338, 2314
2314, 2314, 2338, 2339, 2315
2315, 2315, 2339, 2340, 2316
2316, 2316, 2340, 2341, 2317
2317, 2317, 2341, 2342, 2318
2318, 2318, 2342, 2343, 2319
2319, 2319, 2343, 2344, 2320
2320, 2320, 2344, 2345, 2321
2321, 2321, 2345, 2346, 2322
2322, 2322, 2346, 2347, 2323
2323, 2323, 2347, 2348, 2324
2324, 2324, 2348, 2349, 2325
2325, 2325, 2349, 2350, 2326
2326, 2326, 2350, 2351, 2327
2327, 2327, 2351, 2352, 2328
2328, 2328, 2352, 2329, 2305
2329, 2329, 2353, 2354, 2330
2330, 2330, 2354, 2355, 2331
2331, 2331, 2355, 2356, 2332
2332, 2332, 2356, 2357, 2333
2333, 2333, 2357, 2358, 2334
2334, 2334, 2358, 2359, 2335
2335, 2335, 2359, 2360, 2336
2336, 2336, 2360, 2361, 2337
2337, 2337, 2361, 2362, 2338
2338, 2338, 2362, 2363, 2339
2339, 2339, 2363, 2364, 2340
2340, 2340, 2364, 2365, 2341
2341, 2341, 2365, 2366, 2342
2342, 2342, 2366, 2367, 2343
2343, 2343, 2367, 2368, 2344
2344, 2344, 2368, 2369, 2345
2345, 2345, 2369, 2370, 2346
2346, 2346, 2370, 2371, 2347
2347, 2347, 2371, 2372, 2348
2348, 2348, 2372, 2373, 2349
2349, 2349, 2373, 2374, 2350
2350, 2350, 2374, 2375, 2351
2351, 2351, 2375, 2376, 2352
2352, 2352, 2376, 2353, 2329
2353, 2353, 2377, 2378, 2354
2354, 2354, 2378, 2379, 2355
2355, 2355, 2379, 2380, 2356
2356, 2356, 2380, 2381, 2357
2357, 2357, 2381, 2382, 2358
2358, 2358, 2382, 2383, 2359
2359, 2359, 2383, 2384, 2360
2360, 2360, 2384, 2385, 2361
2361, 2361, 2385, 2386, 2362
2362, 2362, 2386, 2387, 2363
2363, 2363, 2387, 2388, 2364
2364, 2364, 2388, 2389, 2365
2365, 2365, 2389, 2390, 2366
2366, 2366, 2390, 2391, 2367
2367, 2367, 2391, 2392, 2368
2368, 2368, 2392, 2393, 2369
2369, 2369, 2393, 2394, 2370
2370, 2370, 2394, 2395, 2371
2371, 2371, 2395, 2396, 2372
2372, 2372, 2396, 2397, 2373
2373, 2373, 2397, 2398, 2374
2374, 2374, 2398, 2399, 2375
2375, 2375, 2399, 2400, 2376
2376, 2376, 2400, 2377, 2353
2377, 2377, 2401, 2402, 2378
2378, 2378, 2402, 2403, 2379
2379, 2379, 2403, 2404, 2380
2380, 2380, 2404, 2405, 2381
2381, 2381, 2405, 2406, 2382
2382, 2382, 2406, 2407, 2383
2383, 2383, 2407, 2408, 2384
2384, 2384, 2408, 2409, 2385
2385, 2385, 2409, 2410, 2386
2386, 2386, 2410, 2411, 2387
2387, 2387, 2411, 2412, 2388
2388, 2388, 2412, 2413, 2389
2389, 2389, 2413, 2414, 2390
2390, 2390, 2414, 2415, 2391
2391, 2391, 2415, 2416, 2392
2392, 2392, 2416, 2417, 2393
2393, 2393, 2417, 2418, 2394
2394, 2394, 2418, 2419, 2395
2395, 2395, 2419, 2420, 2396
2396, 2396, 2420, 2421, 2397
2397, 2397, 2421, 2422, 2398
2398, 2398, 2422, 2423, 2399
2399, 2399, 2423, 2424, 2400
2400, 2400, 2424, 2401, 2377
2401, 2401, 2425, 2426, 2402
2402, 2402, 2426, 2427, 2403
2403, 2403, 2427, 2428, 2404
2404, 2404, 2428, 2429, 2405
2405, 2405, 2429, 2430, 2406
2406, 2406, 2430, 2431, 2407
2407, 2407, 2431, 2432, 2408
2408, 2408, 2432, 2433, 2409
2409, 2409, 2433, 2434, 2410
2410, 2410, 2434, 2435, 2411
2411, 2411, 2435, 2436, 2412
2412, 2412, 2436, 2437, 2413
2413, 2413, 2437, 2438, 2414
2414, 2414, 2438, 2439, 2415
2415, 2415, 2439, 2440, 2416
2416, 2416, 2440, 2441, 2417
2417, 2417, 2441, 2442, 2418
2418, 2418, 2442, 2443, 2419
2419, 2419, 2443, 2444, 2420
2420, 2420, 2444, 2445, 2421
2421, 2421, 2445, 2446, 2422
2422, 2422, 2446, 2447, 2423
2423, 2423, 2447, 2448, 2424
2424, 2424, 2448, 2425, 2401
2425, 2425, 2449, 2450, 2426
2426, 2426, 2450, 2451, 2427
2427, 2427, 2451, 2452, 2428
2428, 2428, 2452, 2453, 2429
2429, 2429, 2453, 2454, 2430
2430, 2430, 2454, 2455, 2431
2431, 2431, 2455, 2456, 2432
2432, 2432, 2456, 2457, 2433
2433, 2433, 2457, 2458, 2434
2434, 2434, 2458, 2459, 2435
2435, 2435, 2459, 2460, 2436
2436, 2436, 2460, 2461, 2437
2437, 2437, 2461, 2462, 2438
2438, 2438, 2462, 2463, 2439
2439, 2439, 2463, 2464, 2440
2440, 2440, 2464, 2465, 2441
2441, 2441, 2465, 2466, 2442
2442, 2442, 2466, 2467, 2443
2443, 2443, 2467, 2468, 2444
2444, 2444, 2468, 2469, 2445
2445, 2445, 2469, 2470, 2446
2446, 2446, 2470, 2471, 2447
2447, 2447, 2471, 2472, 2448
2448, 2448, 2472, 2449, 2425
2449, 2449, 2473, 2474, 2450
2450, 2450, 2474, 2475, 2451
2451, 2451, 2475, 2476, 2452
2452, 2452, 2476, 2477, 2453
2453, 2453, 2477, 2478, 2454
2454, 2454, 2478, 2479, 2455
2455, 2455, 2479, 2480, 2456
2456, 2456, 2480, 2481, 2457
2457, 2457, 2481, 2482, 2458
2458, 2458, 2482, 2483, 2459
2459, 2459, 2483, 2484, 2460
2460, 2460, 2484, 2485, 2461
2461, 2461, 2485, 2486, 2462
2462, 2462, 2486, 2487, 2463
2463, 2463, 2487, 2488, 2464
2464, 2464, 2488, 2489, 2465
2465, 2465, 2489, 2490, 2466
2466, 2466, 2490, 2491, 2467
2467, 2467, 2491, 2492, 2468
2468, 2468, 2492, 2493, 2469
2469, 2469, 2493, 2494, 2470
2470, 2470, 2494, 2495, 2471
2471, 2471, 2495, 2496, 2472
2472, 2472, 2496, 2473, 2449
2473, 2473, 2497, 2498, 2474
2474, 2474, 2498, 2499, 2475
2475, 2475, 2499, 2500, 2476
2476, 2476, 2500, 2501, 2477
2477, 2477, 2501, 2502, 2478
2478, 2478, 2502, 2503, 2479
2479, 2479, 2503, 2504, 2480
2480, 2480, 2504, 2505, 2481
2481, 2481, 2505, 2506, 2482
2482, 2482, 2506, 2507, 2483
2483, 2483, 2507, 2508, 2484
2484, 2484, 2508, 2509, 2485
2485, 2485, 2509, 2510, 2486
2486, 2486, 2510, 2511, 2487
2487, 2487, 2511, 2512, 2488
2488, 2488, 2512, 2513, 2489
2489, 2489, 2513, 2514, 2490
2490, 2490, 2514, 2515, 2491
2491, 2491, 2515, 2516, 2492
2492, 2492, 2516, 2517, 2493
2493, 2493, 2517, 2518, 2494
2494, 2494, 2518, 2519, 2495
2495, 2495, 2519, 2520, 2496
2496, 2496, 2520, 2497, 2473
2497, 2497, 2521, 2522, 2498
2498, 2498, 2522, 2523, 2499
2499, 2499, 2523, 2524, 2500
2500, 2500, 2524, 2525, 2501
2501, 2501, 2525, 2526, 2502
2502, 2502, 2526, 2527, 2503
2503, 2503, 2527, 2528, 2504
2504, 2504, 2528, 2529, 2505
2505, 2505, 2529, 2530, 2506
2506, 2506, 2530, 2531, 2507
2507, 2507, 2531, 2532, 2508
2508, 2508, 2532, 2533, 2509
2509, 2509, 2533, 2534, 2510
2510, 2510, 2534, 2535, 2511
2511, 2511, 2535, 2536, 2512
2512, 2512, 2536, 2537, 2513
2513, 2513, 2537, 2538, 2514
2514, 2514, 2538, 2539, 2515
2515, 2515, 2539, 2540, 2516
2516, 2516, 2540, 2541, 2517
2517, 2517, 2541, 2542, 2518
2518, 2518, 2542, 2543, 2519
2519, 2519, 2543, 2544, 2520
2520, 2520, 2544, 2521, 2497
2521, 2521, 2545, 2546, 2522
2522, 2522, 2546, 2547, 2523
2523, 2523, 2547, 2548, 2524
2524, 2524, 2548, 2549, 2525
2525, 2525, 2549, 2550, 2526
2526, 2526, 2550, 2551, 2527
2527, 2527, 2551, 2552, 2528
2528, 2528, 2552, 2553, 2529
2529, 2529, 2553, 2554, 2530
2530, 2530, 2554, 2555, 2531
2531, 2531, 2555, 2556, 2532
2532, 2532, 2556, 2557, 2533
2533, 2533, 2557, 2558, 2534
2534, 2534, 2558, 2559, 2535
2535, 2535, 2559, 2560, 2536
2536, 2536, 2560, 2561, 2537
2537, 2537, 2561, 2562, 2538
2538, 2538, 2562, 2563, 2539
2539, 2539, 2563, 2564, 2540
2540, 2540, 2564, 2565, 2541
2541, 2541, 2565, 2566, 2542
2542, 2542, 2566, 2567, 2543
2543, 2543, 2567, 2568, 2544
2544, 2544, 2568, 2545, 2521
2545, 2545, 2569, 2570, 2546
2546, 2546, 2570, 2571, 2547
2547, 2547, 2571, 2572, 2548
2548, 2548, 2572, 2573, 2549
2549, 2549, 2573, 2574, 2550
2550, 2550, 2574, 2575, 2551
2551, 2551, 2575, 2576, 2552
2552, 2552, 2576, 2577, 2553
2553, 2553, 2577, 2578, 2554
2554, 2554, 2578, 2579, 2555
2555, 2555, 2579, 2580, 2556
2556, 2556, 2580, 2581, 2557
2557, 2557, 2581, 2582, 2558
2558, 2558, 2582, 2583, 2559
2559, 2559, 2583, 2584, 2560
2560, 2560, 2584, 2585, 2561
2561, 2561, 2585, 2586, 2562
2562, 2562, 2586, 2587, 2563
2563, 2563, 2587, 2588, 2564
2564, 2564, 2588, 2589, 2565
2565, 2565, 2589, 2590, 2566
2566, 2566, 2590, 2591, 2567
2567, 2567, 2591, 2592, 2568
2568, 2568, 2592, 2569, 2545
2569, 2569, 2593, 2594, 2570
2570, 2570, 2594, 2595, 2571
2571, 2571, 2595, 2596, 2572
2572, 2572, 2596, 2597, 2573
2573, 2573, 2597, 2598, 2574
2574, 2574, 2598, 2599, 2575
2575, 2575, 2599, 2600, 2576
2576, 2576, 2600, 2601, 2577
2577, 2577, 2601, 2602, 2578
2578, 2578, 2602, 2603, 2579
2579, 2579, 2603, 2604, 2580
2580, 2580, 2604, 2605, 2581
2581, 2581, 2605, 2606, 2582
2582, 2582, 2606, 2607, 2583
2583, 2583, 2607, 2608, 2584
2584, 2584, 2608, 2609, 2585
2585, 2585, 2609, 2610, 2586
2586, 2586, 2610, 2611, 2587
2587, 2587, 2611, 2612, 2588
2588, 2588, 2612, 2613, 2589
2589, 2589, 2613, 2614, 2590
2590, 2590, 2614, 2615, 2591
2591, 2591, 2615, 2616, 2592
2592, 2592, 2616, 2593, 2569
2593, 2593, 2617, 2618, 2594
2594, 2594, 2618, 2619, 2595
2595, 2595, 2619, 2620, 2596
2596, 2596, 2620, 2621, 2597
2597, 2597, 2621, 2622, 2598
2598, 2598, 2622, 2623, 2599
2599, 2599, 2623, 2624, 2600
2600, 2600, 2624, 2625, 2601
2601, 2601, 2625, 2626, 2602
2602, 2602, 2626, 2627, 2603
2603, 2603, 2627, 2628, 2604
2604, 2604, 2628, 2629, 2605
2605, 2605, 2629, 2630, 2606
2606, 2606, 2630, 2631, 2607
2607, 2607, 2631, 2632, 2608
2608, 2608, 2632, 2633, 2609
2609, 2609, 2633, 2634, 2610
2610, 2610, 2634, 2635, 2611
2611, 2611, 2635, 2636, 2612
2612, 2612, 2636, 2637, 2613
2613, 2613, 2637, 2638, 2614
2614, 2614, 2638, 2639, 2615
2615, 2615, 2639, 2640, 2616
2616, 2616, 2640, 2617, 2593
2617, 2617, 2641, 2642, 2618
2618, 2618, 2642, 2643, 2619
2619, 2619, 2643, 2644, 2620
2620, 2620, 2644, 2645, 2621
2621, 2621, 2645, 2646, 2622
2622, 2622, 2646, 2647, 2623
2623, 2623, 2647, 2648, 2624
2624, 2624, 2648, 2649, 2625
2625, 2625, 2649, 2650, 2626
2626, 2626, 2650, 2651, 2627
2627, 2627, 2651, 2652, 2628
2628, 2628, 2652, 2653, 2629
2629, 2629, 2653, 2654, 2630
2630, 2630, 2654, 2655, 2631
2631, 2631, 2655, 2656, 2632
2632, 2632, 2656, 2657, 2633
2633, 2633, 2657, 2658, 2634
2634, 2634, 2658, 2659, 2635
2635, 2635, 2659, 2660, 2636
2636, 2636, 2660, 2661, 2637
2637, 2637, 2661, 2662, 2638
2638, 2638, 2662, 2663, 2639
2639, 2639, 2663, 2664, 2640
2640, 2640, 2664, 2641, 2617
2641, 2641, 2665, 2666, 2642
2642, 2642, 2666, 2667, 2643
2643, 2643, 2667, 2668, 2644
2644, 2644, 2668, 2669, 2645
2645, 2645, 2669, 2670, 2646
2646, 2646, 2670, 2671, 2647
2647, 2647, 2671, 2672, 2648
2648, 2648, 2672, 2673, 2649
2649, 2649, 2673, 2674, 2650
2650, 2650, 2674, 2675, 2651
2651, 2651, 2675, 2676, 2652
2652, 2652, 2676, 2677, 2653
2653, 2653, 2677, 2678, 2654
2654, 2654, 2678, 2679, 2655
2655, 2655, 2679, 2680, 2656
2656, 2656, 2680, 2681, 2657
2657, 2657, 2681, 2682, 2658
2658, 2658, 2682, 2683, 2659
2659, 2659, 2683, 2684, 2660
2660, 2660, 2684, 2685, 2661
2661, 2661, 2685, 2686, 2662
2662, 2662, 2686, 2687, 2663
2663, 2663, 2687, 2688, 2664
2664, 2664, 2688, 2665, 2641
2665, 2665, 2689, 2690, 2666
2666, 2666, 2690, 2691, 2667
2667, 2667, 2691, 2692, 2668
2668, 2668, 2692, 2693, 2669
2669, 2669, 2693, 2694, 2670
2670, 2670, 2694, 2695, 2671
2671, 2671, 2695, 2696, 2672
2672, 2672, 2696, 2697, 2673
2673, 2673, 2697, 2698, 2674
2674, 2674, 2698, 2699, 2675
2675, 2675, 2699, 2700, 2676
2676, 2676, 2700, 2701, 2677
2677, 2677, 2701, 2702, 2678
2678, 2678, 2702, 2703, 2679
2679, 2679, 2703, 2704, 2680
2680, 2680, 2704, 2705, 2681
2681, 2681, 2705, 2706, 2682
2682, 2682, 2706, 2707, 2683
2683, 2683, 2707, 2708, 2684
2684, 2684, 2708, 2709, 2685
2685, 2685, 2709, 2710, 2686
2686, 2686, 2710, 2711, 2687
2687, 2687, 2711, 2712, 2688
2688, 2688, 2712, 2689, 2665
2689, 2689, 2713, 2714, 2690
2690, 2690, 2714, 2715, 2691
2691, 2691, 2715, 2716, 2692
2692, 2692, 2716, 2717, 2693
2693, 2693, 2717, 2718, 2694
2694, 2694, 2718, 2719, 2695
2695, 2695, 2719, 2720, 2696
2696, 2696, 2720, 2721, 2697
2697, 2697, 2721, 2722, 2698
2698, 2698, 2722, 2723, 2699
2699, 2699, 2723, 2724, 2700
2700, 2700, 2724, 2725, 2701
2701, 2701, 2725, 2726, 2702
2702, 2702, 2726, 2727, 2703
2703, 2703, 2727, 2728, 2704
2704, 2704, 2728, 2729, 2705
2705, 2705, 2729, 2730, 2706
2706, 2706, 2730, 2731, 2707
2707, 2707, 2731, 2732, 2708
2708, 2708, 2732, 2733, 2709
2709, 2709, 2733, 2734, 2710
2710, 2710, 2734, 2735, 2711
2711, 2711, 2735, 2736, 2712
2712, 2712, 2736, 2713, 2689
2713, 2713, 2737, 2738, 2714
2714, 2714, 2738, 2739, 2715
2715, 2715, 2739, 2740, 2716
2716, 2716, 2740, 2741, 2717
2717, 2717, 2741, 2742, 2718
2718, 2718, 2742, 2743, 2719
2719, 2719, 2743, 2744, 2720
2720, 2720, 2744, 2745, 2721
2721, 2721, 2745, 2746, 2722
2722, 2722, 2746, 2747, 2723
2723, 2723, 2747, 2748, 2724
2724, 2724, 2748, 2749, 2725
2725, 2725, 2749, 2750, 2726
2726, 2726, 2750, 2751, 2727
2727, 2727, 2751, 2752, 2728
2728, 2728, 2752, 2753, 2729
2729, 2729, 2753, 2754, 2730
2730, 2730, 2754, 2755, 2731
2731, 2731, 2755, 2756, 2732
2732, 2732, 2756, 2757, 2733
2733, 2733, 2757, 2758, 2734
2734, 2734, 2758, 2759, 2735
2735, 2735, 2759, 2760, 2736
2736, 2736, 2760, 2737, 2713
2737, 2737, 2761, 2762, 2738
2738, 2738, 2762, 2763, 2739
2739, 2739, 2763, 2764, 2740
2740, 2740, 2764, 2765, 2741
2741, 2741, 2765, 2766, 2742
2742, 2742, 2766, 2767, 2743
2743, 2743, 2767, 2768, 2744
2744, 2744, 2768, 2769, 2745
2745, 2745, 2769, 2770, 2746
2746, 2746, 2770, 2771, 2747
2747, 2747, 2771, 2772, 2748
2748, 2748, 2772, 2773, 2749
2749, 2749, 2773, 2774, 2750
2750, 2750, 2774, 2775, 2751
2751, 2751, 2775, 2776, 2752
2752, 2752, 2776, 2777, 2753
2753, 2753, 2777, 2778, 2754
2754, 2754, 2778, 2779, 2755
2755, 2755, 2779, 2780, 2756
2756, 2756, 2780, 2781, 2757
2757, 2757, 2781, 2782, 2758
2758, 2758, 2782, 2783, 2759
2759, 2759, 2783, 2784, 2760
2760, 2760, 2784, 2761, 2737
2761, 2761, 2785, 2786, 2762
2762, 2762, 2786, 2787, 2763
2763, 2763, 2787, 2788, 2764
2764, 2764, 2788, 2789, 2765
2765, 2765, 2789, 2790, 2766
2766, 2766, 2790, 2791, 2767
2767, 2767, 2791, 2792, 2768
2768, 2768, 2792, 2793, 2769
2769, 2769, 2793, 2794, 2770
2770, 2770, 2794, 2795, 2771
2771, 2771, 2795, 2796, 2772
2772, 2772, 2796, 2797, 2773
2773, 2773, 2797, 2798, 2774
2774, 2774, 2798, 2799, 2775
2775, 2775, 2799, 2800, 2776
2776, 2776, 2800, 2801, 2777
2777, 2777, 2801, 2802, 2778
2778, 2778, 2802, 2803, 2779
2779, 2779, 2803, 2804, 2780
2780, 2780, 2804, 2805, 2781
2781, 2781, 2805, 2806, 2782
2782, 2782, 2806, 2807, 2783
2783, 2783, 2807, 2808, 2784
2784, 2784, 2808, 2785, 2761
2785, 2785, 2809, 2810, 2786
2786, 2786, 2810, 2811, 2787
2787, 2787, 2811, 2812, 2788
2788, 2788, 2812, 2813, 2789
2789, 2789, 2813, 2814, 2790
2790, 2790, 2814, 2815, 2791
2791, 2791, 2815, 2816, 2792
2792, 2792, 2816, 2817, 2793
2793, 2793, 2817, 2818, 2794
2794, 2794, 2818, 2819, 2795
2795, 2795, 2819, 2820, 2796
2796, 2796, 2820, 2821, 2797
2797, 2797, 2821, 2822, 2798
2798, 2798, 2822, 2823, 2799
2799, 2799, 2823, 2824, 2800
2800, 2800, 2824, 2825, 2801
2801, 2801, 2825, 2826, 2802
2802, 2802, 2826, 2827, 2803
2803, 2803, 2827, 2828, 2804
2804, 2804, 2828, 2829, 2805
2805, 2805, 2829, 2830, 2806
2806, 2806, 2830, 2831, 2807
2807, 2807, 2831, 2832, 2808
2808, 2808, 2832, 2809, 2785
2809, 2809, 2833, 2834, 2810
2810, 2810, 2834, 2835, 2811
2811, 2811, 2835, 2836, 2812
2812, 2812, 2836, 2837, 2813
2813, 2813, 2837, 2838, 2814
2814, 2814, 2838, 2839, 2815
2815, 2815, 2839, 2840, 2816
2816, 2816, 2840, 2841, 2817
2817, 2817, 2841, 2842, 2818
2818, 2818, 2842, 2843, 2819
2819, 2819, 2843, 2844, 2820
2820, 2820, 2844, 2845, 2821
2821, 2821, 2845, 2846, 2822
2822, 2822, 2846, 2847, 2823
2823, 2823, 2847, 2848, 2824
2824, 2824, 2848, 2849, 2825
2825, 2825, 2849, 2850, 2826
2826, 2826, 2850, 2851, 2827
2827, 2827, 2851, 2852, 2828
2828, 2828, 2852, 2853, 2829
2829, 2829, 2853, 2854, 2830
2830, 2830, 2854, 2855, 2831
2831, 2831, 2855, 2856, 2832
2832, 2832, 2856, 2833, 2809
2833, 2833, 2857, 2858, 2834
2834, 2834, 2858, 2859, 2835
2835, 2835, 2859, 2860, 2836
2836, 2836, 2860, 2861, 2837
2837, 2837, 2861, 2862, 2838
2838, 2838, 2862, 2863, 2839
2839, 2839, 2863, 2864, 2840
2840, 2840, 2864, 2865, 2841
2841, 2841, 2865, 2866, 2842
2842, 2842, 2866, 2867, 2843
2843, 2843, 2867, 2868, 2844
2844, 2844, 2868, 2869, 2845
2845, 2845, 2869, 2870, 2846
2846, 2846, 2870, 2871, 2847
2847, 2847, 2871, 2872, 2848
2848, 2848, 2872, 2873, 2849
2849, 2849, 2873, 2874, 2850
2850, 2850, 2874, 2875, 2851
2851, 2851, 2875, 2876, 2852
2852, 2852, 2876, 2877, 2853
2853, 2853, 2877, 2878, 2854
2854, 2854, 2878, 2879, 2855
2855, 2855, 2879, 2880, 2856
2856, 2856, 2880, 2857, 2833
2857, 2857, 2881, 2882, 2858
2858, 2858, 2882, 2883, 2859
2859, 2859, 2883, 2884, 2860
2860, 2860, 2884, 2885, 2861
2861, 2861, 2885, 2886, 2862
2862, 2862, 2886, 2887, 2863
2863, 2863, 2887, 2888, 2864
2864, 2864, 2888, 2889, 2865
2865, 2865, 2889, 2890, 2866
2866, 2866, 2890, 2891, 2867
2867, 2867, 2891, 2892, 2868
2868, 2868, 2892, 2893, 2869
2869, 2869, 2893, 2894, 2870
2870, 2870, 2894, 2895, 2871
2871, 2871, 2895, 2896, 2872
2872, 2872, 2896, 2897, 2873
2873, 2873, 2897, 2898, 2874
2874, 2874, 2898, 2899, 2875
2875, 2875, 2899, 2900, 2876
2876, 2876, 2900, 2901, 2877
2877, 2877, 2901, 2902, 2878
2878, 2878, 2902, 2903, 2879
2879, 2879, 2903, 2904, 2880
2880, 2880, 2904, 2881, 2857
*Elset, elset=PIPE_WALL_HELPER_ALL, generate
1, 2880, 1
*Surface, type=ELEMENT, name=PIPE_WALL_HELPER_SURF
PIPE_WALL_HELPER_ALL, SPOS
*End Part
** Robot-only terminal stop; not included in CEL material contact
*Part, name=Pipe_TERMINAL_STOP
*Node
       1, -17.8120422, -16.0254612, -1.98043847
       2, -18.0087299, -16.4204502, -1.75030053
       3, -18.288311, -16.5256882, -2.16986728
       4, -18.0916214, -16.1306992, -2.40000534
       5, -18.3395977, -16.7643833, -2.62337637
       6, -18.1429081, -16.3693943, -2.85351443
       7, -18.1488495, -17.0725784, -2.9893105
       8, -17.9521599, -16.6775894, -3.21944857
       9, -17.7671776, -17.367691, -3.16961789
      10, -17.570488, -16.972702, -3.39975595
      11, -17.6153526, -15.6304722, -2.21057653
      12, -17.8949337, -15.7357101, -2.63014317
      13, -17.9462204, -15.9744062, -3.08365226
      14, -17.7554722, -16.2826004, -3.44958639
      15, -17.3737984, -16.577713, -3.62989378
      16, -17.4186649, -15.2354832, -2.44071436
      17, -17.6982441, -15.3407211, -2.86028123
      18, -17.7495308, -15.5794172, -3.31379032
      19, -17.5587826, -15.8876114, -3.67972445
      20, -17.1771107, -16.182724, -3.86003184
      21, -17.2219753, -14.8404942, -2.67085242
      22, -17.5015564, -14.9457321, -3.09041905
      23, -17.5528431, -15.1844282, -3.54392815
      24, -17.3620949, -15.4926224, -3.90986228
      25, -16.9804211, -15.787735, -4.09016991
      26, -17.0252876, -14.4455051, -2.90099025
      27, -17.3048668, -14.5507431, -3.32055712
      28, -17.3561535, -14.7894392, -3.77406621
      29, -17.1654053, -15.0976334, -4.14000034
      30, -16.7837334, -15.392746, -4.32030773
      31, -16.828598, -14.0505161, -3.13112831
      32, -17.1081791, -14.1557541, -3.55069494
      33, -17.1594658, -14.3944502, -4.00420427
      34, -16.9687176, -14.7026443, -4.37013817
      35, -16.5870438, -14.997757, -4.55044556
      36, -16.6319103, -13.6555271, -3.36126614
      37, -16.9114895, -13.7607651, -3.78083301
      38, -16.9627762, -13.9994612, -4.2343421
      39, -16.772028, -14.3076553, -4.60027599
      40, -16.3903561, -14.6027679, -4.78058338
      41, -16.4352207, -13.2605381, -3.5914042
      42, -16.7148018, -13.3657761, -4.01097107
      43, -16.7660885, -13.6044722, -4.46447992
      44, -16.5753403, -13.9126663, -4.8304143
      45, -16.1936665, -14.2077789, -5.01072168
      46, -16.238533, -12.8655491, -3.82154202
      47, -16.5181122, -12.970787, -4.24110889
      48, -16.5693989, -13.2094831, -4.69461775
      49, -16.3786507, -13.5176773, -5.06055212
      50, -15.9969788, -13.8127899, -5.24085951
      51, -16.0418434, -12.4705601, -4.05168009
      52, -16.3214245, -12.575798, -4.47124672
      53, -16.3727112, -12.8144941, -4.92475605
      54, -16.181963, -13.1226883, -5.29068995
      55, -15.8002901, -13.4178009, -5.47099733
      56, -15.8451548, -12.0755711, -4.28181791
      57, -16.1247349, -12.180809, -4.70138454
      58, -16.1760216, -12.4195051, -5.15489388
      59, -15.9852734, -12.7276993, -5.52082777
      60, -15.6036015, -13.0228119, -5.70113516
      61, -15.6484661, -11.680582, -4.51195574
      62, -15.9280462, -11.78582, -4.93152285
      63, -15.9793329, -12.0245161, -5.3850317
      64, -15.7885847, -12.3327103, -5.75096607
      65, -15.4069118, -12.6278229, -5.93127346
      66, -15.4517775, -11.285593, -4.74209404
      67, -15.7313576, -11.390831, -5.16166067
      68, -15.7826443, -11.6295271, -5.61516953
      69, -15.5918961, -11.9377213, -5.9811039
      70, -15.2102232, -12.2328339, -6.16141129
      71, -15.2550888, -10.890604, -4.97223186
      72, -15.5346689, -10.995842, -5.3917985
      73, -15.5859556, -11.2345381, -5.84530783
      74, -15.3952074, -11.5427322, -6.21124172
      75, -15.0135345, -11.8378448, -6.39154911
      76, -15.0584002, -10.495615, -5.20236969
      77, -15.3379803, -10.600853, -5.62193632
      78, -15.389267, -10.8395491, -6.07544565
      79, -15.1985188, -11.1477432, -6.44137955
      80, -14.8168459, -11.4428558, -6.62168694
      81, -15.1412916, -10.205864, -5.85207462
      82, -15.1925783, -10.4445601, -6.30558348
      83, -15.0018301, -10.7527542, -6.67151785
      84, -14.6201572, -11.0478668, -6.85182524
      85, -14.944603, -9.81087494, -6.08221245
      86, -14.9958897, -10.049571, -6.5357213
      87, -14.8051414, -10.3577652, -6.90165567
      88, -14.7479143, -9.41588593, -6.31235027
      89, -14.799201, -9.65458202, -6.7658596
      90, -14.6084528, -9.96277618, -7.1317935
      91, -14.5512257, -9.02089691, -6.5424881
      92, -14.6025124, -9.25959301, -6.99599743
      93, -14.4117641, -9.56778717, -7.36193132
      94, -14.354537, -8.6259079, -6.7726264
      95, -14.4058237, -8.864604, -7.22613525
      96, -14.2150755, -9.17279816, -7.59206963
      97, -14.1578484, -8.23091888, -7.00276423
      98, -14.2091351, -8.46961498, -7.45627308
      99, -14.0183868, -8.77780914, -7.82220745
     100, -13.9611597, -7.83593035, -7.23290205
     101, -14.0124464, -8.07462597, -7.68641138
     102, -13.8216982, -8.38282013, -8.05234528
*Element, type=R3D4
       1, 1, 2, 3, 4
       2, 4, 3, 5, 6
       3, 6, 5, 7, 8
       4, 8, 7, 9, 10
       5, 11, 1, 4, 12
       6, 12, 4, 6, 13
       7, 13, 6, 8, 14
       8, 14, 8, 10, 15
       9, 16, 11, 12, 17
      10, 17, 12, 13, 18
      11, 18, 13, 14, 19
      12, 19, 14, 15, 20
      13, 21, 16, 17, 22
      14, 22, 17, 18, 23
      15, 23, 18, 19, 24
      16, 24, 19, 20, 25
      17, 26, 21, 22, 27
      18, 27, 22, 23, 28
      19, 28, 23, 24, 29
      20, 29, 24, 25, 30
      21, 31, 26, 27, 32
      22, 32, 27, 28, 33
      23, 33, 28, 29, 34
      24, 34, 29, 30, 35
      25, 36, 31, 32, 37
      26, 37, 32, 33, 38
      27, 38, 33, 34, 39
      28, 39, 34, 35, 40
      29, 41, 36, 37, 42
      30, 42, 37, 38, 43
      31, 43, 38, 39, 44
      32, 44, 39, 40, 45
      33, 46, 41, 42, 47
      34, 47, 42, 43, 48
      35, 48, 43, 44, 49
      36, 49, 44, 45, 50
      37, 51, 46, 47, 52
      38, 52, 47, 48, 53
      39, 53, 48, 49, 54
      40, 54, 49, 50, 55
      41, 56, 51, 52, 57
      42, 57, 52, 53, 58
      43, 58, 53, 54, 59
      44, 59, 54, 55, 60
      45, 61, 56, 57, 62
      46, 62, 57, 58, 63
      47, 63, 58, 59, 64
      48, 64, 59, 60, 65
      49, 66, 61, 62, 67
      50, 67, 62, 63, 68
      51, 68, 63, 64, 69
      52, 69, 64, 65, 70
      53, 71, 66, 67, 72
      54, 72, 67, 68, 73
      55, 73, 68, 69, 74
      56, 74, 69, 70, 75
      57, 76, 71, 72, 77
      58, 77, 72, 73, 78
      59, 78, 73, 74, 79
      60, 79, 74, 75, 80
      61, 81, 77, 78, 82
      62, 82, 78, 79, 83
      63, 83, 79, 80, 84
      64, 85, 81, 82, 86
      65, 86, 82, 83, 87
      66, 88, 85, 86, 89
      67, 89, 86, 87, 90
      68, 91, 88, 89, 92
      69, 92, 89, 90, 93
      70, 94, 91, 92, 95
      71, 95, 92, 93, 96
      72, 97, 94, 95, 98
      73, 98, 95, 96, 99
      74, 100, 97, 98, 101
      75, 101, 98, 99, 102
*Elset, elset=PIPE_TERMINAL_STOP_ALL, generate
1, 75, 1
*Surface, type=ELEMENT, name=PIPE_TERMINAL_STOP_SURF
PIPE_TERMINAL_STOP_ALL, SPOS
*End Part
** Robot-only HIGH terminal stop; CEL material remains open
*Part, name=Pipe_TERMINAL_STOP_HIGH
*Node
       1, 6.27608633, -5.94825697, -5.65262365
       2, 6.23722649, -5.56458235, -5.31121445
       3, 6.34579229, -5.31667519, -5.61977959
       4, 6.38327122, -5.54258728, -5.87859058
       5, 6.42685938, -5.04812479, -5.80939579
       6, 6.46756983, -5.20532656, -6.0474062
       7, 6.27052021, -5.06325388, -5.19791079
       8, 6.33665085, -5.0666728, -5.4613657
       9, 6.36704683, -4.57860231, -5.34307146
      10, 6.40535831, -4.81330633, -5.60947752
      11, 6.58144331, -4.56312513, -6.18421125
      12, 6.53330231, -4.8993721, -6.15803194
      13, 6.48639822, -4.85262394, -5.94950342
      14, 6.49429512, -4.60639381, -5.86038208
      15, 6.58811331, -4.99606991, -6.42228222
      16, 6.52141619, -5.31991053, -6.3165822
      17, 6.44574213, -5.67432833, -6.19029665
      18, 6.65065527, -4.65971994, -6.50541687
      19, 6.5850873, -5.45662498, -6.63546896
      20, 6.51303816, -5.71766949, -6.47788239
      21, 6.51207399, -6.01049471, -6.61722803
      22, 6.37668753, -6.11147213, -6.13065815
      23, 6.50094175, -4.24048901, -5.70780182
      24, 6.63632822, -4.13951206, -6.1943717
      25, 6.73692942, -4.30272722, -6.67240572
      26, 6.77578926, -4.68640137, -7.01381493
      27, 6.69572878, -4.81666231, -6.76057386
      28, 6.74249554, -5.18772984, -7.12711906
      29, 6.65333557, -5.12154388, -6.74181366
      30, 6.64596891, -5.67238188, -6.98195791
*Element, type=R3D4
       1, 1, 2, 3, 4
       2, 4, 3, 5, 6
       3, 2, 7, 8, 3
       4, 9, 10, 8, 7
       5, 11, 12, 13, 14
       6, 6, 12, 15, 16
       7, 6, 16, 17, 4
       8, 18, 15, 12, 11
       9, 13, 5, 10, 14
      10, 16, 19, 20, 17
      11, 21, 22, 17, 20
      12, 9, 23, 14, 10
      13, 14, 23, 24, 11
      14, 24, 25, 18, 11
      15, 18, 25, 26, 27
      16, 27, 26, 28, 29
      17, 12, 6, 5, 13
      18, 22, 1, 4, 17
      19, 20, 19, 30, 21
      20, 18, 27, 29, 15
      21, 29, 28, 30, 19
      22, 29, 19, 16, 15
      23, 5, 3, 8, 10
*Elset, elset=PIPE_TERMINAL_STOP_HIGH_ALL, generate
1, 23, 1
*Surface, type=ELEMENT, name=PIPE_TERMINAL_STOP_HIGH_SURF
PIPE_TERMINAL_STOP_HIGH_ALL, SPOS
*End Part
*Part, name=Pipe_SOLID
*Node
      1,  -16.5284824,  -17.2844334,  -1.96806526
      2,  -18.3441372,  -16.7630806,  -2.62501884
      3,  -13.0335417,  -6.09837723,  -8.83874321
      4,  -11.2178869,  -6.61973047,   -8.1817894
      5,  -6.19710016,  -2.70104122,  -9.94260216
      6,   6.73808718,  -4.29859257,  -6.67496824
      7,   6.27492857,  -5.95239115,  -5.65006161
      8,  -6.66025925,   -4.3548398,    -8.917696
      9,  -16.7201881,  -16.9746914,  -1.60029233
     10,  -17.1037788,  -16.6780949,  -1.41907883
     11,  -17.5764713,  -16.4741192,  -1.47298098
     12,  -18.0116062,  -16.4174194,  -1.74755561
     13,   -18.292593,  -16.5231857,   -2.1692307
     14,  -18.1524296,  -17.0728245,  -2.99279189
     15,  -17.7688389,  -17.3694191,  -3.17400527
     16,  -17.2961483,  -17.5733948,  -3.12010312
     17,  -16.8610115,  -17.6300964,  -2.84552836
     18,  -16.5800266,  -17.5243282,   -2.4238534
     19,  -18.1474476,  -16.3680916,  -2.85515666
     20,  -17.9507599,  -15.9731026,  -3.08529472
     21,  -17.7540703,  -15.5781136,  -3.31543255
     22,  -17.5573826,  -15.1831245,  -3.54557061
     23,   -17.360693,  -14.7881355,  -3.77570844
     24,  -17.1640053,  -14.3931465,   -4.0058465
     25,  -16.9673157,  -13.9981575,  -4.23598433
     26,   -16.770628,  -13.6031685,  -4.46612215
     27,  -16.5739384,  -13.2081795,  -4.69626045
     28,  -16.3772507,  -12.8131905,  -4.92639828
     29,  -16.1805611,  -12.4182014,   -5.1565361
     30,  -15.9838724,  -12.0232124,  -5.38667393
     31,  -15.7871838,  -11.6282234,  -5.61681223
     32,  -15.5904951,  -11.2332344,  -5.84695005
     33,  -15.3938065,  -10.8382454,  -6.07708788
     34,  -15.1971178,  -10.4432564,   -6.3072257
     35,  -15.0004292,  -10.0482674,  -6.53736401
     36,  -14.8037405,  -9.65327835,  -6.76750183
     37,  -14.6070518,  -9.25828934,  -6.99763966
     38,  -14.4103632,  -8.86330032,  -7.22777748
     39,  -14.2136745,  -8.46831131,  -7.45791578
     40,  -14.0169859,   -8.0733223,  -7.68805361
     41,  -13.8202972,  -7.67833328,  -7.91819143
     42,  -13.6236076,  -7.28334427,  -8.14832973
     43,   -13.426919,  -6.88835526,  -8.37846756
     44,  -13.2302303,  -6.49336624,  -8.60860538
     45,   -12.841835,  -6.40812016,  -9.20651627
     46,  -12.4582443,  -6.70471573,  -9.38772964
     47,  -11.9855528,  -6.90869188,  -9.33382797
     48,  -11.5504169,  -6.96539259,  -9.05925274
     49,  -11.2694321,  -6.85962534,  -8.63757801
     50,  -11.4145756,  -7.01471949,  -7.95165205
     51,  -11.6112642,   -7.4097085,  -7.72151375
     52,  -11.8079529,  -7.80469751,  -7.49137592
     53,  -12.0046415,    -8.199687,   -7.2612381
     54,  -12.2013302,  -8.59467602,  -7.03110027
     55,  -12.3980188,  -8.98966503,  -6.80096197
     56,  -12.5947084,  -9.38465405,  -6.57082415
     57,  -12.7913971,  -9.77964306,  -6.34068632
     58,  -12.9880857,  -10.1746321,   -6.1105485
     59,  -13.1847744,  -10.5696211,  -5.88041019
     60,  -13.3814631,  -10.9646101,  -5.65027237
     61,  -13.5781517,  -11.3595991,  -5.42013454
     62,  -13.7748404,  -11.7545881,  -5.18999672
     63,   -13.971529,  -12.1495771,  -4.95985842
     64,  -14.1682177,  -12.5445662,  -4.72972059
     65,  -14.3649063,  -12.9395552,  -4.49958277
     66,   -14.561595,  -13.3345442,  -4.26944494
     67,  -14.7582836,  -13.7295332,  -4.03930664
     68,  -14.9549723,  -14.1245222,  -3.80916882
     69,  -15.1516609,  -14.5195112,  -3.57903099
     70,  -15.3483496,  -14.9145002,  -3.34889293
     71,  -15.5450382,  -15.3094893,   -3.1187551
     72,  -15.7417269,  -15.7044783,  -2.88861704
     73,  -15.9384155,  -16.0994663,  -2.65847921
     74,  -16.1351051,  -16.4944553,  -2.42834115
     75,  -16.3317928,  -16.8894444,  -2.19820333
     76,  -5.71801949,   -2.7602098,  -9.82157898
     77,  -5.23893833,  -2.81937838,   -9.7005558
     78,  -4.75985718,  -2.87854695,  -9.57953167
     79,   -4.2807765,  -2.93771553,  -9.45850849
     80,  -3.80169535,  -2.99688411,  -9.33748531
     81,  -3.32261419,  -3.05605268,  -9.21646118
     82,  -2.84353328,  -3.11522126,    -9.095438
     83,  -2.36445212,  -3.17438984,  -8.97441483
     84,  -1.88537109,  -3.23355842,  -8.85339069
     85,  -1.40629005,  -3.29272699,  -8.73236752
     86, -0.927209079,  -3.35189557,  -8.61134434
     87, -0.448128045,  -3.41106415,  -8.49032021
     88, 0.0309529938,  -3.47023273,  -8.36929703
     89,  0.510034025,   -3.5294013,  -8.24827385
     90,  0.989115059,  -3.58856988,  -8.12724972
     91,   1.46819603,  -3.64773846,  -8.00622654
     92,   1.94727707,  -3.70690703,  -7.88520288
     93,   2.42635822,  -3.76607561,  -7.76417971
     94,   2.90543914,  -3.82524419,  -7.64315605
     95,   3.38452029,  -3.88441277,   -7.5221324
     96,   3.86360121,   -3.9435811,  -7.40110922
     97,   4.34268236,  -4.00274992,  -7.28008556
     98,   4.82176352,  -4.06191826,  -7.15906191
     99,   5.30084419,  -4.12108707,  -7.03803873
    100,   5.77992535,  -4.18025541,  -6.91701508
    101,    6.2590065,  -4.23942423,   -6.7959919
    102,   6.77714252,  -4.68419504,  -7.01809311
    103,   6.74368143,  -5.18804264,  -7.13196611
    104,   6.64666986,  -5.67512989,  -6.98607588
    105,   6.51210213,  -6.01494217,  -6.61951303
    106,   6.37603521,  -6.11642694,  -6.13049793
    107,   5.79584742,  -5.89322281,  -5.77108526
    108,   5.31676626,  -5.83405447,  -5.89210844
    109,   4.83768511,  -5.77488565,   -6.0131321
    110,   4.35860443,  -5.71571732,  -6.13415575
    111,   3.87952328,   -5.6565485,  -6.25517893
    112,   3.40044212,  -5.59738016,  -6.37620258
    113,   2.92136121,  -5.53821135,  -6.49722624
    114,   2.44228029,  -5.47904301,  -6.61824942
    115,   1.96319914,  -5.41987419,  -6.73927307
    116,    1.4841181,  -5.36070585,  -6.86029673
    117,   1.00503707,  -5.30153704,   -6.9813199
    118,  0.525956094,   -5.2423687,  -7.10234356
    119, 0.0468750373,  -5.18319988,  -7.22336674
    120, -0.432206005,  -5.12403154,  -7.34439039
    121,  -0.91128701,  -5.06486273,  -7.46541405
    122,   -1.3903681,  -5.00569439,  -7.58643723
    123,  -1.86944914,  -4.94652557,  -7.70746088
    124,  -2.34853005,  -4.88735723,  -7.82848454
    125,  -2.82761121,  -4.82818842,  -7.94950771
    126,  -3.30669212,  -4.76902008,  -8.07053185
    127,  -3.78577328,  -4.70985126,  -8.19155502
    128,  -4.26485443,  -4.65068293,   -8.3125782
    129,  -4.74393511,  -4.59151411,  -8.43360233
    130,  -5.22301626,  -4.53234577,  -8.55462551
    131,  -5.70209742,  -4.47317696,  -8.67564869
    132,  -6.18117857,  -4.41400862,  -8.79667282
    133,   -6.5591526,   -4.5188756,  -9.39813232
    134,  -6.42308569,  -4.41739082,  -9.88714695
    135,  -6.28851795,  -4.07757854,  -10.2537098
    136,  -6.19150639,  -3.59049129,   -10.399601
    137,  -6.15804529,   -3.0866437,  -10.2857275
    138,   6.63698053,  -4.13455725,  -6.19453192
    139,   6.50091362,  -4.23604202,  -5.70551682
    140,   6.36634588,   -4.5758543,  -5.33895397
    141,   6.26933432,  -5.06294155,  -5.19306326
    142,   6.23587322,  -5.56678915,  -5.30693674
    143,  -11.4095936,  -6.30998755,  -7.81401682
    144,  -11.7931843,  -6.01339197,  -7.63280344
    145,  -12.2658768,  -5.80941582,  -7.68670559
    146,  -12.7010117,  -5.75271511,  -7.96128035
    147,  -12.9819975,  -5.85848236,  -8.38295555
    148,  -12.7703638,  -5.63199282,  -9.10521412
    149,  -12.4556665,  -5.18578768,  -9.34944916
    150,  -12.0925779,   -4.7641964,  -9.56902218
    151,  -11.6847076,  -4.37140942,  -9.76174927
    152,  -11.2361078,  -4.01133013,  -9.92571545
    153,  -10.7512369,  -3.68753695,  -10.0592928
    154,  -10.2349148,  -3.40324831,  -10.1611509
    155,  -9.69227123,  -3.16128922,  -10.2302799
    156,  -9.12870121,  -2.96406484,  -10.2659922
    157,  -8.54980469,  -2.81353498,  -10.2679319
    158,  -7.96133518,  -2.71119547,  -10.2360811
    159,  -7.36914158,  -2.65806365,  -10.1707554
    160,  -6.77910852,  -2.65466785,  -10.0726042
    161,   -7.0482645,  -4.32392406,  -9.00436306
    162,  -7.44161987,  -4.32618809,  -9.06979752
    163,  -7.83641624,  -4.36160946,  -9.11334801
    164,  -8.22872925,   -4.4298358,  -9.13458252
    165,  -8.61466026,  -4.53018904,  -9.13328934
    166,  -8.99037361,  -4.66167212,  -9.10948086
    167,  -9.35213566,  -4.82297802,   -9.0633955
    168,   -9.6963501,  -5.01250362,  -8.99548912
    169,  -10.0195971,   -5.2283659,  -8.90643787
    170,  -10.3186646,   -5.4684186,  -8.79712677
    171,  -10.5905781,  -5.73027658,  -8.66864204
    172,  -10.8326368,  -6.01133728,  -8.52226067
    173,  -11.0424347,  -6.30880737,  -8.35943699
    174,  -6.29820728,  -2.53700566,  -9.46216583
    175,   -6.4342742,  -2.63849044,  -8.97315121
    176,  -6.56884193,  -2.97830272,  -8.60658836
    177,   -6.6658535,  -3.46538997,  -8.46069813
    178,  -6.69931459,  -3.96923757,  -8.57457066
    179,  -16.9367886,  -17.1639099,  -2.11016941
    180,  -17.1209431,  -17.3531113,  -2.59228754
    181,  -17.2510071,   -16.834156,  -1.81275749
    182,  -17.7513466,  -16.6892757,    -1.991714
    183,  -17.9320316,  -16.8792171,  -2.47213769
    184,  -17.6167412,  -17.2113457,  -2.77270818
    185,  -17.4348106,  -17.0218353,  -2.29196239
    186,  -17.9557419,  -16.6778355,  -3.22292972
    187,  -17.7590523,  -16.2828465,  -3.45306778
    188,  -17.5623646,  -15.8878565,   -3.6832056
    189,   -17.365675,  -15.4928675,  -3.91334367
    190,  -17.1689873,  -15.0978785,  -4.14348173
    191,  -16.9722977,  -14.7028894,  -4.37361956
    192,    -16.77561,  -14.3079004,  -4.60375738
    193,  -16.5789204,  -13.9129114,  -4.83389521
    194,  -16.3822327,  -13.5179224,  -5.06403351
    195,  -16.1855431,  -13.1229334,  -5.29417133
    196,  -15.9888544,  -12.7279444,  -5.52430916
    197,  -15.7921658,  -12.3329554,  -5.75444698
    198,  -15.5954771,  -11.9379663,  -5.98458529
    199,  -15.3987885,  -11.5429773,  -6.21472311
    200,  -15.2020998,  -11.1479883,  -6.44486094
    201,  -15.0054111,  -10.7529993,  -6.67499876
    202,  -14.8087225,  -10.3580103,  -6.90513706
    203,  -14.6120338,  -9.96302128,  -7.13527489
    204,  -14.4153452,  -9.56803226,  -7.36541271
    205,  -14.2186565,  -9.17304325,  -7.59555054
    206,  -14.0219669,  -8.77805424,  -7.82568884
    207,  -13.8252783,  -8.38306522,  -8.05582619
    208,  -13.6285896,  -7.98807621,  -8.28596497
    209,   -13.431901,   -7.5930872,  -8.51610279
    210,  -13.2352123,  -7.19809818,  -8.74624062
    211,  -13.0385237,  -6.80310917,  -8.97637844
    212,  -17.5721512,  -16.9744301,   -3.4041431
    213,  -17.3754616,  -16.5794411,  -3.63428116
    214,  -17.1787739,  -16.1844521,  -3.86441898
    215,  -16.9820843,   -15.789463,  -4.09455681
    216,  -16.7853966,   -15.394474,  -4.32469511
    217,   -16.588707,   -14.999485,  -4.55483294
    218,  -16.3920193,   -14.604496,  -4.78497076
    219,  -16.1953297,   -14.209507,  -5.01510859
    220,   -15.998641,   -13.814518,  -5.24524689
    221,  -15.8019524,   -13.419529,  -5.47538471
    222,  -15.6052637,  -13.0245399,  -5.70552254
    223,  -15.4085751,  -12.6295509,  -5.93566036
    224,  -15.2118864,  -12.2345619,  -6.16579866
    225,  -15.0151978,  -11.8395729,  -6.39593649
    226,  -14.8185091,  -11.4445839,  -6.62607431
    227,  -14.6218204,  -11.0495949,  -6.85621214
    228,  -14.4251318,  -10.6546059,  -7.08635044
    229,  -14.2284431,  -10.2596169,  -7.31648827
    230,  -14.0317545,  -9.86462784,  -7.54662609
    231,  -13.8350649,  -9.46963882,  -7.77676392
    232,  -13.6383762,  -9.07464981,  -8.00690174
    233,  -13.4416876,   -8.6796608,  -8.23703957
    234,  -13.2449989,  -8.28467178,  -8.46717834
    235,  -13.0483103,  -7.88968277,  -8.69731617
    236,  -12.8516216,  -7.49469376,  -8.92745399
    237,   -12.654933,  -7.09970474,  -9.15759182
    238,  -17.0994587,  -17.1784058,  -3.35024095
    239,   -16.902771,  -16.7834167,  -3.58037901
    240,  -16.7060814,  -16.3884277,  -3.81051683
    241,  -16.5093918,  -15.9934387,  -4.04065466
    242,  -16.3127041,  -15.5984497,  -4.27079296
    243,  -16.1160145,  -15.2034607,  -4.50093079
    244,  -15.9193268,  -14.8084717,  -4.73106861
    245,  -15.7226381,  -14.4134827,  -4.96120644
    246,  -15.5259495,  -14.0184937,  -5.19134474
    247,  -15.3292608,  -13.6235046,  -5.42148256
    248,  -15.1325722,  -13.2285156,  -5.65162039
    249,  -14.9358835,  -12.8335266,  -5.88175821
    250,  -14.7391939,  -12.4385376,  -6.11189651
    251,  -14.5425053,  -12.0435486,  -6.34203434
    252,  -14.3458166,  -11.6485596,  -6.57217216
    253,   -14.149128,  -11.2535706,  -6.80230999
    254,  -13.9524393,  -10.8585815,  -7.03244829
    255,  -13.7557507,  -10.4635925,  -7.26258612
    256,   -13.559062,  -10.0686035,  -7.49272394
    257,  -13.3623734,   -9.6736145,  -7.72286177
    258,  -13.1656847,  -9.27862549,  -7.95300007
    259,   -12.968996,  -8.88363647,  -8.18313789
    260,  -12.7723074,  -8.48864746,  -8.41327572
    261,  -12.5756187,  -8.09365845,  -8.64341354
    262,  -12.3789301,  -7.69866991,  -8.87355137
    263,  -12.1822414,   -7.3036809,  -9.10368919
    264,  -16.6643238,  -17.2351074,  -3.07566643
    265,  -16.4676342,  -16.8401184,  -3.30580425
    266,  -16.2709465,  -16.4451294,  -3.53594232
    267,  -16.0742569,  -16.0501404,  -3.76608014
    268,  -15.8775682,  -15.6551514,   -3.9962182
    269,  -15.6808796,  -15.2601624,  -4.22635603
    270,  -15.4841909,  -14.8651733,  -4.45649385
    271,  -15.2875023,  -14.4701843,  -4.68663216
    272,  -15.0908136,  -14.0751953,  -4.91676998
    273,   -14.894125,  -13.6802063,  -5.14690781
    274,  -14.6974363,  -13.2852173,  -5.37704563
    275,  -14.5007477,  -12.8902283,  -5.60718393
    276,   -14.304059,  -12.4952393,  -5.83732176
    277,  -14.1073704,  -12.1002502,  -6.06745958
    278,  -13.9106817,  -11.7052612,  -6.29759741
    279,  -13.7139931,  -11.3102722,  -6.52773571
    280,  -13.5173044,  -10.9152832,  -6.75787354
    281,  -13.3206158,  -10.5202942,  -6.98801136
    282,  -13.1239262,  -10.1253052,  -7.21814919
    283,  -12.9272375,  -9.73031616,  -7.44828749
    284,  -12.7305489,  -9.33532715,  -7.67842531
    285,  -12.5338602,  -8.94033813,  -7.90856314
    286,  -12.3371716,  -8.54534912,  -8.13870144
    287,  -12.1404829,  -8.15036011,  -8.36883926
    288,  -11.9437943,  -7.75537062,  -8.59897709
    289,  -11.7471056,   -7.3603816,  -8.82911491
    290,  -16.3833389,  -17.1293392,  -2.65399122
    291,  -16.1866493,  -16.7343502,  -2.88412929
    292,  -15.9899607,  -16.3393612,  -3.11426711
    293,   -15.793272,  -15.9443731,  -3.34440517
    294,  -15.5965834,  -15.5493841,    -3.574543
    295,  -15.3998947,  -15.1543951,  -3.80468106
    296,  -15.2032061,  -14.7594061,  -4.03481913
    297,  -15.0065174,  -14.3644171,  -4.26495695
    298,  -14.8098288,  -13.9694281,  -4.49509478
    299,  -14.6131401,   -13.574439,   -4.7252326
    300,  -14.4164515,    -13.17945,   -4.9553709
    301,  -14.2197628,   -12.784461,  -5.18550873
    302,  -14.0230742,   -12.389472,  -5.41564655
    303,  -13.8263855,   -11.994483,  -5.64578438
    304,  -13.6296959,   -11.599494,  -5.87592268
    305,  -13.4330072,   -11.204505,   -6.1060605
    306,  -13.2363186,   -10.809516,  -6.33619833
    307,  -13.0396299,  -10.4145269,  -6.56633615
    308,  -12.8429413,  -10.0195379,  -6.79647446
    309,  -12.6462526,  -9.62454891,  -7.02661228
    310,   -12.449564,   -9.2295599,  -7.25675011
    311,  -12.2528753,  -8.83457088,  -7.48688793
    312,  -12.0561867,  -8.43958187,  -7.71702623
    313,   -11.859498,  -8.04459286,  -7.94716406
    314,  -11.6628094,  -7.64960337,  -8.17730236
    315,  -11.4661207,  -7.25461435,  -8.40744019
    316,  -5.67896414,  -3.14581227,  -10.1647034
    317,  -5.19988298,  -3.20498085,  -10.0436802
    318,  -4.72080231,  -3.26414943,  -9.92265701
    319,  -4.24172115,    -3.323318,  -9.80163288
    320,     -3.76264,  -3.38248658,   -9.6806097
    321,  -3.28355908,  -3.44165516,  -9.55958652
    322,  -2.80447793,  -3.50082374,  -9.43856239
    323,  -2.32539701,  -3.55999231,  -9.31753922
    324,  -1.84631586,  -3.61916089,  -9.19651604
    325,  -1.36723483,  -3.67832947,  -9.07549191
    326, -0.888153851,  -3.73749804,  -8.95446873
    327, -0.409072816,  -3.79666662,  -8.83344555
    328, 0.0700082108,   -3.8558352,  -8.71242142
    329,  0.549089253,  -3.91500378,  -8.59139824
    330,   1.02817023,  -3.97417235,  -8.47037506
    331,   1.50725126,  -4.03334093,  -8.34935093
    332,    1.9863323,  -4.09250927,  -8.22832775
    333,   2.46541333,  -4.15167809,  -8.10730457
    334,   2.94449449,  -4.21084642,  -7.98628092
    335,    3.4235754,  -4.27001524,  -7.86525726
    336,   3.90265656,  -4.32918358,  -7.74423409
    337,   4.38173771,  -4.38835239,  -7.62321043
    338,   4.86081839,  -4.44752073,  -7.50218678
    339,   5.33989954,  -4.50668955,   -7.3811636
    340,   5.81898069,  -4.56585789,  -7.26013994
    341,   6.29806137,   -4.6250267,  -7.13911629
    342,  -5.71242523,  -3.64965987,  -10.2785769
    343,  -5.23334408,  -3.70882845,  -10.1575537
    344,   -4.7542634,  -3.76799703,  -10.0365305
    345,  -4.27518225,   -3.8271656,  -9.91550636
    346,  -3.79610109,  -3.88633418,  -9.79448318
    347,  -3.31702018,  -3.94550276,  -9.67346001
    348,  -2.83793902,   -4.0046711,  -9.55243587
    349,  -2.35885811,  -4.06383991,   -9.4314127
    350,  -1.87977707,  -4.12300825,  -9.31038952
    351,  -1.40069604,  -4.18217707,  -9.18936539
    352, -0.921615005,  -4.24134541,  -9.06834221
    353,  -0.44253394,  -4.30051422,  -8.94731903
    354, 0.0365470834,  -4.35968256,   -8.8262949
    355,  0.515628099,  -4.41885138,  -8.70527172
    356,  0.994709134,  -4.47801971,  -8.58424854
    357,   1.47379017,  -4.53718853,  -8.46322441
    358,    1.9528712,  -4.59635687,  -8.34220123
    359,   2.43195224,  -4.65552568,  -8.22117805
    360,   2.91103315,  -4.71469402,  -8.10015392
    361,   3.39011431,  -4.77386284,  -7.97913074
    362,   3.86919522,  -4.83303118,  -7.85810709
    363,   4.34827614,  -4.89219999,  -7.73708391
    364,   4.82735729,  -4.95136833,  -7.61606026
    365,   5.30643845,  -5.01053715,   -7.4950366
    366,    5.7855196,  -5.06970549,  -7.37401342
    367,   6.26460028,   -5.1288743,  -7.25298977
    368,   -5.8094368,  -4.13674688,  -10.1326866
    369,  -5.33035564,   -4.1959157,  -10.0116634
    370,  -4.85127497,  -4.25508404,  -9.89063931
    371,  -4.37219381,  -4.31425285,  -9.76961613
    372,  -3.89311266,  -4.37342119,  -9.64859295
    373,  -3.41403174,  -4.43259001,  -9.52756882
    374,  -2.93495059,  -4.49175835,  -9.40654564
    375,  -2.45586967,  -4.55092716,  -9.28552246
    376,  -1.97678864,   -4.6100955,  -9.16449833
    377,  -1.49770761,  -4.66926432,  -9.04347515
    378,  -1.01862657,  -4.72843266,  -8.92245197
    379, -0.539545536,  -4.78760147,  -8.80142784
    380,  -0.06046452,  -4.84676981,  -8.68040466
    381,  0.418616503,  -4.90593863,  -8.55938148
    382,  0.897697568,  -4.96510696,  -8.43835831
    383,    1.3767786,  -5.02427578,  -8.31733418
    384,   1.85585964,  -5.08344412,    -8.196311
    385,   2.33494067,  -5.14261293,  -8.07528782
    386,   2.81402159,  -5.20178127,  -7.95426369
    387,   3.29310274,  -5.26095009,  -7.83324051
    388,   3.77218366,  -5.32011843,  -7.71221685
    389,   4.25126457,  -5.37928724,   -7.5911932
    390,   4.73034573,  -5.43845558,  -7.47017002
    391,   5.20942688,   -5.4976244,  -7.34914637
    392,   5.68850803,  -5.55679274,  -7.22812271
    393,   6.16758871,  -5.61596155,  -7.10709953
    394,  -5.94400454,  -4.47655916,  -9.76612377
    395,  -5.46492386,  -4.53572798,  -9.64510059
    396,   -4.9858427,  -4.59489632,  -9.52407646
    397,  -4.50676155,  -4.65406513,  -9.40305328
    398,  -4.02768087,  -4.71323347,  -9.28203011
    399,  -3.54859972,  -4.77240229,  -9.16100597
    400,  -3.06951857,  -4.83157063,   -9.0399828
    401,  -2.59043765,  -4.89073944,  -8.91895962
    402,   -2.1113565,  -4.94990778,  -8.79793549
    403,  -1.63227546,  -5.00907612,  -8.67691231
    404,  -1.15319443,  -5.06824493,  -8.55588913
    405, -0.674113452,  -5.12741327,    -8.434865
    406, -0.195032418,  -5.18658209,  -8.31384182
    407,  0.284048617,  -5.24575043,  -8.19281864
    408,  0.763129652,  -5.30491924,  -8.07179451
    409,   1.24221063,  -5.36408758,  -7.95077133
    410,   1.72129166,   -5.4232564,  -7.82974815
    411,    2.2003727,  -5.48242474,   -7.7087245
    412,   2.67945385,  -5.54159355,  -7.58770084
    413,   3.15853477,  -5.60076189,  -7.46667767
    414,   3.63761592,  -5.65993071,  -7.34565401
    415,   4.11669683,  -5.71909904,  -7.22463036
    416,   4.59577799,  -5.77826786,  -7.10360718
    417,   5.07485914,   -5.8374362,  -6.98258352
    418,   5.55393982,  -5.89660501,  -6.86155987
    419,   6.03302097,  -5.95577335,  -6.74053669
    420,  -6.08007145,  -4.57804394,  -9.27710819
    421,  -5.60099077,  -4.63721275,  -9.15608501
    422,  -5.12190962,  -4.69638109,  -9.03506184
    423,  -4.64282846,  -4.75554943,   -8.9140377
    424,  -4.16374731,  -4.81471825,  -8.79301453
    425,   -3.6846664,  -4.87388659,  -8.67199135
    426,  -3.20558548,   -4.9330554,  -8.55096722
    427,  -2.72650433,  -4.99222374,  -8.42994404
    428,  -2.24742341,  -5.05139256,  -8.30892086
    429,  -1.76834238,  -5.11056089,  -8.18789673
    430,  -1.28926134,  -5.16972971,  -8.06687355
    431, -0.810180247,  -5.22889805,  -7.94585037
    432, -0.331099242,  -5.28806686,  -7.82482672
    433,  0.147981793,   -5.3472352,  -7.70380306
    434,  0.627062798,  -5.40640402,  -7.58277988
    435,   1.10614383,  -5.46557236,  -7.46175623
    436,   1.58522487,  -5.52474117,  -7.34073257
    437,   2.06430602,  -5.58390951,   -7.2197094
    438,   2.54338694,  -5.64307833,  -7.09868574
    439,   3.02246785,  -5.70224667,  -6.97766209
    440,   3.50154901,  -5.76141548,  -6.85663891
    441,   3.98062992,  -5.82058382,  -6.73561525
    442,   4.45971107,  -5.87975264,   -6.6145916
    443,   4.93879223,  -5.93892097,  -6.49356842
    444,   5.41787291,  -5.99808979,  -6.37254477
    445,   5.89695406,  -6.05725813,  -6.25152111
    446,   6.63325882,   -4.6661377,  -6.43969011
    447,    6.6359005,  -5.15575457,  -6.68952179
    448,   6.50400925,  -4.63386059,  -5.91226435
    449,    6.3761282,  -5.08798599,  -5.62806034
    450,   6.37960291,  -5.57410288,  -5.87947702
    451,   6.50954962,  -5.60815048,  -6.41052771
    452,   6.50640821,  -5.12099886,  -6.15992355
    453,  -11.6062822,  -6.70497656,  -7.58387899
    454,  -11.9898729,  -6.40838099,  -7.40266562
    455,  -12.4625654,  -6.20440483,  -7.45656776
    456,  -12.8977013,  -6.14770412,  -7.73114204
    457,  -13.1786861,  -6.25347137,  -8.15281773
    458,  -11.8029709,  -7.09996557,  -7.35374069
    459,  -12.1865625,     -6.80337,  -7.17252731
    460,  -12.6592541,  -6.59939384,  -7.22642946
    461,  -13.0943899,  -6.54269314,  -7.50100422
    462,  -13.3753748,  -6.64846039,  -7.92267942
    463,  -11.9996605,  -7.49495459,  -7.12360287
    464,  -12.3832512,  -7.19835901,  -6.94238949
    465,  -12.8559427,  -6.99438286,  -6.99629164
    466,  -13.2910786,  -6.93768215,  -7.27086639
    467,  -13.5720634,   -7.0434494,   -7.6925416
    468,  -12.1963491,   -7.8899436,  -6.89346504
    469,  -12.5799398,  -7.59334803,  -6.71225166
    470,  -13.0526314,  -7.38937187,  -6.76615381
    471,  -13.4877672,  -7.33267117,  -7.04072857
    472,  -13.7687521,  -7.43843842,   -7.4624033
    473,  -12.3930378,  -8.28493309,  -6.66332722
    474,  -12.7766285,  -7.98833704,  -6.48211384
    475,    -13.24932,  -7.78436089,  -6.53601599
    476,  -13.6844559,  -7.72766018,  -6.81059027
    477,  -13.9654408,  -7.83342743,  -7.23226547
    478,  -12.5897264,   -8.6799221,  -6.43318892
    479,  -12.9733171,  -8.38332558,  -6.25197554
    480,  -13.4460087,   -8.1793499,  -6.30587769
    481,  -13.8811445,  -8.12264919,  -6.58045244
    482,  -14.1621294,  -8.22841644,  -7.00212765
    483,  -12.7864151,  -9.07491112,  -6.20305109
    484,  -13.1700058,  -8.77831459,  -6.02183771
    485,  -13.6426973,  -8.57433891,  -6.07573986
    486,  -14.0778332,  -8.51763821,  -6.35031462
    487,  -14.3588181,  -8.62340546,  -6.77198982
    488,  -12.9831038,  -9.46990013,  -5.97291327
    489,  -13.3666945,   -9.1733036,  -5.79169989
    490,   -13.839386,  -8.96932793,  -5.84560204
    491,  -14.2745218,  -8.91262722,  -6.12017679
    492,  -14.5555067,  -9.01839447,  -6.54185152
    493,  -13.1797924,  -9.86488914,  -5.74277544
    494,  -13.5633831,  -9.56829262,  -5.56156206
    495,  -14.0360746,  -9.36431694,  -5.61546421
    496,  -14.4712105,  -9.30761623,  -5.89003849
    497,  -14.7521954,  -9.41338348,   -6.3117137
    498,  -13.3764811,  -10.2598782,  -5.51263714
    499,  -13.7600718,  -9.96328163,  -5.33142376
    500,  -14.2327633,  -9.75930595,  -5.38532591
    501,  -14.6678991,  -9.70260525,  -5.65990067
    502,   -14.948884,   -9.8083725,  -6.08157587
    503,  -13.5731697,  -10.6548672,  -5.28249931
    504,  -13.9567604,  -10.3582706,  -5.10128593
    505,  -14.4294519,   -10.154295,  -5.15518808
    506,  -14.8645878,  -10.0975943,  -5.42976284
    507,  -15.1455727,  -10.2033615,  -5.85143805
    508,  -13.7698584,  -11.0498562,  -5.05236149
    509,  -14.1534491,  -10.7532597,  -4.87114811
    510,  -14.6261406,   -10.549284,  -4.92505026
    511,  -15.0612764,  -10.4925833,  -5.19962502
    512,  -15.3422613,  -10.5983505,  -5.62129974
    513,   -13.966547,  -11.4448452,  -4.82222366
    514,  -14.3501377,  -11.1482487,  -4.64101028
    515,  -14.8228292,   -10.944273,  -4.69491243
    516,  -15.2579651,  -10.8875723,  -4.96948671
    517,    -15.53895,  -10.9933395,  -5.39116192
    518,  -14.1632357,  -11.8398342,  -4.59208536
    519,  -14.5468264,  -11.5432377,  -4.41087198
    520,  -15.0195179,   -11.339262,  -4.46477413
    521,  -15.4546537,  -11.2825613,  -4.73934889
    522,  -15.7356386,  -11.3883286,  -5.16102409
    523,  -14.3599243,  -12.2348232,  -4.36194754
    524,   -14.743515,  -11.9382267,  -4.18073416
    525,  -15.2162075,   -11.734251,  -4.23463631
    526,  -15.6513424,  -11.6775503,  -4.50921106
    527,  -15.9323273,  -11.7833176,  -4.93088627
    528,   -14.556613,  -12.6298122,  -4.13180971
    529,  -14.9402037,  -12.3332157,  -3.95059633
    530,  -15.4128962,    -12.12924,  -4.00449848
    531,   -15.848031,  -12.0725393,  -4.27907324
    532,  -16.1290169,  -12.1783066,  -4.70074797
    533,  -14.7533016,  -13.0248013,  -3.90167165
    534,  -15.1368923,  -12.7282047,  -3.72045827
    535,  -15.6095848,   -12.524229,  -3.77436042
    536,  -16.0447197,  -12.4675283,  -4.04893494
    537,  -16.3257046,  -12.5732956,  -4.47061014
    538,  -14.9499903,  -13.4197903,  -3.67153382
    539,   -15.333581,  -13.1231937,  -3.49032044
    540,  -15.8062735,  -12.9192181,  -3.54422259
    541,  -16.2414093,  -12.8625174,  -3.81879711
    542,  -16.5223942,  -12.9682846,  -4.24047232
    543,  -15.1466789,  -13.8147793,  -3.44139576
    544,  -15.5302696,  -13.5181828,  -3.26018238
    545,  -16.0029621,  -13.3142071,  -3.31408453
    546,   -16.438097,  -13.2575064,  -3.58865929
    547,  -16.7190819,  -13.3632736,  -4.01033449
    548,  -15.3433676,  -14.2097683,  -3.21125793
    549,  -15.7269583,  -13.9131718,  -3.03004456
    550,  -16.1996498,  -13.7091961,   -3.0839467
    551,  -16.6347866,  -13.6524954,  -3.35852122
    552,  -16.9157715,  -13.7582626,  -3.78019643
    553,  -15.5400562,  -14.6047573,  -2.98111987
    554,  -15.9236469,  -14.3081608,  -2.79990649
    555,  -16.3963394,  -14.1041851,  -2.85380864
    556,  -16.8314743,  -14.0474844,   -3.1283834
    557,  -17.1124592,  -14.1532516,  -3.55005836
    558,  -15.7367449,  -14.9997463,  -2.75098205
    559,  -16.1203365,  -14.7031498,  -2.56976867
    560,  -16.5930271,  -14.4991741,  -2.62367082
    561,  -17.0281639,  -14.4424734,  -2.89824533
    562,  -17.3091488,  -14.5482407,  -3.31992054
    563,  -15.9334335,  -15.3947353,  -2.52084398
    564,  -16.3170242,  -15.0981388,   -2.3396306
    565,  -16.7897167,  -14.8941631,  -2.39353275
    566,  -17.2248516,  -14.8374624,  -2.66810751
    567,  -17.5058365,  -14.9432297,  -3.08978248
    568,  -16.1301231,  -15.7897243,  -2.29070616
    569,  -16.5137138,  -15.4931278,  -2.10949278
    570,  -16.9864044,  -15.2891521,  -2.16339493
    571,  -17.4215412,  -15.2324514,  -2.43796945
    572,  -17.7025261,  -15.3382187,  -2.85964465
    573,  -16.3268108,  -16.1847134,  -2.06056809
    574,  -16.7104015,  -15.8881168,  -1.87935472
    575,   -17.183094,  -15.6841412,  -1.93325686
    576,  -17.6182289,  -15.6274405,  -2.20783162
    577,  -17.8992138,  -15.7332077,  -2.62950659
    578,  -16.5235004,  -16.5797024,  -1.83043027
    579,  -16.9070911,  -16.2831059,  -1.64921677
    580,  -17.3797836,  -16.0791302,  -1.70311892
    581,  -17.8149185,  -16.0224304,  -1.97769356
    582,  -18.0959034,  -16.1281967,  -2.39936876
    583,  -12.5836515,  -5.95944548,  -9.46800804
    584,   -12.275238,  -5.52872562,  -9.70844746
    585,  -11.9193916,  -5.12044859,  -9.92512798
    586,  -11.5194921,  -4.73890924,  -10.1155968
    587,  -11.0794783,  -4.38814783,  -10.2776899
    588,  -10.6037846,   -4.0718832,  -10.4095783
    589,  -10.0972958,  -3.79345894,  -10.5097942
    590,  -9.56526279,  -3.55579448,  -10.5772648
    591,  -9.01323986,    -3.361341,  -10.6113186
    592,  -8.44699574,  -3.21204758,  -10.6117039
    593,  -7.87243414,  -3.10933256,   -10.578578
    594,  -7.29550266,  -3.05407023,  -10.5125093
    595,   -6.7221117,  -3.04658246,  -10.4144535
    596,  -12.2121696,  -6.28487301,  -9.63100529
    597,  -11.9198608,   -5.8825202,  -9.85421658
    598,  -11.5840912,  -5.50165129,  -10.0550499
    599,  -11.2080975,  -5.14605188,   -10.231432
    600,   -10.795537,  -4.81925583,  -10.3815498
    601,  -10.3504496,    -4.524508,  -10.5038738
    602,  -9.87720776,  -4.26472807,  -10.5971642
    603,  -9.38047504,  -4.04248428,  -10.6604919
    604,  -8.86515331,  -3.85996175,   -10.693243
    605,  -8.33633804,  -3.71894479,  -10.6951256
    606,  -7.79925156,  -3.62079382,  -10.6661758
    607,  -7.25920486,  -3.56643033,  -10.6067581
    608,  -6.72152662,  -3.55632496,  -10.5175629
    609,  -11.7662373,  -6.52003813,  -9.55588627
    610,  -11.5039902,  -6.14820051,  -9.75941658
    611,   -11.201416,  -5.79687452,   -9.9423933
    612,  -10.8615236,  -5.46955204,  -10.1029987
    613,  -10.4876909,  -5.16948557,  -10.2396383
    614,  -10.0836315,   -4.8996582,  -10.3509521
    615,  -9.65336323,   -4.6627512,  -10.4358339
    616,  -9.20116043,   -4.4611187,  -10.4934416
    617,  -8.73151875,  -4.29676485,  -10.5232019
    618,   -8.2491045,   -4.1713233,  -10.5248184
    619,  -7.75871372,   -4.0860405,  -10.4982758
    620,  -7.26521873,  -4.04176378,  -10.4438372
    621,  -6.77352476,  -4.03893375,  -10.3620443
    622,  -11.3567181,  -6.61241817,  -9.26681709
    623,  -11.1235123,  -6.27511454,  -9.45667553
    624,  -10.8532639,  -5.95676565,  -9.62693501
    625,  -10.5487728,  -5.66048002,  -9.77589989
    626,    -10.21315,  -5.38915968,  -9.90208721
    627,  -9.84980202,  -5.14547873,  -10.0042381
    628,  -9.46239376,  -4.93185282,  -10.0813332
    629,  -9.05481911,   -4.7504158,  -10.1326017
    630,   -8.6311636,  -4.60299921,   -10.157526
    631,  -8.19566441,  -4.49111509,  -10.1558485
    632,  -7.75267315,  -4.41594267,  -10.1275778
    633,  -7.30661106,  -4.37832355,   -10.072979
    634,   -6.8619318,  -4.37875557,   -9.9925766
    635,  -11.0876074,  -6.53643084,  -8.82832336
    636,  -10.8702774,  -6.22845221,  -9.00235081
    637,  -10.6198978,  -5.93840742,  -9.15807533
    638,  -10.3391275,  -5.66882563,   -9.2940979
    639,  -10.0308094,  -5.42205095,  -9.40920258
    640,  -9.69795513,  -5.20024252,  -9.50235748
    641,  -9.34373569,  -5.00537205,   -9.5727253
    642,   -8.9714632,  -4.83921576,  -9.61966228
    643,  -8.58458042,  -4.70335436,  -9.64272118
    644,  -8.18664837,  -4.59916115,  -9.64165306
    645,  -7.78133488,   -4.5277977,  -9.61641026
    646,  -7.37240314,    -4.490201,  -9.56714153
    647,  -6.96370125,  -4.48707581,  -9.49419785
    648,   5.75679207,  -5.50762033,   -5.4279604
    649,   5.79025316,  -5.00377274,  -5.31408691
    650,   5.88726473,  -4.51668549,  -5.45997715
    651,   6.02183294,  -4.17687321,  -5.82653999
    652,   6.15789938,  -4.07538843,  -6.31555557
    653,   5.27771091,    -5.448452,  -5.54898357
    654,   5.31117249,   -4.9446044,  -5.43511057
    655,   5.40818405,  -4.45751715,   -5.5810008
    656,   5.54275179,  -4.11770487,  -5.94756365
    657,    5.6788187,  -4.01622009,  -6.43657875
    658,   4.79863024,  -5.38928318,  -5.67000723
    659,   4.83209133,  -4.88543558,  -5.55613375
    660,    4.9291029,  -4.39834833,  -5.70202446
    661,   5.06367064,  -4.05853605,   -6.0685873
    662,   5.19973755,  -3.95705152,  -6.55760241
    663,   4.31954908,  -5.33011484,  -5.79103088
    664,   4.35301018,  -4.82626724,   -5.6771574
    665,   4.45002174,  -4.33917999,  -5.82304764
    666,   4.58458948,  -3.99936771,  -6.18961048
    667,   4.72065639,  -3.89788294,  -6.67862606
    668,   3.84046793,  -5.27094603,  -5.91205406
    669,   3.87392926,  -4.76709843,  -5.79818106
    670,   3.97094083,  -4.28001118,  -5.94407129
    671,    4.1055088,  -3.94019914,  -6.31063414
    672,   4.24157572,  -3.83871436,  -6.79964924
    673,   3.36138701,  -5.21177769,  -6.03307772
    674,   3.39484811,  -4.70793009,  -5.91920424
    675,   3.49185967,  -4.22084284,  -6.06509495
    676,   3.62642765,  -3.88103056,  -6.43165779
    677,   3.76249456,  -3.77954578,  -6.92067289
    678,    2.8823061,  -5.15260887,  -6.15410137
    679,   2.91576719,  -4.64876127,  -6.04022789
    680,   3.01277876,  -4.16167402,  -6.18611813
    681,    3.1473465,  -3.82186198,  -6.55268097
    682,   3.28341341,  -3.72037721,  -7.04169655
    683,   2.40322495,  -5.09344053,  -6.27512455
    684,   2.43668604,  -4.58959293,  -6.16125154
    685,   2.53369761,  -4.10250568,  -6.30714178
    686,   2.66826558,  -3.76269341,  -6.67370462
    687,   2.80433249,  -3.66120863,  -7.16271973
    688,   1.92414391,  -5.03427172,   -6.3961482
    689,     1.957605,  -4.53042412,  -6.28227472
    690,   2.05461669,  -4.04333687,  -6.42816544
    691,   2.18918467,  -3.70352483,  -6.79472828
    692,   2.32525134,  -3.60204005,  -7.28374338
    693,   1.44506288,  -4.97510338,  -6.51717186
    694,   1.47852409,  -4.47125578,  -6.40329838
    695,   1.57553566,  -3.98416853,  -6.54918861
    696,   1.71010351,  -3.64435625,  -6.91575146
    697,   1.84617031,  -3.54287148,  -7.40476704
    698,  0.965981901,  -4.91593456,  -6.63819504
    699,  0.999442995,  -4.41208696,  -6.52432203
    700,   1.09645462,  -3.92499995,  -6.67021227
    701,   1.23102248,  -3.58518767,  -7.03677511
    702,   1.36708927,   -3.4837029,  -7.52579021
    703,  0.486900836,  -4.85676622,  -6.75921869
    704,   0.52036196,  -4.35291862,  -6.64534521
    705,  0.617373586,  -3.86583138,  -6.79123592
    706,  0.751941442,   -3.5260191,  -7.15779877
    707,  0.888008296,  -3.42453432,  -7.64681387
    708, 0.00781981554,  -4.79759741,  -6.88024235
    709, 0.0412809476,  -4.29374981,  -6.76636887
    710,  0.138292551,   -3.8066628,   -6.9122591
    711,  0.272860438,  -3.46685052,  -7.27882195
    712,  0.408927262,  -3.36536574,  -7.76783752
    713, -0.471261203,  -4.73842907,  -7.00126553
    714,  -0.43780008,  -4.23458147,  -6.88739252
    715, -0.340788484,  -3.74749422,  -7.03328276
    716, -0.206220582,  -3.40768194,   -7.3998456
    717, -0.0701537654,  -3.30619717,   -7.8888607
    718, -0.950342238,  -4.67926025,  -7.12228918
    719, -0.916881084,  -4.17541265,   -7.0084157
    720, -0.819869518,  -3.68832564,  -7.15430641
    721, -0.685301602,  -3.34851336,  -7.52086926
    722, -0.549234807,  -3.24702859,  -8.00988388
    723,  -1.42942321,  -4.62009192,  -7.24331284
    724,  -1.39596212,  -4.11624432,  -7.12943935
    725,  -1.29895055,  -3.62915707,  -7.27532959
    726,   -1.1643827,  -3.28934479,  -7.64189243
    727,  -1.02831578,  -3.18786001,  -8.13090801
    728,  -1.90850425,   -4.5609231,  -7.36433601
    729,  -1.87504315,   -4.0570755,  -7.25046301
    730,  -1.77803159,  -3.56998849,  -7.39635324
    731,  -1.64346373,  -3.23017621,  -7.76291609
    732,  -1.50739682,  -3.12869143,  -8.25193119
    733,   -2.3875854,  -4.50175476,  -7.48535967
    734,  -2.35412431,  -3.99790692,  -7.37148619
    735,   -2.2571125,  -3.51081991,   -7.5173769
    736,  -2.12254477,  -3.17100763,  -7.88393974
    737,  -1.98647785,  -3.06952286,  -8.37295437
    738,  -2.86666632,  -4.44258595,  -7.60638332
    739,  -2.83320522,  -3.93873835,  -7.49250984
    740,  -2.73619366,  -3.45165133,  -7.63840008
    741,  -2.60162568,  -3.11183906,  -8.00496292
    742,  -2.46555901,  -3.01035428,   -8.4939785
    743,  -3.34574747,  -4.38341761,   -7.7274065
    744,  -3.31228614,  -3.87957001,   -7.6135335
    745,  -3.21527457,  -3.39248276,  -7.75942373
    746,  -3.08070683,  -3.05267048,   -8.1259861
    747,  -2.94463992,   -2.9511857,  -8.61500168
    748,  -3.82482839,  -4.32424879,  -7.84843016
    749,  -3.79136729,  -3.82040143,  -7.73455667
    750,  -3.69435573,  -3.33331418,  -7.88044691
    751,  -3.55978775,   -2.9935019,  -8.24701023
    752,  -3.42372108,  -2.89201713,  -8.73602486
    753,   -4.3039093,  -4.26508045,  -7.96945381
    754,  -4.27044821,  -3.76123285,  -7.85558033
    755,  -4.17343664,   -3.2741456,  -8.00147057
    756,   -4.0388689,  -2.93433332,  -8.36803341
    757,  -3.90280199,  -2.83284855,  -8.85704899
    758,  -4.78299046,  -4.20591164,  -8.09047699
    759,  -4.74952936,  -3.70206428,  -7.97660351
    760,   -4.6525178,  -3.21497703,  -8.12249374
    761,  -4.51795006,  -2.87516475,  -8.48905659
    762,  -4.38188314,  -2.77367997,  -8.97807217
    763,  -5.26207161,   -4.1467433,  -8.21150017
    764,  -5.22861052,   -3.6428957,  -8.09762764
    765,  -5.13159895,  -3.15580845,  -8.24351788
    766,  -4.99703074,  -2.81599617,  -8.61008072
    767,  -4.86096382,  -2.71451139,  -9.09909534
    768,  -5.74115276,  -4.08757448,   -8.3325243
    769,  -5.70769119,  -3.58372712,  -8.21865082
    770,  -5.61067963,  -3.09663987,  -8.36454105
    771,  -5.47611189,  -2.75682759,   -8.7311039
    772,  -5.34004498,  -2.65534282,  -9.22011948
    773,  -6.22023344,  -4.02840614,  -8.45354748
    774,  -6.18677235,  -3.52455854,    -8.339674
    775,  -6.08976078,  -3.03747129,  -8.48556423
    776,  -5.95519304,  -2.69765902,  -8.85212708
    777,  -5.81912613,  -2.59617424,  -9.34114265
    778,  -7.10524654,  -3.93201208,  -8.66250706
    779,  -7.10584354,   -3.4222672,  -8.55940247
    780,  -7.05384874,  -2.93965793,   -8.7149229
    781,  -6.96543837,  -2.59983802,  -9.08439064
    782,  -6.86365652,  -2.49152088,  -9.58276558
    783,  -7.51521206,  -3.93018389,   -8.7280283
    784,  -7.55154657,  -3.41782093,  -8.63379002
    785,  -7.54554272,  -2.94248796,  -8.79671574
    786,  -7.50413942,  -2.60593104,  -9.16757393
    787,  -7.43831015,  -2.49405813,  -9.67340469
    788,  -7.92524338,  -3.96346736,  -8.77083397
    789,  -7.99848413,  -3.45200849,  -8.68324757
    790,   -8.0390377,  -2.98676467,  -8.85115337
    791,  -8.04506111,  -2.65686393,   -9.2218523
    792,  -8.01634121,  -2.54500937,   -9.7330122
    793,  -8.33145523,  -4.03130913,  -8.79080009
    794,  -8.44217873,  -3.52442145,  -8.70738411
    795,  -8.52942848,  -3.07204747,  -8.87769604
    796,  -8.58285046,   -2.7522552,  -9.24666691
    797,  -8.59180069,  -2.64420104,  -9.76085854
    798,  -8.73005199,  -4.13289356,   -8.7879591
    799,  -8.87819195,  -3.63428736,  -8.70603657
    800,  -9.01184273,  -3.19748902,  -8.87607956
    801,  -9.11218262,  -2.89125204,  -9.24175739
    802,  -9.15871048,  -2.79088378,  -9.75656319
    803,  -9.11734295,  -4.26715231,  -8.76249886
    804,  -9.30216217,  -3.78047395,  -8.67926979
    805,  -9.48148441,  -3.36184311,   -8.8463192
    806,  -9.62781811,  -3.07254291,  -9.20716095
    807,  -9.71114349,  -2.98373175,  -9.72010326
    808,  -9.48975372,  -4.43276739,   -8.7147522
    809,  -9.70984173,  -3.96149802,  -8.62738228
    810,  -9.93368721,  -3.56347513,   -8.7887125
    811,  -10.1246567,  -3.29437351,  -9.14321327
    812,  -10.2433138,  -3.22085428,  -9.65182114
    813,  -9.84383583,  -4.62817907,  -8.64519405
    814,  -10.0971451,  -4.17553711,  -8.55090618
    815,  -10.3639555,  -3.80038238,  -8.70382977
    816,  -10.5977917,  -3.55456686,  -9.05054188
    817,  -10.7496662,  -3.49982023,   -9.5524168
    818,   -10.176281,  -4.85159016,  -8.55444145
    819,  -10.4601793,  -4.42044783,  -8.45059776
    820,  -10.7680149,  -4.07020998,  -8.59251595
    821,  -11.0425663,  -3.85054636,   -8.9300642
    822,  -11.2249489,  -3.81769061,  -9.42293358
    823,  -10.4839344,  -5.10097313,  -8.44324589
    824,  -10.7952862,  -4.69378662,  -8.32743549
    825,  -11.1418476,  -4.37027597,   -8.4558773
    826,  -11.4546099,   -4.1793623,  -8.78297234
    827,  -11.6642981,  -4.17106342,  -9.26475334
    828,  -10.7638073,   -5.3740778,      -8.3125
    829,  -11.0990753,  -4.99283171,  -8.18260479
    830,    -11.48174,  -4.69759846,  -8.29527092
    831,  -11.8299007,  -4.53772116,   -8.6107254
    832,  -12.0632982,  -4.55612469,  -9.07956314
    833,  -11.0130863,  -5.66843462,  -8.16323662
    834,  -11.3684483,  -5.31461191,  -8.01748657
    835,  -11.7843142,  -5.04892445,   -8.1122942
    836,  -12.1647949,  -4.92202044,  -8.41503239
    837,   -12.418046,  -4.96871376,   -8.8693409
    838,  -11.2291527,  -5.98136711,  -7.99663305
    839,  -11.6006298,  -5.65592957,  -7.83364296
    840,  -12.0465612,  -5.42076206,  -7.90876436
    841,  -12.4560814,  -5.32838583,  -8.19783401
    842,  -12.7251959,  -5.40438414,  -8.63632107
    843,  -10.9936361,  -4.39642286,  -9.62744141
    844,  -10.3627052,  -4.35934925,  -10.0400238
    845,  -10.3738508,  -3.90222144,  -9.81771278
    846,   -10.435461,  -4.33111334,  -9.58098412
    847,    3.6815958,  -4.46310377,  -6.43616962
    848,   3.97813129,  -4.26917124,  -6.76678562
    849,  -9.94153786,  -4.25552416,  -9.45052719
    850,  -10.1263514,  -3.74799776,  -9.33864307
    851,  -10.3772612,  -4.13658571,  -9.08961296
    852,  -10.4535694,  -4.69758558,  -9.38119316
    853,  -10.0735712,  -4.62485123,  -9.05657005
    854,  -10.7979918,  -4.03466415,  -9.39614487
    855,  -10.7038269,  -4.27534866,  -9.00790882
    856,  -13.4302444,  -10.1661224,  -6.10813618
    857,  -13.7261419,  -10.0952749,  -5.88490343
    858,  -13.7547607,  -10.6847229,   -5.8394022
    859, -0.127503976,  -4.33985901,  -7.83738089
    860,  0.200742528,  -4.77090263,  -8.19087124
    861, -0.226819068,  -4.84202957,  -7.87921095
    862, -0.0289304033,   -4.3927598,  -8.39801788
    863,  0.386123717,  -4.48407078,  -8.13251591
    864, -0.766009152,  -4.77453995,  -7.76049995
    865, -0.477156401,   -4.4756465,  -7.32918596
    866, -0.528102875,  -4.20667839,  -7.98473692
    867,  -14.0475569,  -9.86550713,  -5.77069998
    868, -0.394104213,  -3.89273429,  -7.43715429
    869,  0.321142137,  -4.47533131,  -7.65135193
    870, -0.0388854668,  -4.79288769,  -7.42264032
    871,  -17.1750393,  -15.6362524,  -3.23496008
    872,  -17.4699726,  -15.8728743,  -3.12628508
    873,  -17.3132381,  -15.3637609,  -3.12113237
    874,  0.274558932,  -3.95480061,   -8.0661087
    875, -0.305737108,   -3.7219739,  -7.96045065
    876,  0.190641075,  -3.74672771,  -7.85059643
    877,  -11.1019945,  -4.98070669,  -9.83375549
    878,  -14.5173473,  -10.1941833,  -5.69857979
    879,  -14.1165638,  -10.2702255,  -6.16291618
    880,  -14.0138197,    -10.20508,  -5.59558582
    881,   2.88368559,  -4.08073139,  -7.03364658
    882,  -9.84140491,     -4.75737,  -9.72311401
    883,  -9.64799881,  -4.60923767,  -9.24802208
    884,  -10.0569267,  -4.93399954,   -9.2435751
    885,  -10.3419638,  -4.53321886,  -8.86195469
    886,   -10.526062,  -5.10672998,  -9.06044483
    887,   4.31062984,  -4.40577316,  -7.03528738
    888,    3.8999548,  -4.45935154,  -7.27834749
    889,  -9.90767193,  -4.04863548,  -8.97526836
    890,   2.26728988,  -4.69496965,  -6.61142397
    891,     1.940781,   -4.2851634,  -6.86264563
    892,   1.90322983,  -4.73682356,  -6.76559019
    893,   2.73917818,  -4.71935463,   -6.4428339
    894,   2.41832781,  -5.04532528,  -6.90136003
    895,   2.58901191,  -4.56480265,  -7.03321075
    896,  -14.1009359,  -9.32372665,  -6.94210482
    897,  -14.1357603,  -8.99364662,  -6.82889462
    898,  -13.8821335,  -9.13637829,  -7.26651144
    899,  -9.16095066,  -3.67285085,  -10.2621355
    900,  -8.83080578,  -3.30481601,  -10.0564814
    901,  -8.41609383,  -3.44130349,  -10.2164907
    902,  -9.37970734,  -3.42580438,  -9.94188976
    903,  -9.57440662,  -4.10695887,  -9.94664097
    904,   -9.8133173,  -3.89742851,  -10.1628714
    905,  -4.01160431,  -4.18435907,  -8.28556442
    906,  -8.91084576,  -3.81207228,   -9.7147007
    907,   -8.9681139,  -4.14797592,  -10.1906347
    908, -0.842473388,  -4.09486866,  -7.42691946
    909,  -1.08637881,  -3.82952547,  -7.93991661
    910, -0.744354963,  -3.63256931,  -8.10409927
    911,  -14.4531431,  -9.71692562,  -6.38552856
    912,   3.47218323,   -4.4108429,  -7.45598412
    913,  -1.14465785,  -3.74698234,  -8.37501335
    914, -0.370979697,  -3.95539594,  -8.42803955
    915,  -15.7093315,  -13.9967871,  -4.13129425
    916,  -15.5494919,  -14.0826082,   -3.6101048
    917,  -16.0083866,  -13.6819191,  -3.65461612
    918,  -16.1561508,  -14.4116344,  -3.97256398
    919,  -15.3353224,  -13.7405691,  -3.83397603
    920,  -15.8610134,  -13.5927687,   -4.3564415
    921,  -15.2812471,   -13.868331,  -4.22226477
    922,  -14.5694399,  -12.5869226,   -5.1336813
    923,  -15.8348322,   -13.901474,  -4.73841619
    924,  -16.2148991,  -14.0358324,  -4.40483904
    925,  -16.0463009,  -14.5423346,  -4.42555094
    926,  -15.3533993,  -13.9723406,  -4.56680298
    927,   5.45016909,  -4.89599657,  -6.32226562
    928,    4.9734149,  -4.71584082,  -5.97710514
    929,   5.22722101,  -5.19495678,  -5.90731478
    930,   5.60666847,  -4.75146961,  -5.88348389
    931,   4.88638735,  -4.84572124,  -6.59017372
    932,   5.30050611,  -5.12689447,  -6.76230574
    933,   4.97916555,  -5.29263639,  -6.31054592
    934,  -17.1944466,  -17.0778923,  -2.99906206
    935,   5.80384445,  -4.99213839,  -6.45632935
    936,   5.94683075,  -4.46663046,   -6.3926034
    937,   5.23929262,  -4.47097445,  -6.16285706
    938,  -12.5850248,  -8.48449993,  -7.16993046
    939,   5.50761461,   -4.5924592,  -6.67816544
    940,  -14.9914045,  -12.7427235,  -5.45811796
    941,  -14.9336863,  -12.0643501,  -5.16518211
    942,   -14.919137,  -12.3665838,  -5.70798111
    943,  -15.4093952,  -12.4081278,  -5.53553391
    944,   3.24137092,  -4.88994932,  -6.37963772
    945,   3.29583097,  -4.71992111,   -6.9681654
    946,   3.69650626,  -5.07104397,   -6.3353076
    947,   2.81457949,   -5.1595192,  -6.72007799
    948,   3.33079147,  -5.20515394,  -6.57551193
    949,  -17.4578724,  -16.0175953,  -2.48256373
    950,   -16.967144,  -16.3729362,  -2.84968209
    951,  -17.0323086,   -15.775176,  -2.54846811
    952,  -16.9480476,  -16.4241791,  -2.41070127
    953,  -17.6917667,  -16.1925735,  -2.76812553
    954,   -17.400753,  -16.7099113,  -2.69829702
    955,  -17.0067863,   -16.848156,  -2.33687544
    956,  -16.4985771,  -16.3100128,  -3.19422007
    957,  -16.4038925,  -16.1706963,  -2.67404914
    958,  -16.6304073,  -16.7467384,  -2.88820052
    959,  -16.9464073,  -16.4251213,  -3.32615972
    960,  -15.7230339,  -12.9063997,   -5.2256093
    961,  -13.8534889,  -9.90731335,  -6.98174524
    962,  -13.9298801,  -9.74117374,  -6.27986717
    963,   -13.961236,  -10.1223841,  -6.54936218
    964,  -13.4166689,  -10.0835714,  -6.89308214
    965,  -13.3165503,  -9.80334187,  -6.45477152
    966,  -13.5023403,   -9.5634594,  -7.25921583
    967,  -14.5167475,  -10.4773197,  -6.47315741
    968,  -14.2144585,  -10.6440115,  -6.70946598
    969,  -13.5801077,  -10.5321875,    -6.422575
    970,  -14.3498144,  -10.1181965,  -6.81546593
    971,  -9.48556995,  -4.36623287,   -10.185463
    972,  -9.26789379,  -4.05315161,  -9.49847603
    973,  -9.86668873,  -3.54811668,  -9.65134716
    974,  -9.05800819,  -3.89313841,  -9.06749439
    975,  -9.31445312,  -3.67683864,  -9.23410034
    976,  -9.51132488,  -4.05918884,  -9.04617786
    977,  -6.64635372,  -4.09736681,  -9.52456379
    978,  -13.9022284,  -8.93171406,  -6.49196005
    979,  -13.6736021,  -9.31193829,  -6.72431564
    980,  -13.7379122,  -8.91413307,  -7.29975986
    981,  -9.03866386,  -4.39818287,  -9.87367821
    982,   -8.5835247,  -4.27994728,  -9.56768036
    983,  -9.21682644,  -3.29206347,  -9.66113186
    984,  -8.46036148,  -3.13779187,  -9.40108013
    985,  -7.96623468,  -3.02306032,  -9.82493401
    986,  -8.08742046,   -3.4006207,  -9.14182663
    987,  -3.93327498,  -3.50234818,  -8.35021114
    988,  -4.20644093,  -3.88092375,  -8.48920631
    989,  -4.18899059,  -3.75519347,  -9.08249569
    990,  -3.54446101,  -3.75751352,  -8.50395489
    991,  -4.31546259,  -3.27221704,  -8.59820175
    992,  -4.37896442,  -3.67622757,  -8.28783798
    993,  -4.84762859,  -3.65933466,  -8.90832043
    994,  -4.49004221,  -4.27320337,  -8.64852715
    995,  -4.82899809,  -3.94446683,  -8.44111538
    996,    3.9820714,  -4.82461452,  -7.07016516
    997,   3.60776687,  -5.10124636,  -7.40227032
    998,   -3.7608912,  -3.99525428,   -8.8241291
    999,  -13.5816326,  -9.57005692,  -6.02017975
   1000,  -3.51367927,  -4.19947958,  -8.15853691
   1001,  -2.85241246,  -4.00207472,  -8.50577164
   1002,  -3.06152606,   -4.2771244,  -8.05275345
   1003,  -3.51229167,  -4.41796541,  -8.47153378
   1004,  -4.06301212,  -3.25183582,  -8.97497749
   1005,  -3.51863122,  -3.30633092,  -8.53712463
   1006,  -3.01204348,  -3.69680285,  -8.02960014
   1007,  -3.06013203,  -3.43524718,  -8.69152832
   1008,  -3.36420369,  -3.44741082,  -8.21263599
   1009,  -2.73918629,   -3.4519906,  -8.27781105
   1010,  -2.35320497,  -3.45332718,     -8.44312
   1011,  -2.33752751,  -4.04279232,  -8.45833778
   1012,  -2.27335429,  -4.54706335,  -8.33718967
   1013,  -2.46863008,   -4.4869318,  -8.02705193
   1014,  -2.86505985,  -4.56819868,  -8.43376827
   1015,  -3.07070136,  -4.47869205,  -8.86998463
   1016,  -2.35616779,  -4.51503372,  -8.77340221
   1017,  -2.62329316,  -4.08174706,  -9.08081722
   1018,  -3.97423458,  -4.40992022,  -8.58570671
   1019,  -3.28763127,  -4.17804813,  -9.18456173
   1020,  -6.87684917,   -3.5506978,   -9.5331583
   1021,  -6.69245958,  -3.49117112,  -10.0519876
   1022,  -6.22223091,   -3.5589087,  -9.56940556
   1023,  -6.35291338,  -3.87045956,   -9.9208231
   1024,  -7.40778065,  -4.11029768,  -9.65656662
   1025,  -7.00127172,   -3.8007009,  -10.0327663
   1026,  -6.41450071,  -3.13191056,  -9.70656013
   1027,  -14.1385984,  -9.35978794,  -6.22089148
   1028,   -12.443656,  -6.80016899,  -8.88128757
   1029,   -11.996994,  -7.19814587,  -8.45569229
   1030,  -12.4335489,  -6.89054775,  -8.07715225
   1031,  -12.4214544,  -7.33973169,   -8.6172142
   1032,  -11.7055359,  -6.71627998,  -8.72677231
   1033,  -11.9109516,  -6.64300442,   -9.0376358
   1034,  -12.6603022,  -7.23025751,  -8.86418629
   1035,  -12.7877436,  -6.92272663,  -8.62038422
   1036,  -12.5434084,  -6.39290619,  -8.94879913
   1037,  -12.7541513,  -6.47290945,  -8.50204563
   1038,  -12.1282825,  -6.48804855,  -8.60012054
   1039,  -9.74656296,  -3.54532242,   -9.1508379
   1040,  -11.6399164,  -5.70701265,     -8.93048
   1041,  -10.8557615,  -5.40844631,  -8.92141533
   1042,  -11.3358126,  -5.16540384,  -9.02871037
   1043,  -11.1452971,  -5.36503315,  -8.50360584
   1044,   -11.571208,  -4.99463367,  -8.56915092
   1045,  -11.1521587,  -4.80087566,  -8.71498871
   1046,  -11.6119642,  -5.78405905,  -8.45753098
   1047,  -11.1682673,  -5.95167542,  -8.81377125
   1048,  -16.1864395,  -15.7066441,  -2.88915849
   1049,  -15.9752855,  -15.2380381,  -3.26220608
   1050,  -11.8569565,  -5.35760164,  -8.40689468
   1051,  -13.2418556,  -9.14110756,  -7.47099304
   1052,  -13.2334213,  -8.73096371,  -7.11323118
   1053,  -13.3638496,  -8.74517441,  -6.49744797
   1054,  -13.4134579,  -9.15484047,  -6.24838066
   1055,  -16.0869923,  -14.5785313,  -3.51836419
   1056,  -16.5630016,  -15.2661867,  -3.32867718
   1057,  -16.3880348,  -14.8017864,  -2.93565273
   1058,  -16.6531105,  -14.7001543,   -3.5879097
   1059,  -15.6269674,  -14.6578741,    -3.602072
   1060,  -16.0263538,  -14.2155457,  -3.28678179
   1061,  -16.5504494,  -14.3609781,  -3.40048528
   1062,  -16.4636135,   -14.010087,  -3.53741503
   1063,  -15.9638357,  -14.8767166,  -3.11090374
   1064,  -9.14698982,  -4.48015594,  -9.43330193
   1065,  -8.77038574,  -3.53920555,  -9.20465469
   1066,  -8.36587238,  -3.94018006,  -9.20234489
   1067,   -6.3949914,  -4.03870916,   -8.8545599
   1068,  -6.30561733,  -4.10351896,  -9.34798527
   1069,  -6.72252178,  -4.04993057,  -9.20761776
   1070,  -6.60898733,  -3.55874658,  -8.88663292
   1071,  -6.20855379,  -3.74528933,  -8.78450775
   1072,  -5.95431614,  -4.02187967,   -9.0117588
   1073,  -7.35296392,  -3.13154125,   -10.056881
   1074,  -7.39930725,  -3.51509452,  -9.62197971
   1075,  -7.39587307,  -3.96467304,  -9.27272701
   1076,  -13.2214489,    -7.692554,  -7.26086903
   1077,  -11.7180567,  -6.58832169,  -8.28787613
   1078,  -12.1038132,  -7.56494904,  -8.08171749
   1079,  -12.2384758,  -7.95331097,  -7.77241516
   1080,  -12.3575163,  -7.60482025,  -7.30310011
   1081,  -11.8230267,  -6.27113771,  -8.82139301
   1082,  -12.9826593,  -7.32930231,  -8.41027641
   1083,   4.68414497,   -4.7290802,   -7.2285533
   1084,  -11.1173935,  -4.27198792,  -9.15001011
   1085,   -11.800168,  -4.95811033,  -9.08413029
   1086,  -12.0358591,  -5.12626123,  -8.73872757
   1087,  -10.9244566,  -5.15482807,  -9.47376823
   1088,  -10.8781986,  -5.57146692,  -9.37590122
   1089,  -12.1236954,  -5.55480003,  -9.06854439
   1090,   -11.604001,  -4.87578392,   -9.4631815
   1091,   5.44616556,  -5.56440496,  -6.45371485
   1092,  -11.6800346,  -5.49957275,  -9.52487087
   1093,  -11.8044329,  -6.01131344,   -8.0741272
   1094,  -12.3387251,  -5.60439062,  -8.67298031
   1095,  -10.3152122,  -4.73993921,   -10.017664
   1096,    -10.41574,  -5.25028563,   -9.5085268
   1097,  -16.3617325,  -13.5135336,  -4.35836697
   1098,  -15.8895473,  -13.1392822,  -4.72975969
   1099,  -15.9044476,   -12.969511,   -4.0880146
   1100,  -15.4194984,  -13.2814455,  -4.14088964
   1101,  -12.4922132,  -5.90289307,   -8.4840641
   1102,  -15.2423944,  -13.6453476,  -4.80680656
   1103,  -15.9111309,  -13.2485838,  -3.89633203
   1104,  -12.2084637,  -6.42349339,  -7.93638086
   1105,  -10.7345457,  -4.62593985,  -8.69952488
   1106,  -16.9470692,   -16.595665,  -1.99277973
   1107,  -17.2895908,  -16.0301552,  -2.19660401
   1108,  -17.3775272,  -16.5822716,  -2.14970255
   1109,  -14.3660135,  -10.6977329,  -5.86690569
   1110,  -14.0864115,  -10.9759912,  -6.37686729
   1111,  -1.96604908,  -3.57723403,  -7.97324467
   1112,  -1.92991114,  -3.99319196,  -7.64948559
   1113,   -2.2400775,  -4.16262531,  -7.77790976
   1114,  -1.72726452,  -4.03226089,  -8.13553429
   1115,  -2.40243268,  -3.65517807,  -7.84154844
   1116,  -1.57596219,  -3.86346102,  -7.65760565
   1117,  -1.81867731,  -3.58958244,   -8.5544672
   1118,  -1.48976564,  -3.54503918,  -8.18420887
   1119,   5.61874962,  -5.30667448,  -5.85633659
   1120,   6.14077282,  -5.39736462,  -6.41021395
   1121,     6.200634,  -5.68991566,  -6.08724403
   1122,    6.1111784,  -5.22987938,  -5.92871141
   1123,   2.45427179,  -4.32276583,  -6.67637825
   1124,   3.07882142,  -4.41587448,  -6.45403814
   1125,  -14.8239498,  -12.3702936,   -4.4738431
   1126,  -14.9052114,  -12.7799482,  -4.72369671
   1127,  -14.9663801,  -12.9427128,  -4.24634743
   1128,  -15.5912209,  -12.4450579,  -4.48758554
   1129,  -15.4224882,   -12.743556,  -4.10803604
   1130,  -15.2205715,  -12.4817152,  -4.95899677
   1131,    -15.02075,  -11.8695421,  -4.60689354
   1132,  -14.6090565,  -12.4433422,  -4.75339651
   1133,  -1.08836794,  -4.47979975,  -7.53098106
   1134,  -1.49634719,  -4.72926807,  -7.99659491
   1135,  -1.56654501,  -4.42050838,  -7.63049698
   1136,  -1.23469579,  -4.29392529,  -7.90368319
   1137,   4.38437271,   -5.1244154,  -7.24398708
   1138,   4.98438835,  -5.21404934,  -7.02837324
   1139,   5.00643396,   -4.4943347,   -6.9428196
   1140,   4.16821003,  -5.06104088,  -6.71579123
   1141,  -2.51239681,  -3.90069079,  -8.05780411
   1142,  -1.84268975,  -4.36561584,  -8.79512882
   1143,   6.25012922,  -5.28522062,  -6.79623842
   1144,   5.58867741,  -5.20620108,  -6.94876289
   1145,    6.0206151,  -4.83785105,  -6.90088749
   1146,   6.27588558,  -4.81124163,  -6.42488718
   1147,  -5.15149355,  -3.07672167,  -9.13942719
   1148,  -5.00184965,   -3.2362287,  -9.45728588
   1149,  -5.40849829,  -3.39515638,  -8.61995602
   1150,  -5.55422831,  -3.51297164,  -9.09092617
   1151,  -4.67887354,  -3.15433478,  -9.00946045
   1152,  -5.67830658,  -3.00433421,  -9.22848129
   1153,  -16.7151928,  -15.3701496,  -2.79277778
   1154,  -17.3285332,  -16.4989777,  -3.17657924
   1155,  -1.21395183,  -4.17346525,  -8.41001797
   1156, -0.818798304,  -4.28599405,  -8.61528587
   1157,  -5.65505791,  -3.91466212,  -9.75156116
   1158,  -5.51909256,  -4.22176361,  -9.32631493
   1159,     5.414114,  -4.65527058,   -6.9688673
   1160,  -15.4912891,  -13.3860416,   -5.1139431
   1161,  -16.5715027,  -15.5631838,  -2.52722788
   1162,  -5.15378523,  -3.64272475,  -9.70451069
   1163,  -5.15112782,  -4.20715237,   -9.6005888
   1164,   -6.0467205,  -3.25813746,  -9.28603458
   1165,  -6.07860327,  -2.96634722,  -9.43715763
   1166,  -5.45693731,  -3.21236897,  -9.51497269
   1167,  -5.88452101,  -3.31992674,  -8.74660587
   1168,  -5.16324377,  -3.82250142,  -8.55455399
   1169,  -4.96127796,   -4.2467947,  -8.77686882
   1170,  -4.48631859,  -3.51638341,   -9.4945879
   1171,  -4.86892319,  -3.93868732,  -9.28715515
   1172,   -1.9389751,  -4.55241632,  -7.90242481
   1173,  -1.55328643,  -4.72562075,  -8.24668217
   1174,  -14.2853231,  -9.76039982,  -6.97508097
   1175, -0.531530499,  -4.68753529,  -8.31975269
   1176,  0.573688149,  -4.95317125,  -7.87902021
   1177,  0.343766987,  -4.87702179,  -7.42697334
   1178,  -11.4521961,  -6.27180624,   -8.4094677
   1179,  -13.1035576,  -8.33368778,  -7.38810778
   1180,   -12.792614,  -8.43961334,  -6.81692362
   1181,  -12.7071962,  -8.02533913,  -7.04485893
   1182,  -13.0835466,  -8.18829536,  -6.77867365
   1183,  -13.4143772,   -8.7217598,  -7.77662277
   1184,  -13.6880474,   -8.3377676,  -7.51624107
   1185,    -13.26367,  -8.35815239,  -7.98660517
   1186,  -12.7242308,    -8.289711,  -7.62718391
   1187,  -13.0445366,  -7.94008732,  -7.76342916
   1188,  -13.5313416,  -7.87581205,  -7.30660725
   1189,   4.45261669,  -4.96860981,  -6.10968113
   1190,  -12.6608973,   -7.3869195,   -7.9808445
   1191,  -13.1445932,  -7.12335205,  -7.82306242
   1192,  -12.6976433,  -6.80116224,  -7.65589046
   1193,  -12.4448109,  -7.97201157,  -7.47161674
   1194,  -12.9218149,  -7.34326124,  -7.26809025
   1195,  -12.3952951,  -7.21887684,  -7.38880014
   1196,  -11.9620848,  -7.17961025,  -7.99286175
   1197,  -13.3260498,  -7.50374508,  -7.63483286
   1198,  -12.4598627,  -7.63967228,   -8.4379034
   1199,  -16.3897285,  -15.0151701,  -3.87360835
   1200,  -16.8703365,  -15.5387735,   -3.7221694
   1201,  -16.8117256,  -15.0529327,  -3.80698156
   1202,  -11.2310686,  -5.86050749,  -9.33784676
   1203,  -16.6873169,  -14.6870461,  -4.07204151
   1204,   -16.024725,  -15.3108273,  -3.73582244
   1205,   -7.7299962,  -3.03025937,  -9.55547428
   1206,  -7.83664083,  -3.47088861,  -10.1802826
   1207,  -7.93444729,  -3.69551086,  -9.51974964
   1208,   4.13880301,   -4.6152401,  -6.19493294
   1209,   4.44502926,  -4.31139135,  -6.47497272
   1210,  -13.0128288,  -8.68921185,  -6.53872919
   1211,   4.36236858,  -5.30158234,  -6.27738667
   1212,  -17.8211861,  -16.6134853,   -2.8959024
   1213,  -14.5301876,  -11.1895304,  -6.46131802
   1214,    -14.51752,  -11.4470787,  -5.90730858
   1215,  -17.0424595,  -16.0018005,  -2.91021132
   1216,    -17.78578,  -16.3432751,  -2.33405566
   1217,   1.95537937,  -4.47076416,  -7.24222088
   1218,   2.29117799,  -5.20154476,  -7.27734661
   1219,   1.41197562,  -3.99879003,  -7.12081861
   1220,   1.83469975,  -4.03096914,  -7.55823803
   1221,   2.23049927,  -4.00507259,  -7.06351995
   1222,   2.58310843,  -5.00522184,  -7.63149929
   1223,   2.30993605,  -4.13048124,  -7.52974939
   1224,  -13.8359079,  -8.51268196,  -6.94662237
   1225,  -13.6160994,  -8.13583088,  -7.01858997
   1226,  -16.3634834,   -13.602972,  -3.87750387
   1227,  -16.6592903,  -14.1310043,  -3.81934881
   1228,  -3.69146037,  -4.20267773,  -9.21670628
   1229,  -16.1595325,  -12.8592052,  -4.43065929
   1230,  -12.8683167,  -9.11382675,  -6.82619905
   1231,  -12.7446165,  -8.92743015,  -7.37165546
   1232,  -13.0923691,  -9.48662949,   -7.0227561
   1233,  -13.0390768,   -8.6088171,  -7.77135706
   1234,  -16.1648846,  -15.7215843,   -3.4253602
   1235,  -16.6758652,  -16.0246429,  -3.37882471
   1236,  -13.1389236,  -7.73329687,  -8.19779873
   1237,  -12.7659845,  -8.12468243,  -8.14191055
   1238,  -11.9908819,  -6.94734049,  -7.74173069
   1239,  -14.4942102,  -10.5166578,  -5.42638159
   1240,  -13.9600935,  -10.8719749,  -5.44758368
   1241,  -16.2843857,  -15.1731901,  -2.78299451
   1242,  -13.2520542,  -7.13209486,  -7.48382521
   1243,  -4.88200378,  -3.42639637,  -8.51117897
   1244,  -5.61559772,  -3.77052379,  -8.67453194
   1245,  -5.38296175,  -4.15582085,  -8.87172508
   1246,  -7.18375015,   -2.9286561,  -9.57582474
   1247,   3.80343723,  -5.25234509,  -6.95679235
   1248,   -7.4817977,  -3.19493794,  -9.12025547
   1249,  -8.40690708,  -3.62332082,   -9.6463871
   1250,  -8.06364536,  -3.93698788,  -10.1942368
   1251,  -7.85801792,  -4.05579948,  -9.84306526
   1252,  -7.57119894,  -3.85150409,  -10.1414537
   1253,  -6.43118668,  -3.02923775,  -9.17249203
   1254,   -6.8624115,  -3.11603904,  -9.75109673
   1255,  -5.82175589,    -3.337641,  -9.80779552
   1256,   3.25771642,  -5.34253883,  -7.03115463
   1257,   2.75366831,  -5.20341301,  -7.20454693
   1258,  -17.0612564,   -15.186451,  -3.44328117
   1259,  -16.7482281,  -14.6079683,  -3.17491794
   1260,  -12.1942272,   -6.2551837,  -9.16941166
   1261,   1.79209471,  -5.06675386,  -7.03554678
   1262,  -9.88354015,  -4.49064922,  -10.1152334
   1263,  -17.1421242,  -15.9788218,  -3.49361038
   1264,  -12.9160547,  -6.61870575,  -8.18077946
   1265,  -12.3921938,  -6.03868341,  -9.02323341
   1266,  -11.4596605,  -6.16642523,  -9.17692852
   1267,  -2.68858671,  -3.43996358,  -8.94106197
   1268,  -6.85510778,  -3.21955514,  -8.97594643
   1269,  -7.94634533,  -3.64900708,  -9.07003403
   1270,  -7.22358656,  -3.58262849,  -9.14663696
   1271,  -3.92402005,  -3.72406483,  -9.39003658
   1272,  -4.44785738,  -3.97755933,  -9.53148556
   1273,  -4.41774702,  -4.24971294,  -9.11297989
   1274,  -4.91357803,  -4.34874487,  -9.16174316
   1275,  -8.00813198,  -4.13904905,  -9.42102623
   1276,    -8.417799,  -4.18614769,  -9.83447361
   1277,   -15.226326,  -11.8086233,  -5.38900566
   1278,  -14.6652269,  -11.9391193,  -5.91516924
   1279,  -14.5128841,  -12.0727968,  -5.55797434
   1280,  -15.0463953,  -12.0843906,  -5.75381994
   1281,  -11.9330626,  -5.83290195,  -9.38165474
   1282,  -11.8438978,  -6.11425638,   -9.4085474
   1283,   2.74356055,  -4.46305323,  -7.70588875
   1284,   3.07717609,  -4.68308258,   -7.7557354
   1285,  -8.48551178,  -3.94973087,  -10.2326899
   1286,  -3.24213004,  -3.62098145,  -9.14968395
   1287,  -14.8410845,  -10.7415285,  -6.17958164
   1288,   1.10173929,  -3.91666412,  -7.70227146
   1289,  0.896804392,  -4.07026434,  -7.14465761
   1290,   1.25528836,  -4.65983105,  -6.95810366
   1291,  0.646435201,  -4.11221027,  -8.21335602
   1292,  0.639331698,  -3.82823324,  -7.73377752
   1293,  0.804691434,  -4.59555912,   -7.7652607
   1294,   1.14686167,  -4.49137449,  -8.13146877
   1295,   6.09263325,  -4.79459667,  -5.72839737
   1296,  0.755743563,  -4.75808954,  -7.09440517
   1297,   1.23349416,  -4.96104813,  -7.31486273
   1298,  -14.4067011,  -10.9938068,  -5.14172649
   1299,  0.217193216,  -4.49421024,  -7.11632633
   1300,  -15.0418234,  -13.4894466,  -4.30609989
   1301,  -15.4002018,  -12.9801779,  -4.69899702
   1302,   3.06835723,  -4.99039745,  -7.50155497
   1303,   3.10828876,  -4.28109312,  -7.41404104
   1304,  -15.8309793,  -14.8865747,  -3.92959285
   1305,  -16.9562321,  -14.6992922,  -3.65357232
   1306,  -15.9185734,  -13.4108534,  -5.02635241
   1307,   1.49645996,  -4.76544142,  -7.97951746
   1308,  -3.58162069,  -3.44295216,  -9.03252125
   1309,   1.92807615,  -4.60081339,  -7.69279242
   1310,    3.3709712,  -4.14128637,  -6.92143726
   1311,   1.04491138,  -4.98105335,  -7.86255169
   1312,  0.839728236,  -5.02476311,  -7.60713196
   1313,  0.340361625,   -4.1001358,  -7.17351055
   1314,  -2.11954737,  -4.05688763,  -8.94949341
   1315,  -5.46635771,  -3.41756797,  -9.83629894
   1316,  -15.3275175,  -12.8696356,  -5.21236372
   1317,  -15.8522139,  -12.6580877,  -4.90877247
   1318,  -14.8983946,   -11.181983,  -6.04344559
   1319,  -15.1323195,  -11.6940985,  -5.89191103
   1320,  -14.4492455,  -11.4887323,  -5.31008768
   1321,  -14.1293612,  -11.6841307,  -5.73286915
   1322,  -14.3303804,  -11.7332907,  -6.02999783
   1323,  -13.9264717,  -11.2877827,  -5.96104622
   1324,   -14.905818,   -10.983695,  -5.20260906
   1325,  -14.7459784,  -11.3489046,  -4.96393919
   1326,  -14.2577457,  -11.8431473,  -5.19353867
   1327,  -14.9631948,  -10.9861231,  -5.63374472
   1328,  -15.1899538,  -11.4007215,  -5.12125301
   1329,  -1.03181052,  -4.72377491,  -8.26574135
   1330,   1.45058644,  -4.49132681,  -7.52604485
   1331,   1.72982144,  -5.06943989,  -7.58399487
   1332,  -13.1469212,  -9.37108612,  -6.48141146
   1333,  -16.9759941,  -15.0319033,  -2.85277224
   1334,    4.6479435,  -5.49241209,  -6.69072866
   1335,   4.92234087,  -4.36573362,  -6.35297728
   1336,   -15.334342,  -11.6766243,  -4.91240406
   1337,  -4.09974194,  -3.38950729,  -9.40911388
   1338,  -15.4303951,  -14.3221397,  -4.08892155
   1339,   1.59387505,  -4.19760799,   -7.9463315
   1340,  -13.3804913,  -7.80715179,  -7.99312449
   1341,  -1.39781177,   -3.9348619,  -8.72356319
   1342,  -1.35954142,  -4.45811987,  -8.71008778
   1343,  -15.5371227,  -12.0574503,  -4.71304798
   1344,  -15.1271267,  -13.2857504,  -4.96049547
   1345,   -15.672617,  -12.2970943,  -5.22640181
*Element, type=C3D4
   1,  843,  844,  845,  846
   2,  847,  671,  848,  676
   3,  846,  849,  845,  850
   4,  846,  851,  849,  850
   5,  849,  852,  851,  846
   6,  853,  849,  852,  851
   7,  846,  854,  855,  851
   8,  846,  852,  851,  855
   9,  856,  498,  857,  858
  10,  859,  860,  861,  862
  11,  859,  863,  860,  862
  12,  859,  864,  865,  866
  13,  867,  499,  494,  495
  14,  868,  869,  870,  859
  15,  871,  872,  873,   21
  16,  859,  869,  863,  874
  17,  859,  875,  862,  866
  18,  859,  876,  875,  868
  19,  877,  586,  843,  587
  20,  876,  869,  868,  859
  21,  867,  501,  878,  500
  22,  867,  879,  880,  878
  23,  881,   95,  687,  682
  24,  867,  880,  857,  499
  25,  853,  849,  882,  852
  26,  853,  883,  168,  884
  27,  885,  853,  818,  886
  28,  853,  849,  883,  882
  29,  337,  887,   97,  888
  30,  885,  889,  813,  853
  31,   22,   21,  873,  572
  32,  853,  849,  851,  889
  33,  890,  689,  891,  892
  34,  890,  892,  688,  689
  35,  890,  893,  894,  895
  36,  896,  897,  898,   38
  37,  890,  688,  892,  894
  38,  899,  591,  900,  901
  39,  899,  902,  900,  156
  40,  155,  902,  590,  156
  41,  902,  590,  156,  899
  42,  902,  903,  904,  899
  43,  905,  127,  748,  128
  44,  903,  899,  906,  907
  45,  721,  908,  909,  910
  46,  911,  497,  492,   37
  47,  362,  912,  888,  336
  48,  910,  727,  909,  726
  49,  910,   86,  913,  727
  50,  910,  913,  914,  866
  51,  910,  866,  908,  909
  52,  910,  914,   87,  875
  53,  915,  916,  917,  918
  54,  919,  920,  921,  915
  55,  922,   64,  300,  301
  56,  915,  920,  923,  924
  57,  915,  925,  924,  923
  58,  915,  926,  920,  921
  59,  927,  928,  929,  930
  60,  927,  931,  932,  933
  61,  934,   17,  180,   16
  62,  927,  930,  935,  936
  63,  927,  928,  937,  931
  64,  938,  311,   54,  310
  65,  927,  936,  935,  939
  66,  940,  941,  942,  943
  67,  944,  945,  847,  946
  68,  944,  946,  674,  673
  69,  944,  678,  893,  947
  70,  944,  948,  946,  673
  71,  949,  950,  951,  952
  72,  953,  954,  950,  949
  73,  950,  955,  952,  954
  74,  950,  956,  957,  958
  75,  950,  958,  952,  955
  76,  950,  934,  959,  958
  77,  196,  943,  960,  222
  78,  961,  962,  911,  963
  79,  961,  964,  965,  963
  80,  965,  966,  964,  961
  81,  963,  967,  879,  911
  82,  963,  879,  968,  969
  83,  255,  963,  970,  968
  84,  963,  255,  969,  968
  85,  963,  968,  879,  967
  86,  903,  603,  971,  602
  87,  903,  849,  883,  972
  88,  903,  972,  902,  973
  89,  903,  972,  973,  849
  90,  972,  974,  975,  976
  91,  975,  849,  973,  972
  92,  977,  647,  634,  134
  93,  978,  979,  897,  980
  94,  973,  845,  904,  903
  95,  882,  849,  883,  903
  96,  899,  903,  904,  603
  97,  972,  981,  906,  982
  98,  972,  983,  906,  902
  99,  972,  983,  973,  975
 100,  902,  903,  899,  906
 101,  791,  984,  985,  986
 102,  987,  988,  989,  990
 103,  991,  988,  989,  987
 104,  988,  991,  992,  987
 105,  988,  993,  991,  989
 106,  988,  993,  994,  995
 107,  988,  994,  905,  753
 108,  996,  997,  362,  389
 109,  990,  988,  989,  998
 110,  989,  994,  998,  988
 111,  999,  962,  856,  857
 112, 1000, 1001, 1002, 1003
 113,  987, 1004,  757, 1005
 114, 1006,  990, 1007, 1001
 115, 1008, 1006,  990, 1007
 116, 1009, 1007, 1010, 1011
 117, 1001, 1012, 1013, 1014
 118, 1015, 1014, 1016, 1001
 119, 1011, 1001, 1012, 1013
 120, 1001, 1011, 1016, 1017
 121,  905, 1018,  127,  128
 122, 1016, 1001, 1012, 1011
 123, 1011, 1007, 1010, 1017
 124, 1001, 1019, 1007, 1017
 125, 1020, 1021, 1022, 1023
 126, 1020,  977, 1024, 1025
 127, 1020, 1022, 1021, 1026
 128,  492,  897, 1027,  896
 129, 1028, 1029, 1030, 1031
 130,  289, 1032, 1033, 1028
 131, 1028, 1034, 1035,  237
 132,   47, 1036,   46, 1028
 133, 1028, 1037, 1030, 1038
 134,  850,  889, 1039,  810
 135, 1028, 1037, 1038, 1036
 136, 1040, 1041, 1042, 1043
 137, 1043, 1044,  829, 1045
 138, 1043, 1046, 1040, 1047
 139, 1043, 1044,  834,  829
 140, 1048,  293, 1049,   72
 141, 1043, 1046,  834, 1050
 142,  979, 1051,  980, 1052
 143, 1027,  897,  979,  896
 144,  979, 1052,  980, 1053
 145,  978, 1027,  897,  979
 146,  979, 1054, 1053,  978
 147, 1055, 1056, 1057, 1058
 148, 1055,  548, 1059,  916
 149,  918, 1060, 1061, 1055
 150, 1062,  918, 1060, 1061
 151,  553,  548, 1059, 1055
 152, 1055, 1059,  553, 1063
 153, 1055, 1061, 1057, 1060
 154,  974,  804,  976,  803
 155,  972,  974,  976, 1064
 156,  974,  906, 1065,  982
 157,  972,  906,  974,  982
 158,  982,  798, 1066, 1065
 159,  798,  974, 1065,  982
 160,  974,  975,  804,  799
 161,  974,  975,  799, 1065
 162, 1067, 1068,    8, 1069
 163, 1067, 1068, 1070, 1071
 164, 1067,  773, 1071,  178
 165, 1067, 1071,  773, 1072
 166, 1067, 1072, 1068, 1071
 167, 1073, 1025, 1021, 1074
 168, 1025, 1021, 1023,  621
 169, 1025,  634, 1023,  977
 170, 1074, 1020, 1075, 1024
 171, 1020, 1069, 1075,  977
 172,  647, 1024,  977,  634
 173, 1024,  977,  634, 1025
 174, 1014, 1015,  426, 1003
 175, 1014,  401, 1016,  427
 176, 1014, 1015,  400,  426
 177, 1076,  470,  471,  475
 178, 1077,   50,  315,    4
 179,   52, 1078, 1079, 1080
 180, 1014, 1016, 1001, 1012
 181, 1001, 1002, 1014, 1013
 182, 1040, 1046, 1081, 1047
 183, 1034,  210, 1082, 1035
 184, 1014,  125, 1013, 1002
 185,  365,  364, 1083,  338
 186,  851,  850,  846,  854
 187,  854,  855,  816,  821
 188,  854,  821, 1084,  855
 189,  854,  153,  845,  843
 190,  854,  843,  822,  152
 191,  854,  153,  843,  152
 192,  854,  843, 1084,  822
 193, 1043, 1044, 1050,  834
 194, 1044, 1085,  831, 1045
 195, 1044, 1042, 1086, 1085
 196, 1043, 1045,  828, 1041
 197, 1042, 1087, 1041, 1088
 198, 1043, 1044, 1042, 1050
 199, 1086, 1089, 1085, 1042
 200, 1042, 1040, 1050, 1086
 201, 1042, 1087, 1090, 1045
 202,  935,  932, 1091,  927
 203,  886, 1041, 1045, 1087
 204, 1044,  836, 1086, 1050
 205, 1044, 1050,  835,  836
 206, 1092, 1087, 1090, 1042
 207, 1093,  841, 1050, 1094
 208, 1087,  852, 1095,  843
 209, 1096, 1095,  613, 1087
 210, 1087,  611,  877,  612
 211, 1092,  611,  877, 1087
 212,  920, 1097, 1098,  194
 213,  920, 1099, 1100, 1098
 214, 1101,    3,  147,  148
 215,  920, 1100, 1102, 1098
 216,  920, 1099, 1097, 1103
 217,  983,  900,  156,  802
 218,  983, 1065,  906,  900
 219,  983,  800,  975, 1065
 220,  983,  984, 1065,  900
 221,  983,  805,  975,  800
 222,  972,  906,  983,  975
 223,  900,  984,  797,  983
 224,  805,  983, 1039,  806
 225,  850,  975, 1039,  976
 226, 1039,  850,  973,  975
 227, 1039,  850,  811,  973
 228,  975,  805,  983, 1039
 229,  877,  600,  612,  599
 230,  889, 1039,  810,  809
 231,  849,  883,  976,  889
 232,  972,  974, 1064,  982
 233,  982,  974,  803,  798
 234,  976, 1064,  803,  883
 235,  975,  804, 1039,  976
 236,  974,  975,  976,  804
 237, 1104,  457,  455, 1101
 238,  820,  855,  815,  819
 239,  885,  819,  851,  855
 240, 1092,  150, 1090,  585
 241,  855,  825, 1084, 1045
 242,  825, 1105,  855,  820
 243, 1105,  886,  885,  823
 244,   44, 1037, 1036,    3
 245, 1105, 1045,  886,  823
 246,  823, 1105,  819,  885
 247,  952,  578,  574, 1106
 248, 1106,  952, 1107,  574
 249, 1106,  952,   75,  955
 250, 1106, 1108,  952,  955
 251, 1106, 1108,  181,  580
 252, 1106,   10,  580,  181
 253, 1106,  181,    9,   10
 254, 1106,  179,  578,    9
 255,  879, 1109, 1110,  858
 256,  879,  858,  880, 1109
 257,  879,  880,  878, 1109
 258,  879,  857,  969,  963
 259,  879,  969, 1110,  968
 260,  878,  911,  867,  879
 261,   59,  305,  858,  306
 262, 1111, 1112, 1113, 1114
 263, 1115, 1112, 1113, 1111
 264, 1111,  730, 1112, 1116
 265, 1111, 1115, 1112,  735
 266, 1111, 1112,  730,  735
 267, 1111, 1116, 1112, 1114
 268,  732, 1111, 1117, 1118
 269, 1111,  731, 1118,  732
 270,  108,  107, 1091, 1119
 271, 1120, 1121,  445,  451
 272, 1121,  106,  451,  450
 273, 1121,  106,  450,    7
 274, 1121,    7,  450,  107
 275, 1121,  648, 1119,  107
 276, 1121,  450, 1122,  648
 277,  893, 1123,  685, 1124
 278, 1069,    8,  178,  161
 279, 1124,  893,  945,  944
 280,  944,  893,  679, 1124
 281,  893,  947,  678,  683
 282,  893,  945,  947,  895
 283,  893,  945,  944,  947
 284,  685, 1124,  680,  893
 285,  893, 1124,  680,  679
 286, 1125, 1126,  528, 1127
 287, 1126, 1128, 1129, 1125
 288, 1125, 1126, 1128, 1130
 289, 1128,  530,  529, 1131
 290,  524,  529,  525, 1131
 291, 1125, 1131,  523, 1132
 292, 1125, 1132, 1126, 1130
 293, 1133, 1134, 1135, 1136
 294, 1133,  719,  908,  724
 295, 1133,  908,  719,  865
 296, 1133,  866,  908,  865
 297, 1133,  864,  718,  121
 298, 1133,  122,  864,  121
 299, 1083,  887,   98,   97
 300, 1083,  337,  888,  887
 301, 1083,  931, 1137, 1138
 302, 1083,  365, 1139, 1138
 303, 1083, 1139,   98,  887
 304, 1137, 1083, 1140,  931
 305, 1083,  337,  887,   97
 306, 1011, 1113, 1141, 1013
 307,  915,  916,  919,  917
 308, 1001, 1141, 1002, 1013
 309, 1001, 1017, 1016, 1015
 310, 1011, 1016, 1142, 1012
 311,  103,  447,  367,  104
 312, 1120, 1143,  393, 1144
 313, 1143, 1144,  935, 1145
 314, 1143,  935, 1120, 1146
 315,  367,  447,  341, 1145
 316,  451, 1143,  393, 1120
 317, 1086,  832,  837,  836
 318, 1143,  104,  451,  393
 319, 1147, 1148,   77,   78
 320, 1147,  993, 1149, 1150
 321,  909,  727, 1118,  726
 322, 1147,  993, 1148, 1151
 323, 1147,   78, 1151, 1148
 324, 1147,  771, 1152, 1149
 325,  767, 1147,   78, 1151
 326,  867,  500,  496,  501
 327,  951, 1153,  871,  873
 328,  871,  951,  873,  872
 329,  872,  873,   21,  572
 330,  872, 1154,  953,   20
 331,  872,  871,  188,   21
 332,  872,  949,  572,  577
 333,  872,  577,  953,  949
 334,  909,  721,  726,  725
 335,  910,  721,  726,  909
 336,  913,  909,  866,  910
 337,  914,   86,  327,  326
 338,  909, 1114, 1155, 1136
 339,  866, 1156, 1155,  914
 340,  910,  721,  875,  722
 341, 1068, 1072,  132,  420
 342, 1068, 1157, 1072, 1158
 343, 1067,  132, 1068, 1072
 344, 1068, 1022, 1070, 1071
 345, 1068, 1022, 1023,  977
 346,  365, 1144, 1159,  932
 347,  923, 1102,  246, 1160
 348,  927,  935,  932,  939
 349,  939,  932, 1144,  935
 350, 1144,  939, 1145, 1159
 351,  932,  931,  939, 1139
 352,  950,  955,  934,  958
 353,  952,  958,   75,  955
 354,  951,  957,  573,  952
 355, 1161,  957,  573,  951
 356,  952,  951,  574,  573
 357,  573,  952,  578,  574
 358, 1106, 1107,  952, 1108
 359, 1106,  955,  181, 1108
 360, 1006,  741, 1009,  746
 361, 1006,  746, 1008,  745
 362, 1006, 1009, 1007, 1008
 363, 1006, 1008,  990,  744
 364, 1006,  741, 1115, 1009
 365, 1009, 1141, 1115, 1006
 366, 1006, 1141,  739, 1002
 367,  923,  920,  194,  193
 368, 1162, 1163, 1158, 1157
 369,  776, 1164, 1165, 1152
 370, 1152, 1166,   76,   77
 371, 1152, 1150, 1167, 1164
 372, 1152,   77, 1147, 1166
 373,  993, 1168, 1169,  995
 374,  993, 1149, 1150, 1168
 375, 1147,  993, 1150, 1148
 376,  993, 1148, 1170, 1171
 377, 1134, 1172, 1173,  429
 378, 1134, 1135, 1172,  123
 379,  970, 1174,  911,  961
 380,  970,  911,   35,  967
 381,  961,  255,  963,  970
 382,  970,  968,  229,  255
 383,  970,  961,  229, 1174
 384,  970,  228,  968,  967
 385,  970,  229,  968,  228
 386,  861,  406, 1175,  862
 387,  860,  433, 1176, 1177
 388,  860,  869, 1176,  863
 389,  860,  862,  863,  381
 390,  406,  860,  862,  861
 391,  860, 1176,  433,  407
 392,  937,  657,  936,  939
 393, 1046, 1081, 1047, 1178
 394,  840, 1093, 1050,  839
 395, 1093, 1050,  839, 1046
 396, 1043,  834, 1046,  833
 397, 1046, 1050,  839,  834
 398, 1046, 1093, 1178,  838
 399, 1043,  833, 1046, 1047
 400, 1094,  837,  842,  841
 401, 1043, 1040, 1046, 1050
 402, 1179, 1180, 1181, 1182
 403, 1179, 1183, 1052, 1184
 404, 1183, 1185, 1184, 1179
 405, 1186, 1187, 1185, 1179
 406, 1179, 1188, 1184, 1182
 407, 1179, 1180, 1182, 1052
 408,  928,  654,  929,  930
 409, 1189,  928,  659,  933
 410,  927,  929,  928,  933
 411,  928, 1189,  931,  933
 412,  933,  928,  659,  929
 413, 1190, 1030, 1191, 1192
 414, 1193, 1194, 1080, 1190
 415, 1194, 1080, 1190, 1195
 416, 1190, 1196, 1030, 1195
 417, 1190, 1196, 1029, 1030
 418, 1190, 1197, 1187, 1194
 419, 1190, 1198, 1031, 1078
 420, 1199,  216, 1200, 1201
 421, 1202,  624,  636,  623
 422, 1199, 1058,  918, 1203
 423, 1199, 1056, 1200, 1204
 424, 1097,  542, 1103, 1099
 425, 1199,  243, 1204,  242
 426, 1112, 1113, 1114, 1172
 427, 1115, 1010,  736, 1111
 428, 1112,  728, 1135,  729
 429, 1202,  623,  611,  624
 430, 1111, 1116,  731,  730
 431, 1112, 1113,  734, 1115
 432, 1112,  734, 1113,  729
 433, 1114, 1135, 1172, 1136
 434, 1114, 1111, 1141, 1113
 435, 1141, 1111, 1011, 1010
 436, 1111, 1114, 1011, 1117
 437, 1112, 1135, 1114, 1116
 438, 1140, 1083,  887,  931
 439,  887,  848,  996, 1140
 440, 1205, 1206, 1074, 1207
 441, 1140,  847,  946, 1208
 442, 1140, 1209, 1208, 1189
 443,  479, 1053, 1182, 1210
 444, 1189, 1140,  931, 1211
 445, 1140,  848,  996,  847
 446,  953, 1212, 1154,  954
 447,  917,  549, 1060,  916
 448,   20, 1212, 1154,  953
 449, 1213, 1110, 1214,  252
 450,  872, 1215,  953, 1154
 451,  953, 1216,  582, 1212
 452,  953, 1212,  582,   19
 453,  953,   20, 1212,   19
 454, 1217,  895,  894, 1218
 455, 1219, 1220, 1221,  891
 456, 1217,  895, 1218, 1222
 457,  891, 1220, 1221, 1223
 458, 1217,  895, 1222, 1223
 459,  895,  891, 1223, 1217
 460, 1224,  482,  481, 1225
 461, 1123,  891, 1221,  895
 462, 1226, 1227,  552, 1097
 463, 1097,  924, 1226, 1227
 464,  955,  290,   75,  179
 465,  542, 1103, 1226, 1097
 466, 1228,  346,  347,  373
 467,  920, 1103, 1097, 1226
 468, 1097, 1226,  542,  547
 469, 1097, 1099, 1229,  542
 470, 1097, 1229, 1098,   27
 471,   55,  938,  310, 1230
 472,  877,  600,  613,  612
 473, 1231, 1051,  284, 1232
 474, 1041,  638,  171,  637
 475, 1231, 1186,  285, 1233
 476, 1231, 1052, 1233, 1051
 477, 1179, 1186, 1231, 1233
 478, 1080,  464, 1195, 1194
 479, 1080,  469, 1194, 1181
 480, 1193, 1181,  468, 1080
 481, 1080, 1194, 1193, 1181
 482, 1080,  464, 1194,  469
 483, 1106,  574, 1107,  579
 484, 1106,  579, 1107,  580
 485, 1107,  952, 1108, 1216
 486, 1107,  951,  949,  576
 487, 1107,  581, 1216,  580
 488, 1107,  576,  949,  581
 489,  956,  293, 1234, 1048
 490,  240,  959,  266, 1235
 491,  959,  266, 1235,  956
 492,  956,  958,  291,  957
 493, 1235, 1048,  957,  956
 494, 1092,  611,  610,  598
 495, 1093,  144,  840,  145
 496,   73,  292,  957, 1048
 497, 1198,  236, 1031,  262
 498, 1190, 1197, 1191, 1236
 499, 1237, 1190, 1187, 1079
 500, 1190, 1079, 1193, 1187
 501, 1190, 1080, 1193, 1079
 502, 1198, 1078,  288, 1031
 503, 1198, 1079,  287, 1078
 504, 1198, 1078,  287,  288
 505, 1078, 1196, 1029, 1190
 506,  453, 1104, 1077, 1238
 507,  880, 1239, 1109,  858
 508, 1238, 1104, 1077, 1030
 509, 1238, 1196, 1077,   50
 510, 1238, 1196,   50,   51
 511,  458, 1238,   51, 1195
 512, 1238,   51, 1195, 1196
 513, 1239, 1240,  858,  880
 514,  867,  878,  880,  500
 515,  867,  857,  494,  499
 516,  867,  880,  879,  857
 517,  880,  857,  498,  858
 518,  880, 1240,  858,  503
 519, 1049, 1241, 1056, 1048
 520, 1241, 1153, 1048, 1161
 521, 1241,  559, 1063, 1057
 522, 1241,  564, 1153, 1161
 523, 1241,  565, 1153,  564
 524, 1241, 1153,  565, 1057
 525, 1241, 1057,  564,  559
 526, 1076,  470, 1182, 1181
 527, 1076,  475, 1182,  470
 528, 1076, 1188, 1182,  476
 529, 1197, 1242,  471, 1076
 530, 1242, 1194,  471, 1076
 531,  466, 1242, 1194,  471
 532, 1239,  506,  510,  505
 533, 1191, 1197, 1194, 1242
 534, 1076,  472, 1188,  471
 535, 1076, 1187, 1188, 1197
 536,  993, 1168, 1243, 1149
 537, 1150, 1071, 1072, 1244
 538, 1150, 1162, 1148, 1171
 539, 1152, 1150, 1149, 1167
 540, 1147, 1150, 1166, 1148
 541,  772, 1152,   77, 1147
 542, 1150, 1168, 1244, 1245
 543, 1205, 1246, 1074, 1073
 544, 1093,  840,  841,  145
 545, 1247,  111,  440,  441
 546, 1150, 1167, 1244, 1149
 547,  986,  791, 1205,  985
 548, 1205, 1248,  790,  986
 549, 1246,  782,  787,  786
 550,  791,  787, 1205,  792
 551,  787,  792,  159, 1205
 552, 1205,  786, 1246,  787
 553,  935, 1119, 1091, 1120
 554,  935, 1122, 1119, 1120
 555,  935, 1145,  936, 1146
 556, 1206, 1207,  985, 1249
 557, 1008,  746, 1005,  751
 558, 1250, 1249, 1251, 1206
 559, 1206, 1074, 1207, 1251
 560, 1205, 1073, 1206,  985
 561, 1206, 1250,  606, 1252
 562, 1247,  441,  414,  415
 563, 1022, 1253, 1070, 1164
 564, 1020, 1253, 1022, 1026
 565, 1020, 1254, 1074, 1246
 566, 1020, 1074, 1248, 1246
 567, 1022, 1157, 1023, 1255
 568, 1068, 1023, 1022, 1157
 569,  890,  893,  683,  894
 570,  947,  894,  114,  683
 571,  947, 1256,  945,  948
 572,  947,  895,  945, 1257
 573,  944,  947,  945,  948
 574, 1056, 1058, 1258, 1259
 575,  911,  967,  502,   35
 576, 1056, 1153, 1258,  871
 577, 1056, 1235, 1153,  871
 578,  851,  815,  819,  814
 579, 1056, 1153, 1235, 1048
 580, 1056, 1234, 1235, 1200
 581, 1056, 1234, 1200, 1204
 582,   46, 1260,  583,   45
 583, 1045, 1105,  886,  855
 584,  843,  855, 1084, 1087
 585,  892, 1261,  688,  693
 586, 1087,  852,  886, 1096
 587,  852, 1096,  884,  886
 588,  882,  846,  844, 1095
 589, 1095,  882, 1262,  844
 590,  135,  621, 1023,  136
 591,  844,  882, 1262,  849
 592,  846,  849,  844,  845
 593,  852,  851,  855,  885
 594,  872, 1215,  871,  951
 595,  952,  954,  949,  950
 596,  951,  873,  872,  572
 597, 1215,  951, 1161, 1153
 598,  872, 1215, 1263,  871
 599, 1215, 1263,  959, 1154
 600, 1215,  871,  951, 1153
 601, 1093, 1104,  145, 1101
 602, 1264,  457, 1192, 1104
 603, 1238, 1104, 1030, 1192
 604, 1081, 1040, 1265, 1094
 605, 1081, 1033, 1038, 1260
 606, 1046, 1094, 1081, 1093
 607, 1040, 1260, 1266, 1081
 608, 1007,  747, 1267,   82
 609, 1081, 1040, 1260, 1265
 610, 1081, 1038, 1032, 1077
 611, 1077, 1081, 1093, 1178
 612, 1046, 1093, 1081, 1178
 613, 1025,  608,  621,  620
 614, 1081, 1266, 1040, 1047
 615,  854,  822, 1084,  821
 616, 1045, 1105,  855,  825
 617, 1090,  826, 1085, 1045
 618,  826, 1084, 1090,  827
 619,  854,  855, 1084,  843
 620, 1084, 1087, 1090,  843
 621,  846,  882,  849,  852
 622,  846,  852,  843, 1095
 623,  902,  972,  983,  973
 624,  883,  889,  813,  808
 625,  972,  849,  976,  975
 626,  877,  587,  600,  599
 627,  883,  640,  884,  882
 628,  883,  882,  641,  640
 629,  849,  976,  975,  850
 630,  853,  851,  852,  885
 631,  883, 1064,  641,  882
 632, 1021, 1025, 1023, 1020
 633, 1020, 1268, 1253, 1254
 634, 1025, 1252, 1073,  607
 635, 1205, 1206, 1207,  985
 636, 1074, 1251, 1024, 1207
 637, 1074, 1269, 1207, 1075
 638, 1074, 1251, 1252, 1024
 639, 1020, 1270, 1075, 1069
 640, 1271, 1272,  372,  989
 641,  372,  989, 1228, 1271
 642, 1273,  371,  398,  397
 643, 1274, 1272,  370, 1171
 644,  372,  371,  398, 1273
 645, 1272,  989, 1170, 1171
 646, 1205, 1073,  159, 1246
 647, 1248, 1020, 1268, 1270
 648, 1246, 1254, 1073,  160
 649, 1254,  781, 1253,  782
 650, 1270, 1074, 1248, 1020
 651, 1268,  781, 1253, 1254
 652, 1074, 1269, 1270, 1248
 653, 1207, 1251, 1024, 1275
 654, 1207, 1249, 1066,  986
 655, 1275,  645, 1251, 1024
 656, 1207, 1269, 1275, 1075
 657, 1275, 1251,  645,  644
 658, 1207, 1066, 1275, 1269
 659, 1275,  644,  982, 1276
 660, 1251, 1249, 1275, 1207
 661, 1275, 1066, 1249, 1276
 662, 1275,  982, 1066, 1276
 663,  168,  883,  640,  884
 664,  976, 1039,  889,  809
 665,  889,  810,  850,  815
 666,  850,  976, 1039,  889
 667,  853,  818,  886,  169
 668,  889,  815,  850,  851
 669, 1210,  478, 1180,  479
 670, 1277, 1278, 1279, 1280
 671,  889,  851,  885,  814
 672, 1096, 1095,  626,  613
 673, 1096,  638,  886, 1088
 674,  627, 1096,  639,  882
 675,  884,  882,  640,  639
 676, 1096,  882,  852,  884
 677, 1096,  627, 1095,  882
 678, 1179, 1076, 1188, 1182
 679, 1096,  886,  638,  639
 680, 1134, 1135,  123,  122
 681, 1136, 1135,  724, 1116
 682, 1133, 1135,  724, 1136
 683, 1135, 1172,  123,  728
 684, 1113, 1172, 1112,  728
 685, 1172, 1112,  728, 1135
 686, 1135, 1116,  729,  724
 687, 1050, 1094, 1040, 1046
 688, 1040, 1281, 1282, 1260
 689, 1216,  581,  182,  580
 690, 1260, 1040, 1266, 1282
 691, 1283, 1284,  334,  335
 692, 1202, 1281, 1282, 1040
 693,  903,  971,  603,  907
 694,  903,  882,  971,  981
 695,  971,  981,  628,  629
 696,  971,  981,  629,  907
 697,  971,  603,  907,  616
 698,  903, 1262,  844,  602
 699,  603,  899,  590,  904
 700, 1285,  618,  617,  605
 701,  924,  193,  923,  219
 702, 1096,  612,  613,  625
 703,  907,  906,  903,  981
 704,  906,  974,  975,  972
 705,  807,  902,  156,  983
 706,  972,  982, 1064,  981
 707,  906, 1276, 1249,  982
 708,  900, 1249,  906,  901
 709,  906,  901,  899,  900
 710, 1249,  982, 1065,  906
 711, 1066, 1249,  982, 1065
 712,  984, 1249, 1065,  900
 713, 1249, 1065,  900,  906
 714, 1065,  906,  974,  975
 715, 1030, 1038, 1077, 1029
 716, 1104, 1038, 1030, 1037
 717, 1282, 1260,  609, 1266
 718, 1281, 1260,  596, 1282
 719,  322, 1286, 1007,   82
 720, 1282,  609, 1260,  596
 721, 1287,   34,  201,   33
 722, 1176,  407,  434,  433
 723, 1282, 1281,  610,  597
 724, 1219, 1220, 1288,  702
 725, 1219, 1220,  702,  697
 726, 1219, 1221, 1220,  697
 727, 1220, 1217,  891, 1219
 728, 1219,  700, 1289, 1290
 729, 1291, 1292,   90,   89
 730, 1291,  874,  863, 1292
 731, 1291,  863,  355,  356
 732, 1291,  862,  329,  355
 733, 1293, 1294,  382,  863
 734, 1291,  863, 1293, 1292
 735, 1288, 1291, 1293, 1292
 736, 1250,  619,  618,  606
 737,  863, 1294,  382,  356
 738,  935, 1119, 1295,  930
 739, 1121, 1119, 1120, 1091
 740,  923,  926,  245,  246
 741, 1114, 1135, 1136, 1116
 742,  927, 1119,  930,  929
 743, 1290,  117, 1296, 1297
 744,  927,  933, 1091,  929
 745,  447,  367,  104, 1143
 746, 1119,  108,  929, 1091
 747,  651,  936,  448, 1295
 748, 1298,  515,  514,  510
 749, 1295,  930,  649,  650
 750,  449, 1295,  649,  140
 751, 1176,  408,  381,  382
 752, 1119, 1295,  649, 1122
 753, 1295, 1122,  452,  449
 754,  935,  930, 1295,  936
 755, 1295, 1146,  452, 1122
 756,  920,  917, 1103, 1226
 757,  539, 1103, 1129, 1100
 758, 1177, 1299,  708,  703
 759,  814,  885,  889,  813
 760, 1100,  538,  919, 1300
 761,  920, 1103,  917,  919
 762,  920, 1098, 1102,  923
 763, 1100, 1301, 1127, 1300
 764, 1100, 1301, 1102, 1098
 765,  859,  866,  865,  868
 766,  864, 1175,  866,  859
 767, 1299,  869,  870,  868
 768,  869,  876, 1292,  874
 769, 1141, 1013,  738, 1002
 770,  903, 1262,  849,  844
 771, 1001, 1014, 1003, 1015
 772, 1115, 1113,  739, 1141
 773, 1178,  635,  173,    4
 774,  740, 1006,  741, 1115
 775, 1006, 1141, 1115,  739
 776,  997, 1302, 1284,  387
 777,  912, 1302, 1284,  997
 778, 1302,  945,  912, 1303
 779, 1302,  895, 1283, 1222
 780, 1302, 1256,  945, 1257
 781, 1204, 1055, 1304, 1199
 782, 1199, 1056, 1058, 1201
 783, 1061, 1058, 1305, 1227
 784, 1055, 1059, 1304,  918
 785, 1055, 1199,  918, 1304
 786, 1058, 1227,  918, 1203
 787, 1305, 1227,  557, 1061
 788, 1058, 1259, 1305, 1258
 789, 1061, 1058, 1227,  918
 790,  992,  995,  759, 1243
 791,  988,  753,  905,  754
 792, 1240,  508,  503,  504
 793,  992,  987,  991,  755
 794,  988,  990,  905,  998
 795,  992,  758,  754,  759
 796, 1306,  960, 1098, 1160
 797,  246, 1160,  220,  923
 798,  983,  902,  156,  900
 799, 1307,  384,  357,  358
 800, 1306,  923, 1098,  194
 801, 1306, 1160,  220,  221
 802,  989,  990, 1308,  987
 803,  990, 1007, 1005, 1008
 804,  990, 1308, 1007, 1286
 805, 1272,  345,  371,  344
 806,  988,  905,  990,  987
 807,  990,  987,  749, 1008
 808,  749,  990,  905,  987
 809, 1001,  990, 1000, 1006
 810, 1217, 1309, 1223, 1222
 811,  893, 1124,  895, 1123
 812,  893,  895,  947,  894
 813,  945, 1124, 1310,  895
 814, 1302,  895, 1222, 1257
 815, 1302, 1283,  895, 1303
 816, 1302,  895, 1257,  945
 817, 1141,  739, 1002,  738
 818,  845,  589,  588,  154
 819, 1013, 1113,  738,  733
 820, 1013,  733, 1172, 1113
 821, 1013,  427,  125, 1014
 822, 1013, 1172,  124, 1012
 823, 1311, 1307,  383, 1294
 824,  408, 1312,  435, 1311
 825,  984,  900,  797,  901
 826, 1311, 1307,  409,  383
 827, 1311, 1176,  408, 1312
 828,  876, 1313, 1292,  711
 829, 1313,  869,  868,  876
 830,  876,  716,  875,  868
 831,  876,  874,   88,   89
 832,  712,  876,   89, 1292
 833,  876,   89, 1292,  874
 834, 1020, 1025, 1024, 1074
 835, 1270,  784, 1248, 1269
 836, 1020, 1268, 1270, 1070
 837, 1270, 1269,  783,  784
 838, 1074, 1075, 1270, 1269
 839, 1270, 1268,  784,  779
 840, 1270, 1070, 1268,  779
 841, 1038, 1077, 1081, 1093
 842, 1104, 1030, 1192, 1264
 843, 1104, 1030, 1264, 1037
 844, 1038, 1029, 1028, 1032
 845, 1028, 1036, 1038, 1033
 846,  947, 1256,  948,  113
 847, 1256,  414, 1247,  440
 848, 1264, 1191, 1030, 1192
 849, 1302,  945, 1256,  997
 850, 1256, 1247,  945,  948
 851, 1256,  997, 1247,  414
 852,  997,  996,  888,  945
 853,  944,  947,  948,  678
 854,  947, 1257,  439,  438
 855,  944,  847,  945, 1124
 856, 1215,  951,  957, 1161
 857,  950,  959, 1215, 1235
 858,  950,  953, 1215, 1154
 859,  569,  951,  574,  570
 860,  570, 1161,  569,  951
 861,   74,  952,   75,  573
 862,  952,  951, 1107,  574
 863, 1179, 1076, 1187, 1188
 864, 1186, 1079,  286, 1237
 865, 1237, 1187, 1185, 1186
 866, 1186, 1187, 1181, 1193
 867,  880,  505,  504,  500
 868, 1192,  465,  461,  466
 869, 1186, 1079, 1193,  312
 870,  628,  616,  971,  629
 871, 1142,  402,  428, 1016
 872, 1016, 1012,  427,  428
 873, 1016, 1314,  375, 1017
 874, 1011, 1314, 1016, 1017
 875, 1016, 1142, 1012,  428
 876, 1014,  427, 1016, 1012
 877, 1162, 1170, 1148, 1171
 878, 1162,  369, 1163, 1157
 879, 1162, 1171, 1158, 1163
 880, 1162, 1166,  317, 1315
 881, 1150, 1162, 1171, 1158
 882, 1162, 1315, 1157, 1166
 883,  867,  495, 1027,  496
 884,  978,  492,  897, 1027
 885,  867,  494, 1027,  495
 886,  494, 1027,  490,  999
 887,  467, 1242,  471, 1197
 888,  999, 1027,  490, 1054
 889,  979,  962, 1027,  896
 890,   17,  934,  290,  264
 891,  934,   16,  264,   17
 892,  910,  908,  875,  721
 893,   16,   15,  184,  934
 894,  934,  958,  264,  265
 895,  934,  290,  958,  955
 896,  950,  954,  934,  955
 897,  934,  264,  958,  290
 898, 1001, 1019, 1015, 1003
 899,  641,  882,  981,  628
 900, 1007,  322, 1267, 1017
 901, 1007, 1001, 1011, 1009
 902, 1007, 1008, 1009,  746
 903,  747,  746, 1005, 1007
 904,  990, 1007, 1019, 1286
 905,  990,  744, 1000, 1006
 906, 1007, 1019, 1286, 1017
 907, 1001, 1007, 1006, 1009
 908, 1301, 1160,  960, 1316
 909, 1301, 1317, 1098, 1128
 910, 1301, 1126, 1127, 1300
 911, 1301, 1126, 1316, 1130
 912, 1214, 1318,  225, 1319
 913, 1214, 1320, 1319, 1278
 914, 1214, 1320, 1321, 1240
 915, 1214, 1321, 1322, 1323
 916, 1216,   13,  582,  183
 917, 1107, 1216, 1108,  580
 918, 1216,  182,   12,   13
 919, 1216, 1108,  580,  182
 920, 1216,  582,   12,  581
 921, 1109, 1240, 1239, 1298
 922,  879, 1109,  878,  967
 923, 1109, 1240, 1323,  858
 924, 1109, 1318, 1287, 1110
 925, 1109,  967, 1287,  878
 926, 1320, 1240,   61, 1321
 927, 1277, 1278, 1319, 1320
 928, 1320, 1324, 1325, 1298
 929, 1320,  508, 1240, 1298
 930, 1320, 1326, 1279, 1321
 931, 1320,   62, 1326, 1321
 932, 1326, 1325,  513, 1320
 933,  518, 1326, 1325,  513
 934, 1216,  183, 1108,  182
 935, 1216,  952, 1108,  954
 936, 1212,  184,   14,  186
 937, 1212,    2,  186,   14
 938, 1212,  954,  184,  212
 939, 1212,   19,  186,    2
 940,  187,   20, 1212, 1154
 941, 1212,  954,  212, 1154
 942, 1212,  187, 1154,  186
 943, 1324, 1298, 1327, 1239
 944, 1324, 1327,  517,  512
 945,  511, 1324,  512, 1239
 946, 1324, 1328,  517, 1327
 947, 1324,  512, 1239, 1327
 948, 1320, 1324, 1328, 1325
 949, 1324, 1298,  515, 1325
 950, 1318, 1213,  200, 1287
 951, 1214, 1318, 1213,  226
 952, 1109, 1287, 1318, 1327
 953, 1214, 1110, 1109, 1323
 954, 1318, 1110, 1213, 1287
 955,  952,  949, 1107,  951
 956,  949,  953, 1215,  950
 957,  958,  957,   74,  291
 958,  956,  265,  958,  959
 959,  956,  959,  266,  265
 960,  934,  959,  265,  239
 961,  934,  954,  212,  184
 962,  956,  957,  291,  292
 963, 1280,  198,  943, 1277
 964,  224,  943,  942, 1280
 965,  983,  807,  902,  973
 966, 1280,  942,  224,  250
 967, 1280, 1278, 1319, 1277
 968, 1279,  942,  941, 1280
 969,  922, 1279,  940,  941
 970, 1280, 1279,  250, 1278
 971,  366,  393, 1143, 1144
 972, 1133, 1329, 1134, 1136
 973, 1145, 1146,  101,  936
 974, 1145,  447,  341, 1146
 975,  340,  100, 1159, 1145
 976, 1146, 1143, 1145,  447
 977, 1027,  911,  496,  497
 978, 1027,  492,  896,  911
 979,  867, 1027,  999,  962
 980,  867, 1027,  911,  496
 981, 1311, 1297, 1307, 1330
 982, 1311,  382, 1176, 1293
 983, 1293, 1311, 1294, 1330
 984, 1311, 1307, 1331,  409
 985, 1307, 1297, 1331, 1330
 986, 1307, 1331,  409,  410
 987, 1311,  382, 1293, 1294
 988, 1297,  409,  435, 1311
 989, 1053,  483, 1054, 1332
 990,  484,  483, 1054, 1053
 991, 1210, 1332, 1053, 1230
 992,  983,  802,  156,  807
 993, 1210, 1180, 1230, 1052
 994, 1182, 1210, 1052, 1180
 995, 1210,  479, 1180, 1182
 996,  227, 1287,  201,  200
 997, 1224,  980, 1052, 1053
 998, 1250,  632,  631,  619
 999, 1053,  481,  485,  480
1000, 1224,  980,   39, 1184
1001, 1182, 1225, 1184, 1224
1002,  481, 1224, 1225, 1182
1003,  486,  481,  485, 1053
1004, 1266,  622,  609,  610
1005, 1224,  978,  980, 1053
1006, 1224,  978,  486,  487
1007, 1249,  984,  986,  985
1008, 1249, 1251, 1276, 1250
1009, 1249, 1285, 1250, 1276
1010, 1272, 1171, 1274, 1273
1011, 1249,  982, 1276, 1066
1012, 1279, 1321,  303,  277
1013, 1100, 1300,  533,  538
1014, 1300, 1102,  299,  298
1015, 1126, 1300,  299,   66
1016, 1300,  921, 1102,  298
1017, 1300, 1127,  533,   66
1018, 1058, 1258, 1305, 1201
1019,  190, 1258, 1200, 1201
1020, 1200,  871, 1056, 1258
1021, 1259, 1057, 1333, 1056
1022, 1258, 1201,  190,   23
1023, 1258, 1200,  871,  189
1024,  873, 1333, 1258,  567
1025,  873, 1153,  871, 1258
1026, 1179, 1181, 1180,  938
1027, 1179, 1180, 1052,  938
1028, 1210, 1053, 1052, 1230
1029, 1180,  474, 1182,  479
1030, 1180, 1182,  474, 1181
1031, 1180,  478, 1230,   55
1032,  893, 1123,  684,  685
1033, 1124, 1123,  685,  881
1034,  971,  616,  615,  603
1035,  675,  674, 1124,  847
1036,  895, 1124, 1310,  881
1037,  893,  947,  683,  894
1038,  863,  859,  860,  869
1039,  866,  908,  865,  868
1040,  910,  914,  875,  866
1041,  909, 1136,  866,  908
1042,  862,  861,  859, 1175
1043,  864, 1329,  866, 1175
1044,  922,  301,  300,  274
1045, 1132,  922,   64,  300
1046, 1280,  943,  941, 1277
1047, 1075,  162,  163,  646
1048, 1320, 1326, 1325,  941
1049, 1326,  518, 1132,   63
1050, 1140,  931, 1211, 1334
1051, 1189,  933, 1211,  931
1052, 1209, 1189,  931, 1335
1053,  927, 1091,  935, 1119
1054,  932,  933,  931, 1138
1055,  928,  937,  931, 1335
1056,  927,  933,  928,  931
1057,   31, 1277,   30,  198
1058, 1214, 1109, 1298, 1240
1059, 1223,   93,   94,  334
1060, 1214,  226, 1213,  252
1061, 1318, 1327,   33,   32
1062, 1318, 1287,   33, 1327
1063, 1214, 1109, 1327, 1298
1064, 1214, 1318, 1319, 1327
1065, 1328, 1320,  941, 1277
1066, 1277, 1336,  522,  527
1067,  961,  979,  965,  966
1068, 1179, 1052, 1231,  938
1069, 1053, 1230, 1332, 1232
1070, 1179, 1184, 1052, 1182
1071, 1231, 1052, 1230,  938
1072, 1232, 1052, 1231, 1051
1073,  980, 1183, 1052, 1051
1074, 1224, 1053, 1052, 1182
1075,  935, 1144, 1120, 1091
1076,  928, 1189,  665, 1335
1077, 1143, 1120,  935, 1144
1078, 1146,  341,  101,  102
1079, 1143, 1146, 1120,  447
1080, 1146,  446,  102,  101
1081, 1146, 1120,  447,  452
1082,  573,  957,   74,  952
1083,  934,  959,  239, 1154
1084,  950, 1215,  959, 1154
1085,  955,  185,  954,  180
1086,  955,  181, 1108,  185
1087,  958,   75,  955,  290
1088, 1086,  837, 1094,  841
1089, 1044, 1086, 1042, 1050
1090, 1092, 1040, 1202, 1088
1091, 1085,  149, 1092, 1089
1092, 1044,  831, 1086,  836
1093,  837, 1089, 1085, 1086
1094,  445, 1120,  419, 1091
1095, 1121, 1120, 1122,  450
1096,  448,  652,  446, 1146
1097,  935, 1146, 1295, 1122
1098, 1144, 1120,  419,  393
1099, 1144,  366, 1145, 1143
1100, 1120,  452, 1122,  450
1101, 1337, 1004, 1308,   80
1102, 1221,  895,  881, 1123
1103, 1123, 1221,  685,  881
1104,  891, 1123,  690,  689
1105,  881, 1124,  680,  685
1106,  895,  891, 1221, 1223
1107, 1164, 1071, 1022, 1150
1108, 1150, 1171, 1245, 1158
1109,  371, 1274, 1272,  370
1110, 1274, 1171, 1169, 1273
1111, 1241, 1049, 1056, 1057
1112, 1273, 1169,  993, 1171
1113,  993,  991,  992,  988
1114, 1128,  536,  532,  537
1115, 1274, 1171, 1245, 1169
1116, 1162, 1163,  369,  370
1117,  319, 1170,  345, 1271
1118, 1178,    4,  838,  143
1119, 1271, 1286,  321, 1308
1120,  989, 1272,  372, 1273
1121, 1170,  345, 1271, 1272
1122, 1271, 1286, 1228,  347
1123, 1271,  998, 1286, 1308
1124, 1271,  998,  989, 1228
1125, 1003,  425,  126,  127
1126, 1252,  620,  633,  632
1127, 1059,  916,  918, 1055
1128,  925, 1203, 1199,  918
1129,  973,  155,  812,  807
1130,  918,  925, 1304, 1199
1131,  915,  918, 1338,  916
1132, 1059,  918, 1338, 1304
1133,  982,  643, 1276,  644
1134,  906,  982,  981, 1276
1135,  972,  849,  883,  976
1136, 1275,  164,  982,  644
1137,  164,  165,  793, 1066
1138,  982,  981,  643, 1064
1139,  950,  956,  959, 1235
1140,  934,  955,  180,  290
1141,  953,  582, 1216,  949
1142,  952,  957,   74,  958
1143,  924,  923,  925,  219
1144,  954,  949, 1216,  952
1145,  955,  954,  185, 1108
1146, 1227, 1062, 1061,  918
1147, 1259, 1061,  555, 1057
1148, 1227, 1062, 1226,  552
1149,  889,  851,  814,  815
1150,  850,  816,  851,  815
1151,  983,  975, 1039,  973
1152,  873, 1333,  571,  951
1153,  856,  962,  963,  857
1154,  857,  962,  963,  879
1155,  962,  856,  965,  999
1156,  963,  857,  969,  856
1157,  963,  970,  911,  961
1158,  969,  964,  307,  281
1159,  969,  964,  965,  307
1160,  886, 1041,  638,  170
1161,  878,  505,  500,  501
1162,  626, 1096,  627, 1095
1163, 1250,  618,  619,  631
1164,  579, 1106,   10,  580
1165, 1096,  884,  886,  639
1166,  882, 1096,  639,  884
1167, 1330, 1297, 1296, 1293
1168, 1217, 1309, 1330, 1220
1169,  994,  129,  423,  128
1170, 1331, 1309, 1330, 1261
1171, 1219, 1220, 1330, 1288
1172, 1339, 1330, 1309, 1220
1173,  896,   37,  205,  204
1174,  927,  928,  930,  937
1175,  928,  659,  929,  654
1176,  933,  108,  443, 1091
1177,  927, 1119,  935,  930
1178,  928,  930,  655,  654
1179,  927, 1119,  929, 1091
1180,  659,  933,  658, 1189
1181, 1218,  895, 1257, 1222
1182,   92, 1223,  697, 1220
1183, 1223, 1217,  891, 1220
1184, 1024,  163,  645,  646
1185, 1223, 1220, 1221,  697
1186, 1223,  333, 1283,  359
1187, 1223, 1283,  333,  334
1188, 1223, 1283,  334,   94
1189,  895, 1222, 1223, 1283
1190, 1098, 1229,   28,   27
1191,  968,  229,  255,  228
1192, 1223,  359, 1222, 1309
1193,  881, 1223,   94, 1283
1194, 1326,  303, 1321,   62
1195,  482, 1184, 1225, 1224
1196, 1258, 1333,  873, 1153
1197, 1224, 1052, 1184, 1182
1198, 1179, 1185, 1184, 1187
1199,  907,  616,  603,  604
1200,  206, 1184,  980, 1183
1201, 1200,  241, 1235,  215
1202, 1185, 1233, 1179, 1183
1203,  632, 1024, 1252, 1251
1204,  959,  266,  239,  240
1205, 1296,  704, 1289, 1313
1206, 1296, 1289,  699, 1290
1207, 1023,  368, 1157,  394
1208, 1023,  342, 1255, 1157
1209, 1255,  137,  136, 1023
1210, 1023,  977,  634,  134
1211, 1068,  394, 1023, 1157
1212, 1025,  621, 1023,  634
1213, 1025, 1023, 1020,  977
1214, 1066,  164,  163,  788
1215,  903,  972,  906,  902
1216,  854,  850,  845,  817
1217,  976,  883,  808,  889
1218,  804,  809,  805, 1039
1219,  975, 1065,  800,  799
1220, 1033,   48,  289,  263
1221,  983, 1065,  801,  800
1222, 1064,  974,  803,  982
1223,  803,  883,  808,  976
1224,  849,  889,  976,  850
1225,  984, 1065,  795,  800
1226,  984,  801, 1065,  800
1227,  983,  984,  797,  801
1228,  797,  983,  802,  900
1229,  984,  985,  901,  797
1230,  985,  791, 1205,  792
1231,  984,  985,  797,  792
1232,  942,  276,  250, 1279
1233, 1214, 1318, 1110, 1213
1234, 1214, 1240, 1321, 1323
1235, 1321, 1323,   61,  304
1236, 1214, 1322, 1321, 1278
1237,  620,  633,  621, 1025
1238, 1320, 1324, 1327, 1328
1239, 1071, 1244,  768, 1072
1240, 1150, 1022, 1164, 1255
1241, 1168, 1244,  764, 1149
1242, 1071,  769, 1244, 1167
1243, 1020, 1070, 1270, 1069
1244, 1069, 1020, 1022,  977
1245, 1025, 1073, 1021,  608
1246, 1067,  178, 1069,    8
1247,  133, 1069, 1068,  977
1248, 1270, 1069, 1070,  778
1249, 1069,  178, 1070,  778
1250,  977, 1069, 1075,  647
1251, 1069,  977,  133,  647
1252, 1125,  523, 1131,  524
1253, 1103,  545,  541,  546
1254,  540, 1099,  536, 1129
1255, 1129,  530,  529, 1128
1256, 1100, 1127, 1301, 1129
1257, 1301, 1129, 1128, 1099
1258, 1100, 1129, 1301, 1099
1259, 1125, 1126, 1127, 1129
1260, 1129,  531,  535,  530
1261, 1129, 1128, 1099,  536
1262, 1095,  601,  614,  613
1263, 1193, 1187, 1181, 1194
1264, 1197, 1236,   42, 1191
1265, 1175,  861,  859,  864
1266,  914,  866, 1175,  862
1267,  860,  862,  381,  380
1268,  914,  353,  862, 1175
1269, 1056, 1058, 1259, 1057
1270, 1057, 1333, 1056, 1153
1271, 1259,  555, 1061,  556
1272,  565, 1057, 1333,  560
1273, 1057, 1333,  560, 1259
1274, 1062,  556, 1061,  555
1275, 1199, 1058, 1203, 1201
1276, 1259, 1258,  562, 1305
1277, 1259, 1061, 1305,  557
1278, 1044,  829, 1045,  830
1279, 1044,  830, 1045,  831
1280, 1089, 1040, 1042, 1086
1281, 1092, 1040, 1042, 1089
1282, 1042, 1089, 1085, 1092
1283, 1251,  644,  631,  632
1284,  904,  589,  155,  590
1285,  993,  995, 1169,  994
1286, 1274, 1245,  422, 1169
1287, 1168,  763, 1245, 1169
1288, 1168,  768, 1245,  763
1289, 1245,  421, 1072, 1158
1290, 1302, 1256,  413,  997
1291, 1222,  360, 1283, 1284
1292, 1222,  385, 1218, 1309
1293,  877,  586,  598,  585
1294, 1222,  359, 1283,  360
1295, 1222, 1218,  412, 1257
1296, 1104,  143,  144,  453
1297,  898,  966,  896,  231
1298,  385, 1218,  412, 1222
1299,  909, 1114, 1136, 1116
1300,   81,   80,  321, 1308
1301,  568, 1048,  957, 1161
1302, 1048, 1161,  568,  563
1303,  956,  293,  292,  266
1304, 1224,   39,  980,   38
1305,  957, 1235, 1215, 1048
1306, 1234, 1048,  293, 1049
1307, 1241, 1048, 1049,  563
1308,  997,  415,  388,  389
1309, 1283,  335,   94, 1303
1310, 1217, 1222, 1218, 1309
1311,  334, 1283,  335,   94
1312, 1302, 1283, 1303, 1284
1313, 1217, 1290, 1330, 1261
1314,  985,  901,  797,  157
1315,  985,  158,  901,  157
1316, 1252,  632,  619,  620
1317,  792,  984,  985,  791
1318,  985,  158, 1206,  901
1319,  985, 1073,  158,  159
1320, 1206, 1252,  606,  607
1321, 1206, 1252,  607, 1073
1322,  977,  647,  134,  133
1323, 1207, 1205,  986, 1074
1324, 1248, 1205, 1246, 1074
1325, 1199, 1304, 1204,  243
1326, 1204,   70,  294,  295
1327, 1234, 1204,  241, 1200
1328, 1199, 1200, 1056, 1201
1329, 1199, 1204, 1200,  242
1330, 1234, 1204, 1049,  294
1331, 1209,  670, 1208,  665
1332, 1140,  946,  847,  996
1333, 1287,  200,   33,  201
1334, 1208,  669,  847,  946
1335,  670,  847,  848, 1208
1336,  668, 1208, 1189,  946
1337, 1282,  597,  610,  609
1338, 1208,  946,  668,  669
1339, 1209, 1189,  665, 1208
1340,  988,  992,  754,  987
1341, 1004,  991,  757,  762
1342,  987,  757,  991,  756
1343,  993, 1151,  991,  989
1344,  989,  987, 1004,  991
1345,  987,  756,  991,  755
1346,  633,  621, 1025,  634
1347, 1040, 1094, 1086, 1089
1348, 1081, 1038, 1094, 1265
1349, 1101,  148, 1094, 1265
1350, 1094, 1265,  148, 1089
1351, 1086, 1094,  837, 1089
1352, 1094,  149,  842,  837
1353,  992,  991, 1243,  760
1354, 1168,  764,  995, 1243
1355,  988, 1018,  905,  994
1356,  758,  988,  753,  994
1357,  758,  995,  992,  988
1358,  992, 1243,  759,  760
1359, 1255, 1026,    5,  137
1360, 1022,  137, 1021, 1026
1361, 1166, 1165, 1255, 1164
1362, 1022, 1255,  137, 1026
1363, 1255, 1157,  342, 1315
1364, 1255, 1157, 1315, 1166
1365, 1063,   71,   70,  553
1366, 1067, 1069,  178, 1070
1367, 1070, 1020, 1022, 1069
1368, 1020, 1268, 1070, 1253
1369,  910,  722,  726,  721
1370, 1340,   41,  208,   40
1371, 1270, 1070,  779,  778
1372, 1070,  779,  176, 1268
1373, 1070, 1268,  176, 1253
1374, 1308, 1337,  320, 1271
1375,  890,  894,  683,  688
1376,  890,  893,  684,  683
1377, 1217, 1330, 1309, 1261
1378,  890, 1123,  891,  689
1379,  894, 1217, 1261,  892
1380,  115, 1261,  688,  894
1381, 1261,  688,  894,  892
1382,  869, 1296, 1312, 1293
1383, 1296,  699, 1289,  704
1384, 1289, 1290,  700,  699
1385, 1289, 1313,  706, 1292
1386,  706, 1288,  702, 1289
1387,  869, 1292, 1289, 1293
1388, 1217, 1290, 1219, 1330
1389, 1219, 1289, 1330, 1290
1390,  971,  882, 1262,  628
1391, 1262,  844,  602,  601
1392, 1262,  601, 1095,  844
1393, 1262,  882,  627,  628
1394, 1262, 1095,  627,  882
1395,  571,  873,  572,  567
1396,  993, 1168,  995, 1243
1397,  988,  905,  987,  754
1398,  993, 1169, 1168, 1245
1399, 1285, 1250,  605,  901
1400,  899,  604, 1285,  907
1401, 1285,  630, 1276,  907
1402,  877,  599,  598,  586
1403, 1024, 1207, 1075, 1074
1404, 1276, 1251, 1249, 1275
1405,  647,  977, 1024, 1075
1406, 1025, 1074, 1252, 1024
1407, 1205, 1206, 1073, 1074
1408, 1025, 1021,  621,  608
1409, 1025,  633, 1024, 1252
1410, 1024, 1075,  646,  647
1411, 1250,  619, 1252,  632
1412, 1250,  606, 1252,  619
1413, 1285,  604,  901,  605
1414, 1285, 1250, 1276,  631
1415, 1206, 1073, 1074, 1252
1416, 1251, 1276,  631,  644
1417, 1207,  985, 1249,  986
1418, 1275,  163, 1269, 1066
1419, 1206,  901,  605, 1250
1420, 1249, 1250, 1285,  901
1421, 1142, 1173,  402,  403
1422, 1314, 1142, 1341, 1011
1423, 1142,  350, 1314, 1341
1424, 1142,  376, 1314,  350
1425, 1342, 1173, 1142,  403
1426, 1114, 1011, 1117, 1341
1427, 1342, 1155, 1142, 1173
1428, 1329, 1342, 1173, 1155
1429,  911,  867,  879,  962
1430,  867,  880,  499,  500
1431,  880,  503,  858,  498
1432,  880,  878, 1239,  505
1433,  878, 1239,  505,  506
1434,  878, 1239,  506,  507
1435,  867,  878,  501,  911
1436, 1117, 1341,  324,  325
1437, 1114, 1173, 1172, 1012
1438, 1111,  737, 1010,  736
1439, 1117, 1341,  325,   85
1440, 1011, 1117, 1314, 1010
1441, 1117, 1314, 1010,  324
1442, 1114, 1142, 1155, 1173
1443, 1131, 1130, 1128, 1343
1444, 1343, 1317, 1130, 1128
1445, 1116, 1136,  908,  724
1446, 1128, 1317,  532, 1343
1447,  536,  531,  535, 1129
1448, 1129,  534, 1127,  529
1449, 1131, 1343,  530,  525
1450,  920, 1103, 1100, 1099
1451, 1068,  134, 1023,  394
1452,    8,  133, 1069, 1068
1453, 1068, 1158,  394, 1157
1454, 1245,  131, 1072,  421
1455, 1072,  420, 1158,  421
1456,  977, 1069, 1068, 1022
1457, 1067,  178, 1071, 1070
1458,  879,  968, 1110,  967
1459,  867,  911,  501,  496
1460,   59,  306,  858,  856
1461, 1109, 1110, 1287,  967
1462,  879,  967,  878,  911
1463,  962,  867, 1027,  911
1464,  857,  999,  493,  856
1465,  856,  858,  857,  969
1466,  858,   59,  856,  498
1467,  857,  493,  999,  494
1468,  867,  857,  999,  494
1469,  815,  816,  851,  855
1470,  305,  858,  306,  969
1471,  969,  964,  281,  255
1472, 1213,  968,  967, 1110
1473,  968,  254, 1110,  253
1474,  969, 1110,  279,  305
1475,  879, 1109,  967, 1110
1476, 1173,  402,  403,  429
1477, 1049,   70,  294, 1204
1478, 1038, 1101, 1094, 1265
1479, 1316,  274, 1344,  248
1480, 1046, 1093, 1050, 1094
1481, 1266, 1260, 1033, 1081
1482, 1328,  516,  517,  521
1483, 1104, 1038, 1101, 1093
1484, 1101,    3, 1036, 1037
1485, 1104,  457, 1101, 1037
1486, 1075,  162,  161,  778
1487,  231,  980,  966, 1051
1488, 1179, 1231, 1052, 1233
1489, 1183, 1233, 1051,  258
1490,  963,  961,  962,  965
1491,  844,  845,  588,  587
1492, 1179, 1052, 1183, 1233
1493,  979, 1052, 1232, 1051
1494,  122, 1329,  430, 1134
1495,  908,  725, 1116,  724
1496, 1202, 1088,  624,  611
1497,  611, 1088, 1092, 1202
1498, 1342, 1156,  352, 1155
1499, 1088, 1041, 1042, 1040
1500,  637, 1047, 1041, 1088
1501, 1040, 1266, 1202, 1047
1502, 1202,  610, 1281, 1092
1503, 1331, 1261,  436,  437
1504, 1050,  835,  839,  834
1505, 1331, 1218,  385, 1309
1506, 1218,  438, 1257,  894
1507, 1218, 1257,  438,  412
1508, 1307,  358, 1339, 1309
1509,  892,  895,  894, 1217
1510, 1331, 1309,  385,  384
1511, 1134, 1172, 1135, 1136
1512, 1112,  729, 1113,  728
1513, 1112,  729, 1135, 1116
1514, 1134, 1329, 1173, 1136
1515, 1172, 1113,  733,  728
1516, 1013,  124, 1172,  733
1517, 1020, 1026, 1254, 1253
1518, 1108,  185,  181,  182
1519, 1020, 1074, 1075, 1270
1520, 1345,  197,  196,   29
1521, 1205, 1207,  986,  985
1522, 1268,  784,  780, 1248
1523, 1270, 1268, 1248,  784
1524, 1270, 1075,  778,  783
1525, 1268, 1248,  780,  781
1526, 1268,  175,  780,  176
1527, 1238, 1195, 1030, 1196
1528, 1131, 1132,  518,  523
1529,   52,   51, 1078, 1195
1530, 1035, 1082, 1031, 1030
1531, 1162,  343, 1315,  317
1532, 1080, 1078, 1079, 1190
1533, 1195, 1194,  464,  465
1534, 1192, 1194, 1195,  465
1535, 1194, 1191, 1242, 1192
1536, 1238,  459, 1195,  458
1537, 1004,  991,  762, 1151
1538,   63,  922, 1132, 1326
1539, 1168,  995,  763, 1169
1540,  905,  753,  994,  128
1541,  993,  989,  994, 1273
1542,  988,  905, 1018,  998
1543, 1273,  989, 1228,  372
1544,  993, 1170, 1151,  989
1545, 1075,  162,  646,  647
1546, 1170,   78,  319,  318
1547, 1272,  370, 1171,  344
1548, 1282, 1266,  609,  610
1549,  149, 1089,  584, 1092
1550, 1032,   49,  622,  635
1551, 1260, 1036,   45,   46
1552, 1260, 1036,   46,   47
1553, 1282, 1281, 1202,  610
1554, 1040, 1202, 1281, 1092
1555, 1087,  877, 1090,  843
1556, 1100,  539,  919,  538
1557, 1125,  529, 1127,  528
1558,  919, 1300,   67,  921
1559,  919,   67, 1300,  538
1560,  919,  921,   68, 1338
1561,  919,  921,   67,   68
1562, 1126, 1344,  300,  299
1563,  540,  539, 1103, 1129
1564, 1328,  521, 1336,  520
1565,  529, 1128, 1125, 1129
1566, 1336,  521,  526,  525
1567, 1336, 1343,  526,  527
1568, 1047,  636,  173,  635
1569, 1179, 1184, 1188, 1187
1570, 1180, 1052,  938, 1230
1571, 1182,  480,  479,  475
1572, 1188, 1182,  476, 1225
1573, 1076, 1188,  476,  471
1574,  853,  813,  885,  818
1575, 1202, 1047,  636,  637
1576,  877, 1092, 1087, 1090
1577, 1087, 1088,  886, 1041
1578,  612, 1088, 1087,  611
1579, 1088, 1041,  637,  638
1580, 1087,  852, 1096, 1095
1581,  937,  661,  660,  656
1582,  954,  180,  185,  184
1583,  979,  980, 1051,  966
1584,  964,  963,  255,  969
1585, 1260,   46,  596,   47
1586,  978,  897,  492,  487
1587,  979,  978, 1027, 1054
1588, 1212,  183,   14,  184
1589, 1331,  384,  385,  411
1590,  832,  151, 1090,  150
1591,  276,  940,  942,  249
1592, 1027,  490,  978,  491
1593, 1224,  897,  487,   38
1594, 1224,  487,  486,  482
1595, 1097, 1227,  552,   26
1596, 1053,  485, 1054,  484
1597,  979,  962,  965,  999
1598, 1277,  198,  943, 1345
1599, 1188,  476,  477, 1225
1600,  880,  504,  499,  500
1601, 1145,  341,  367,  340
1602,  979,  999, 1027,  962
1603, 1238,  458,  453,  454
1604, 1017,  322,  349,  348
1605, 1010,  737,   84,  742
1606, 1186,  285, 1233,  286
1607,  480,  479, 1053, 1182
1608, 1190, 1197, 1194, 1191
1609, 1192,  466, 1194,  465
1610,  966,  230,  257,  256
1611, 1194, 1181,  469,  470
1612, 1080, 1193,   53,  468
1613, 1190, 1082, 1198, 1236
1614, 1228,  424,  398,  425
1615, 1000,  748,  743,  744
1616, 1216,  954, 1108,  183
1617, 1107,  949, 1216,  581
1618,  182,  580,  181, 1108
1619, 1096,  639,  638,  626
1620, 1278,  224,  251,  250
1621, 1106,   75,  952,  578
1622,  905,  994, 1018,  128
1623, 1106,  580, 1107, 1108
1624, 1212,   19,   20,  187
1625,  940, 1279,  942,  941
1626, 1198, 1237,  235,  261
1627, 1160,  960,  222,  221
1628, 1215,  950,  951,  949
1629,  950,  952,  958,  957
1630,  189,  873,   21,  871
1631, 1258, 1201,   23, 1305
1632, 1212,  186, 1154,  212
1633,  934,  954, 1154,  212
1634,  997,  389,  388,  362
1635,  952,  955, 1108,  954
1636, 1338,  270,  271,  297
1637, 1140, 1247,  111,  946
1638, 1062, 1227, 1226,  918
1639, 1049, 1055, 1204, 1056
1640, 1338,  916,   69,   68
1641, 1059, 1304,  296,  295
1642, 1338,  926,  271,  925
1643,  958,  290,  264,  291
1644,  980,   38,   39,  206
1645,  915,  921,  919, 1338
1646, 1035,   43,  211,  210
1647,  956, 1048, 1234, 1235
1648,  915, 1338,  925,  926
1649,  915,  921, 1338,  926
1650,  969,  280,  254,  281
1651, 1338,  925,  270, 1304
1652, 1131, 1336,  520, 1325
1653, 1214, 1323, 1322,  252
1654,  918, 1338, 1304,  925
1655, 1025,  608,  620,  607
1656, 1073,  595,  594,  160
1657, 1059,  553, 1063,   70
1658, 1133,  724, 1135,  723
1659, 1170,  345,  318,  319
1660,  149, 1089, 1094,  148
1661, 1274,  370,  371,  397
1662, 1332,   57,  483,  488
1663,  917, 1062,  551, 1226
1664,  864, 1329,  430,  122
1665, 1062, 1060,  550,  555
1666, 1060, 1063,  554, 1057
1667, 1114, 1136, 1173, 1155
1668, 1188,  472,  477,  476
1669, 1017, 1001, 1011, 1007
1670, 1117,  324, 1010,   84
1671, 1192,  465, 1195,  460
1672, 1314,  323, 1010,  324
1673, 1011, 1114, 1012, 1142
1674,  994, 1169,  423,  129
1675, 1313, 1292,  711,  706
1676, 1314, 1017, 1010,  323
1677, 1016, 1017,  375, 1015
1678, 1011, 1114, 1141, 1113
1679,  860, 1176,  869, 1177
1680, 1296, 1313, 1299,  704
1681, 1313,  709, 1299,  704
1682, 1313,  709,  868, 1299
1683,  876,  868, 1313,  711
1684, 1289, 1292,  706, 1288
1685, 1109, 1327, 1298, 1239
1686, 1109,  858, 1323, 1110
1687,  963,  962,  856,  965
1688, 1162,  370,  369,  343
1689, 1240,  858,  503,   60
1690, 1240, 1323,  858,   60
1691, 1189,  933,  658, 1211
1692,  442, 1334,  441,  110
1693, 1335,  665,  660,  661
1694, 1334,  441,  110, 1211
1695,  883,  641,  167,  168
1696, 1277, 1328,  522, 1336
1697, 1211,  668,  111,  663
1698,  253, 1110,  252,  279
1699, 1140,  111, 1247,  441
1700, 1189,  946, 1211,  668
1701, 1107,  575,  576,  580
1702,  934,  180,  184,   16
1703, 1280, 1278,  250,  224
1704, 1140, 1211,  441, 1334
1705,  928,  930,  937,  655
1706,  290,  179,   18,   75
1707,  959, 1154,  213,  239
1708, 1295,  139,  651,  650
1709, 1295, 1122,  449,  649
1710, 1295,  936,  930,  651
1711, 1324, 1298,  510,  515
1712,  937,  930,  936,  656
1713,  935, 1119, 1122, 1295
1714, 1239,  511,  507,  512
1715,  937,  930,  656,  655
1716,  883, 1064,  803,  167
1717, 1302, 1284,  387,  386
1718,  845,  849,  903,  973
1719, 1302,  412,  386,  413
1720,  200, 1213,  227, 1287
1721,  903,  602,  904,  603
1722,  899,  907,  903,  603
1723,  904,  973,  155,  154
1724,  902,  904,  155,  590
1725, 1224,  481, 1053, 1182
1726,  904,  899,  590,  902
1727,  904,  845,  973,  154
1728,  107, 1091, 1119, 1121
1729, 1051,  257,  258,  284
1730, 1038, 1265, 1260, 1036
1731,  233, 1185,  260,  234
1732, 1121, 1091,  445,  107
1733,  927,  939,  937,  936
1734,  371, 1273, 1274,  397
1735, 1121, 1119, 1122, 1120
1736,  967,   34,   35,  202
1737,  142,  648,  449,  450
1738, 1209,  666,  671,  670
1739,  967,  228,  201,  202
1740, 1295,  448,  139,  140
1741,  648,  449,  450, 1122
1742, 1119,  929,  108,  653
1743,  935, 1120, 1146, 1122
1744,  880, 1109, 1239,  878
1745, 1295, 1146,  936,  448
1746,  652,  138,  446,    6
1747, 1295,  452, 1146,  448
1748, 1247,  389, 1137,  415
1749,  943,  941, 1130,  940
1750, 1208,  665,  670,  669
1751,  969, 1110,  305,  858
1752, 1224,   39,  482, 1184
1753,  897,  980, 1224,  978
1754, 1053,  978, 1054,  485
1755,  225, 1319,  224, 1278
1756, 1214, 1318,  226,  225
1757, 1182,  476,  481,  480
1758,  196, 1345,  960,  943
1759, 1185, 1186, 1233, 1237
1760,  697,  701, 1219,  696
1761, 1345,  960,  943, 1316
1762, 1280,  943,  198,  224
1763, 1319,  224, 1278, 1280
1764, 1008,  745,  750,  749
1765, 1028, 1034,  237,  263
1766,  933, 1334, 1138,  417
1767, 1138,  364, 1083,  365
1768,  931, 1137, 1138, 1334
1769, 1140, 1137,  931, 1334
1770, 1126,  299, 1300, 1344
1771,  938,   53,  311,  312
1772, 1080,  468,  463,  464
1773,  932, 1138, 1139,  365
1774,  871, 1263,  188, 1200
1775, 1209,  931, 1139, 1335
1776, 1209, 1139,  667, 1335
1777,  338,  365, 1139, 1083
1778,  672, 1209,  887,  667
1779,  848,  888,   96,   97
1780, 1209,  848,  671,  672
1781,  670,  671,  848,  847
1782, 1235,  214,  959, 1263
1783,  578,   75,    1,  179
1784,  848,  888,  887,  996
1785,  943,  223,  197,  224
1786,  848,  887,   97,  672
1787, 1088,  612,  625,  624
1788,  493,  498,  857,  856
1789, 1051, 1231,  284, 1233
1790, 1230, 1232, 1052, 1231
1791, 1277, 1319,  198,   31
1792,  181,  580,   11,   10
1793, 1305,   24,   23,  562
1794, 1186, 1079,  312,  286
1795,  980, 1183,  232,  206
1796, 1233, 1231,  284,  285
1797,   18,   75,  179,    1
1798,  290,  180,   18,  179
1799, 1179, 1186, 1187, 1181
1800, 1179, 1181, 1076, 1182
1801, 1183,  232,  259,  258
1802, 1200, 1201,  216,  190
1803,  944,  948,  945,  946
1804, 1106,    9,  181,  179
1805, 1302,  945,  997,  912
1806, 1284, 1283, 1303,  335
1807,  881,  895, 1303, 1310
1808, 1204,  295,  268,  269
1809, 1256,  997,  945, 1247
1810,  945,  912, 1303, 1310
1811, 1048,  292,   72,   73
1812, 1303,  912,  335,   95
1813,  881, 1303,   95, 1310
1814, 1132,   65,  523,  528
1815,  905, 1000,  127, 1003
1816,   11,  182,  580,  181
1817,  578,    9,  179,    1
1818, 1000, 1003, 1002,  126
1819, 1006, 1000, 1002,  744
1820,  998, 1003,  990,  905
1821, 1248,  789, 1269,  784
1822, 1066,  799,  798,  794
1823, 1246, 1248,  781,  786
1824, 1212,  184,  954,  183
1825, 1270, 1269, 1075,  783
1826,  986, 1074, 1269, 1207
1827, 1248, 1074, 1269,  986
1828,  952,  578,   75,  573
1829, 1083,  363, 1137,  996
1830,  957,  568,   74,   73
1831,  931, 1083,  887, 1139
1832, 1216,  183,  182,   13
1833, 1140,  415, 1247, 1137
1834,  212,   14,  184,  186
1835, 1137, 1334,  416, 1138
1836, 1154,  187,  213,  186
1837, 1202,  624,  637,  636
1838,  949,  582,  581,  577
1839,   44,   43, 1035, 1264
1840, 1030, 1264, 1037, 1035
1841,  933,  109,  658,  110
1842,  455,  460,  456,  457
1843,   19,  183,   13,    2
1844, 1104, 1264,  457, 1037
1845, 1264, 1035,   44, 1037
1846, 1082, 1264, 1191, 1030
1847, 1108,  183,  185,  182
1848, 1085,  150,  149,  837
1849, 1190, 1198, 1078, 1079
1850, 1080, 1193,   52,   53
1851,  457,  460,  456,  461
1852, 1191,  462,  461, 1192
1853,  143,  453, 1104, 1077
1854, 1279, 1277,  941, 1320
1855, 1190, 1192, 1191, 1194
1856, 1104, 1038, 1093, 1077
1857, 1238, 1030, 1195, 1192
1858, 1238,  453, 1104,  454
1859, 1104,  143, 1093,  144
1860,  955,  180,  179,  185
1861, 1154,  213,  212,  186
1862, 1238, 1192,  459,  454
1863, 1312,  435, 1297,  117
1864,  433, 1177,  434, 1176
1865, 1177,  434, 1176, 1312
1866, 1296, 1177,  118,  703
1867,   15,  238,  934,   16
1868, 1296,  118, 1312,  117
1869, 1263,  214,  187,  188
1870,  869, 1177, 1296, 1299
1871, 1154,  212,  213,  239
1872, 1311, 1293, 1312, 1297
1873, 1212,  212,  184,  186
1874, 1311, 1176, 1312, 1293
1875, 1204, 1304,  269,  243
1876,  958,   74,   75,  290
1877, 1056, 1234, 1204, 1049
1878, 1263, 1200,  871, 1235
1879, 1056, 1258, 1153, 1333
1880,   22, 1258,  873,  189
1881,  188, 1200,  189,  871
1882, 1199,  242, 1200,  216
1883, 1055, 1199, 1058,  918
1884,  886,  823,  170,  818
1885, 1234, 1200,  241, 1235
1886, 1216,  582,   13,   12
1887,  182,  581,   12,   11
1888, 1212,    2,   14,  183
1889,  872,  188, 1263,  187
1890,  953,  582,  949,  577
1891, 1004, 1271, 1308,  989
1892, 1286,  348, 1017, 1019
1893, 1286, 1017,  348,  322
1894, 1286, 1308,   81,  321
1895, 1271, 1308,  321,  320
1896, 1212,   19,    2,  183
1897, 1272,  371, 1273, 1274
1898, 1272, 1170,  344, 1171
1899, 1204,  269, 1304,  295
1900, 1214, 1319,  225, 1278
1901, 1299,  708,  703,  704
1902, 1272,  344, 1170,  345
1903, 1274, 1171,  370, 1163
1904, 1274,  395,  422, 1158
1905, 1158, 1163, 1274,  395
1906, 1338,  926,  297,  271
1907,  981, 1276,  630,  907
1908, 1056, 1234, 1049, 1048
1909,  957,   73,  291,  292
1910,  850,  975,  849,  973
1911,  905,  749,  754,  753
1912,  903,  904,  602,  844
1913,  853,  884,  852,  882
1914,  981,  641, 1064,  882
1915, 1024,  647,  646,  634
1916,  981, 1064,  641,  642
1917,  872,   20,  953,  577
1918, 1048,   73,  563,  568
1919,  981,  629,  907,  630
1920,  971,  616,  907,  629
1921, 1259, 1061,  557,  556
1922, 1096,  613,  626,  625
1923, 1298, 1325,  513,  514
1924, 1320, 1324, 1298, 1327
1925, 1320, 1298,  513,  508
1926,  292,  957, 1048,  956
1927, 1203,  191,  218,  217
1928, 1201, 1203,  217,  190
1929, 1240,  504, 1239,  509
1930, 1203,  190,  191,  217
1931, 1240,  504,  880, 1239
1932, 1235, 1200,  871, 1056
1933, 1320, 1321, 1279, 1278
1934, 1240, 1321, 1323,   61
1935, 1258,  190,  189,   22
1936,  979,  962,  896,  961
1937, 1203,   23,   24,  191
1938,  867,  962,  999,  857
1939,  954,  183,  184,  185
1940,  924, 1203,  192,  218
1941,  212,   15,  184,   14
1942,  965,  961,  962,  979
1943, 1088,  638,  637,  625
1944, 1200,  215,  242,  241
1945,  963,  911,  970,  967
1946, 1027,  978,  490, 1054
1947,  963,  965,  969,  964
1948, 1115,  740,  735,  736
1949,  880,  498,  857,  499
1950, 1009,  747,  746,  742
1951, 1083,  996, 1140,  887
1952, 1224,  980, 1184, 1052
1953,  950, 1235, 1215,  957
1954, 1140, 1334,  441,  415
1955,  550,  917,  546,  545
1956,  933, 1334,  417,  443
1957, 1231,  284,  285,  311
1958, 1235,  215,  241,  214
1959, 1334, 1138,  417,  416
1960,   38,  980, 1224,  897
1961, 1209, 1189, 1140,  931
1962, 1182,  480,  475,  476
1963, 1200,  215,  189,  216
1964, 1203,  218,  191,  192
1965,  482, 1184,   40,  477
1966,  978,  897,  487, 1224
1967, 1154,  239,  934,  212
1968,  927,  939,  932,  931
1969,  938,  310, 1230, 1231
1970, 1320,   61, 1240,  508
1971, 1224,  486,  481,  482
1972,  932,  417,  933, 1138
1973,  794,  799,  795, 1065
1974,  927,  936,  937,  930
1975, 1183,  233,  206,  207
1976,  936,  939,  657,  100
1977,  100,  936, 1145,  101
1978,  896,   37,  897,   38
1979, 1099, 1229,  542,  541
1980,  193,  920,  194, 1097
1981, 1008,  746,  751,  750
1982, 1210, 1230,  478,  483
1983,  930,  651,  936,  656
1984,  923,  193,  194,  220
1985, 1119, 1122,  649,  648
1986,  937,  936,  657,  656
1987, 1286,  998, 1228, 1019
1988, 1007, 1286,   81,   82
1989, 1053, 1232, 1052, 1230
1990, 1129,  540,  535,  536
1991,   39,  206, 1184,  980
1992,  979,  898,  897,  980
1993, 1053,  480,  484,  479
1994, 1271,  319,  320,  346
1995,   27,   28,  542, 1229
1996, 1224,  487,  482,   39
1997, 1142, 1341,  351,  350
1998, 1272, 1170,  989, 1271
1999, 1188, 1340,   40,   41
2000, 1017,  374, 1015, 1019
2001, 1007,   81, 1308,  752
2002, 1117,  732,   85,  737
2003, 1325,  514,  518,  513
2004, 1112,  735, 1115,  734
2005, 1116,  729,  724,  725
2006, 1017, 1010,  323, 1267
2007, 1073,  593,  158,  159
2008,  386, 1284, 1222, 1302
2009, 1338,  296,  297,   68
2010, 1102,  273,  299,  272
2011, 1307, 1339, 1330, 1309
2012,  944,  948,  673,  678
2013,  389, 1247,  996,  997
2014, 1317,  196,  960,  195
2015,  196,  195,  222,  960
2016, 1131, 1325, 1326,  941
2017,  997,  912,  362,  361
2018, 1109, 1239, 1287, 1327
2019, 1048,   73,   72,  563
2020, 1284,  997,  361,  912
2021,  945,  996,  847,  946
2022, 1073,  159,  594,  593
2023, 1317,  960, 1345, 1316
2024, 1134, 1133,  122, 1329
2025, 1119,  929,  654,  930
2026,  927,  931,  937,  939
2027,  939,  100,  936, 1145
2028, 1119,  930,  654,  649
2029, 1320, 1321,   61,   62
2030, 1120, 1091, 1144,  419
2031, 1091, 1144,  419,  418
2032, 1232, 1332,   57,   56
2033,  932, 1144, 1091,  417
2034,  940,  222,  249,  248
2035, 1091, 1144,  418,  417
2036,  932,  391, 1144,  417
2037,  935,  939, 1145, 1144
2038, 1051,  283,  257,  284
2039, 1316, 1344, 1160,  248
2040,  928,  937, 1335,  660
2041, 1320,  508,   62,   61
2042, 1030, 1190, 1031, 1029
2043, 1028,  263, 1031, 1034
2044, 1082, 1031, 1030, 1190
2045, 1028, 1035,  211,  237
2046,  878,  967,  507,  502
2047, 1278,  251, 1322,  277
2048,   43, 1035, 1264, 1082
2049, 1339,  332,  331,   91
2050,  858,   60,  498,  503
2051, 1034, 1082,  210,  236
2052, 1240,  509,  508,  504
2053, 1035,  210, 1082,   43
2054, 1223,  333,   92,   93
2055,  964,  965,  308, 1232
2056,  964,  961,  256,  255
2057,  963,  961,  964,  255
2058,  969,  306,  307,  856
2059,  969,  306,  279,  280
2060,  964,  965,  307,  308
2061,  959,  240,  213,  214
2062, 1215,  959, 1263, 1235
2063,  950,  959,  934, 1154
2064,  934,  180,  955,  954
2065,  950,  956, 1235,  957
2066, 1110,  279,  253,  280
2067,  968,  227,  967,  228
2068,  869, 1296, 1293, 1289
2069, 1235,  956,  266, 1234
2070,  239,  934,  212,  238
2071, 1100, 1300,  919,  921
2072,  999, 1054,  489,  488
2073, 1097,  193,  924,   26
2074, 1298,  509,  514,  513
2075, 1102, 1160,  247,  246
2076,  481, 1224, 1053,  486
2077,  920, 1098, 1097, 1099
2078,  923, 1102,  926,  246
2079, 1102, 1344,  299,  273
2080, 1278,  251,  224,  225
2081, 1102,  247, 1344,  273
2082,  867,  496,  500,  495
2083, 1277, 1328, 1319,   32
2084, 1027,  978,  492,  491
2085, 1228, 1003, 1019,  998
2086, 1271, 1228, 1286,  998
2087,  989, 1273, 1228,  998
2088, 1280, 1277,  941, 1279
2089, 1321,  278,  304,  277
2090,  225, 1214, 1322,  252
2091, 1189,  669,  668,  664
2092, 1228, 1019,  399,  373
2093, 1140,  996, 1247,  946
2094, 1189, 1211,  663,  668
2095,  964,  282,  281,  255
2096,   64,   65, 1132,  300
2097,  970,  203,  202,   35
2098, 1228, 1019,  373,  347
2099, 1280, 1319,  224,  198
2100, 1001, 1013, 1011, 1141
2101, 1014,  126, 1003,  426
2102,  990, 1003,  998, 1019
2103, 1015,  425, 1003, 1019
2104,  970,   36,  203,   35
2105, 1014,  125, 1002,  126
2106,  922,  301,  274,  275
2107, 1277,   30,  527,   31
2108,  943,  942,  940,  223
2109, 1015, 1019,  400,  399
2110, 1283,  334, 1284,  360
2111, 1017,  375, 1015,  374
2112, 1015, 1019,  374,  400
2113, 1003,  990, 1000, 1001
2114,  197,   30, 1345,  198
2115, 1010, 1115,  741, 1009
2116,  844,  600,  588,  601
2117, 1014,  400, 1015,  401
2118,  963,  911,  879,  962
2119,  217, 1201,  216, 1199
2120, 1203, 1201,   23,  190
2121, 1203, 1305,   24,   23
2122,  250,  942, 1279, 1280
2123, 1055, 1063, 1060, 1057
2124, 1227,  556,  552,  557
2125,  942,  223,  224,  250
2126, 1224, 1053,  486,  978
2127,  924, 1203,  218,  925
2128, 1055, 1058, 1057, 1061
2129, 1259, 1057,  555,  560
2130, 1203, 1199,  217,  925
2131, 1315,  316,  317,  343
2132,  868,  709,  865, 1299
2133, 1296, 1290,  699,  698
2134,  869, 1313,  868, 1299
2135,  868,  714,  908,  865
2136,  207, 1185,  234,  208
2137, 1157, 1315,  343,  342
2138,  875,  866,  868,  908
2139,  859,  868,  865,  870
2140,  876,  717,  875,  716
2141,  859,  875,  876,  874
2142, 1020, 1074, 1254, 1021
2143, 1164, 1167,  776, 1253
2144,   76, 1166, 1315,  317
2145, 1020, 1022,  977, 1023
2146, 1246, 1073,  159,  160
2147, 1246, 1205,  787,  159
2148, 1254,  595, 1021, 1073
2149, 1254,  595, 1073,  160
2150, 1255,  316, 1315,  342
2151,  342,  343,  316, 1315
2152, 1246, 1254,  160,  782
2153,  947,  113,  948,  678
2154,  946, 1208, 1189, 1140
2155, 1217,  895,  891,  892
2156,  946,  112,  111,  668
2157,  669,  847,  946,  674
2158, 1218,  411,  412,  438
2159,  899,  902,  906,  900
2160, 1328,  517,   32,  522
2161,   31,  522, 1277,   32
2162, 1280, 1277, 1319,  198
2163,  966,  283, 1051, 1232
2164,  901, 1249,  906, 1285
2165,  522, 1277,   32, 1328
2166,  899,  901, 1285,  604
2167,  900,  901,  591,  157
2168, 1328, 1319,   32, 1327
2169,  906,  907, 1285, 1276
2170, 1043, 1042, 1040, 1050
2171,  906, 1276,  981,  907
2172,  899, 1285,  906,  907
2173,  457, 1192, 1104,  455
2174,  536, 1099, 1229, 1128
2175, 1131,  520, 1336,  525
2176, 1301, 1316, 1344, 1160
2177, 1301, 1128, 1130, 1317
2178, 1301, 1128, 1129, 1126
2179, 1317, 1128,  537, 1229
2180, 1080,   53,   52,  463
2181, 1098, 1229, 1317,   28
2182, 1242,  471,  466,  467
2183, 1262,  614, 1095,  601
2184,  877, 1087,  612,  613
2185, 1096,  612, 1088, 1087
2186,  846, 1095,  843,  844
2187, 1040, 1042, 1088, 1092
2188, 1034,  236,  237,  263
2189, 1085, 1092,  150, 1090
2190, 1262,  627, 1095,  614
2191,  886,  170,  638,  639
2192, 1095,  600,  877,  843
2193,  889,  815,  814,  810
2194,  940,  249,  276,  275
2195, 1093, 1178,  838,  143
2196, 1101, 1094,  148,  842
2197,  211, 1037, 1036,   44
2198,  942,  940,  223,  249
2199, 1252,  620,  619,  607
2200,  907,  629,  616,  617
2201, 1104, 1077, 1030, 1038
2202, 1101, 1093, 1094,  841
2203, 1089,  148,  149,  583
2204, 1104, 1192,  454,  455
2205, 1038, 1101, 1265, 1036
2206, 1312,  117,  118,  434
2207,  842,  841,  146, 1101
2208,  941,  942,  943, 1280
2209,  180,   17,  934,  290
2210,  901,  592,  591,  157
2211,  249,  276,  250,  942
2212,  934,  954,  184,  180
2213, 1028, 1038, 1030, 1029
2214, 1056, 1234, 1048, 1235
2215, 1093,  143, 1077, 1178
2216, 1104, 1093,  145,  144
2217, 1038, 1101, 1093, 1094
2218, 1126,  922,  300,  274
2219,  985, 1073,  159, 1205
2220,  940,  275,  274,  248
2221, 1249, 1251, 1206, 1207
2222, 1206, 1074, 1251, 1252
2223, 1207, 1269,  986, 1066
2224, 1205, 1248, 1246,  786
2225,  162, 1075,  163,  783
2226, 1075,  163,  783, 1269
2227,  215, 1200,  189,  188
2228, 1275, 1075, 1269,  163
2229,  212,  238,  934,   15
2230, 1216,  582, 1212,  183
2231, 1248,  986, 1269,  789
2232, 1249,  900,  984,  901
2233, 1204,  241, 1200,  242
2234, 1200,  216,  242,  215
2235, 1216,  183, 1212,  954
2236, 1190, 1198, 1237, 1236
2237,  383,  382, 1294,  356
2238, 1190, 1197, 1236, 1187
2239, 1236, 1237,  234,  235
2240,   65, 1132,  300, 1126
2241, 1345,   29,  532,   30
2242, 1316, 1317, 1130, 1345
2243, 1301, 1316, 1126, 1344
2244,   64,   63,  922, 1132
2245, 1340,  208, 1236, 1185
2246,  922,  301,   63,   64
2247, 1236,  208,  234, 1185
2248,  940,  275,  248,  249
2249,  940,  249,  222,  223
2250, 1034,  236, 1031, 1082
2251, 1235,  240,  241,  267
2252, 1160,  248,  247,  221
2253, 1317,  537,  532,   29
2254,  209, 1082,  210,   42
2255, 1300,  921,  298,   67
2256,  923, 1098,  194,  920
2257, 1326,  941,  922, 1132
2258, 1336,  525,  520,  521
2259,  868,  711,  716,  715
2260, 1049,  293,  294,   71
2261, 1059, 1338,  916,   69
2262, 1325, 1328, 1320,  941
2263, 1079, 1198, 1237, 1190
2264,  867,  879,  962,  857
2265,  896,   37,  911,  492
2266,  896,  961,  962,  911
2267, 1324,  517, 1328,  516
2268, 1320,  513, 1326,   62
2269, 1000, 1003,  126,  127
2270, 1304,  243,  270,  269
2271,  941, 1343, 1131, 1336
2272, 1214, 1109, 1318, 1327
2273,  941, 1130, 1343, 1345
2274, 1002, 1001, 1014, 1003
2275, 1189,  669, 1208,  668
2276,  884,  640,  169,  639
2277,  887,  672,   98,   97
2278, 1014, 1002, 1003,  126
2279, 1003,  990,  905, 1000
2280,  887,  672,  667,   98
2281, 1298, 1239,  510,  509
2282,  967,   34,  202,  201
2283, 1277, 1319,   31,   32
2284,  608, 1073, 1021,  595
2285, 1228, 1003,  998, 1018
2286, 1140,  946, 1211, 1189
2287,  928,  655,  937,  660
2288, 1319,   32,  199,   31
2289, 1209,  666, 1335,  667
2290, 1321,  277, 1322,  278
2291, 1060, 1057,  554,  555
2292,  968,  253,  227,  254
2293,  925,  218,  219,  245
2294, 1110,  253,  254,  280
2295, 1063, 1049,   71,  558
2296,  223,  222,  940,  943
2297,  969,  254, 1110,  968
2298,  968,  254,  227,  228
2299, 1241, 1063, 1049, 1057
2300, 1241, 1049,  558,  563
2301,  926,  297,  271,  298
2302,   70, 1049,   71, 1063
2303,  987, 1008, 1005,  751
2304,  387,  997,  361, 1284
2305, 1284,  334,  361,  360
2306,  725,  908,  909,  721
2307, 1326, 1279, 1321,  303
2308,  335,  334,  361, 1284
2309,  270, 1338, 1304,  296
2310, 1300,   66,  533,   67
2311, 1055, 1049, 1059, 1063
2312, 1100, 1102, 1301, 1300
2313, 1049, 1057, 1055, 1056
2314,  639,  882,  640,  627
2315, 1222,  386,  385,  359
2316, 1284,  387,  360,  361
2317,  204, 1174,   37,   36
2318, 1278,  277,  250,  251
2319, 1055, 1204, 1056, 1199
2320,  943, 1316,  940, 1130
2321, 1247,  112,  946,  948
2322, 1124, 1310,  680,  675
2323,  895,  881, 1123, 1124
2324, 1342, 1341,  351, 1142
2325,  909, 1155, 1114,  913
2326, 1328,  522,  521,  517
2327,  944, 1124,  679,  674
2328, 1214,  225,  226,  252
2329, 1310,   96,  848,  888
2330,  943,  223,  196,  197
2331, 1135,  723,  728,  123
2332,  983,  975,  906, 1065
2333,  848, 1208, 1209,  670
2334, 1342,  404,  377,  378
2335, 1188, 1340, 1184,   40
2336, 1184,   39,   40,  207
2337, 1140, 1247,  415,  441
2338,  945, 1124,  847, 1310
2339, 1340,  208,  207,   40
2340, 1209,  671,  848,  670
2341,  987, 1004, 1005, 1308
2342, 1184, 1225,  477,  482
2343,  847,  669, 1208,  670
2344, 1111,  735,  730,  731
2345,  734, 1115, 1113,  739
2346, 1342,  403, 1142,  377
2347,  980,   38,  206,  205
2348, 1079,   52,   53,  312
2349,  980,  231,  205,  232
2350,  379, 1156, 1175,  353
2351,  741,  736,  740, 1115
2352, 1115,  735,  740,  739
2353, 1183,  232,  206,  233
2354, 1042, 1087, 1088, 1092
2355, 1035,   43,   44,  211
2356,  859,  860,  869,  861
2357,  860, 1177,  869,  861
2358,  869, 1176,  863, 1293
2359,  900,  157,  802,  797
2360, 1176,  381,  863,  382
2361,  739, 1006,  740, 1115
2362, 1046, 1081, 1094, 1040
2363, 1047, 1032, 1266,  635
2364, 1113,  734,  733,  729
2365, 1341, 1011, 1117, 1314
2366, 1047, 1202, 1088,  637
2367, 1114,  913, 1341, 1118
2368, 1135,  122,  723,  123
2369, 1043, 1047,  828,  833
2370,  921,  297, 1338,  926
2371, 1111,  732,  736,  731
2372, 1007, 1286, 1308,   81
2373,  915,  919,  916, 1338
2374,  921,  926, 1102,  298
2375, 1112,  729,  730,  734
2376,  915,  923,  920,  926
2377, 1198,  262,  261,  235
2378,  192, 1227,   24, 1203
2379,  917,  924, 1226,  920
2380,   42, 1236,  209, 1082
2381,  542,   28,  537, 1229
2382, 1100, 1099, 1103, 1129
2383, 1317,  537,   28, 1229
2384,  541, 1229,  537,  536
2385, 1342,  404, 1173,  403
2386,  924,  918,  917, 1226
2387,  542, 1229,  537,  541
2388,  917,  550, 1062, 1060
2389, 1022, 1071, 1164, 1070
2390, 1071, 1022, 1150, 1072
2391, 1255, 1026, 1165,    5
2392,  583,  148,   45, 1265
2393, 1150, 1072, 1022, 1157
2394, 1156, 1329,  866, 1155
2395,  919,  539,  544,  543
2396, 1150, 1164, 1071, 1167
2397, 1241, 1056, 1153, 1057
2398, 1217,  892,  891, 1290
2399, 1259, 1305,  562,  557
2400,  215, 1263, 1235, 1200
2401, 1331, 1218,  437,  411
2402,  955,  290,  179,  180
2403,  959,  239,  266,  265
2404,  934,  958,  265,  959
2405,  895,  881, 1283, 1223
2406, 1309,  385,  384,  358
2407,  359, 1309,  332,  358
2408,  872,   20,   21,  188
2409, 1220, 1339,  332, 1309
2410,  924,  219,  925,  218
2411,  890,  892,  895,  894
2412,  934,  264,   16,  238
2413, 1262,  628,  627,  615
2414, 1063, 1049, 1057, 1055
2415, 1330, 1261, 1290, 1297
2416,  934,  238,  265,  264
2417, 1339, 1330, 1220, 1288
2418,  904,  844,  845,  589
2419,  926,  272,  245,  246
2420,  333,  359, 1223,  332
2421, 1100, 1103,  919,  539
2422, 1100, 1129,  534, 1127
2423, 1301, 1316, 1317, 1130
2424,  920,  915,  917,  924
2425,   58,  856,  307,  306
2426, 1100,  534, 1129,  539
2427, 1329, 1342, 1156,  378
2428,   59,   58,  306,  856
2429, 1128, 1317,  537,  532
2430,  968,  255,  254,  228
2431,  498,   59,  856,  493
2432, 1301, 1128, 1126, 1130
2433, 1010,  323,   83,  324
2434, 1156, 1175,  378,  379
2435, 1103, 1129, 1099,  540
2436,  920,  923, 1102,  926
2437,  979, 1054, 1027,  999
2438, 1129, 1126, 1127, 1301
2439, 1329,  405, 1175,  431
2440, 1156,  352,  379,  378
2441,  864, 1175,  861,  431
2442, 1175,  406,  861,  405
2443,  380,  860,  862,  406
2444,  862, 1175,  379,  380
2445, 1320, 1277, 1328, 1319
2446,  965,  856,  307,   58
2447,  858,   59,  498,   60
2448,  859,  862,  875,  874
2449, 1102,  273,  272,  246
2450, 1344,  300,  299,  273
2451,  969,  307,  306,  280
2452,  922,  302,  301,  275
2453,  914,  875,  866,  862
2454, 1174,  203,  204,  230
2455,  961,  256,  229,  230
2456, 1053, 1182, 1210, 1052
2457,   37,  911, 1174,  896
2458, 1174,  204,  203,   36
2459, 1076,  470, 1194,  471
2460, 1180,  473, 1181,  474
2461, 1210, 1180,  478, 1230
2462, 1065,  986,  795,  794
2463, 1214, 1320, 1278, 1321
2464, 1230,   56,  309,   55
2465,  970,  203, 1174,  229
2466, 1180,   55,  473,  478
2467,  899,  907,  603,  604
2468,  229,  230,  203, 1174
2469,  938,  473,   54,  468
2470,  983,  906,  902,  900
2471,  883,  641, 1064,  167
2472, 1188,  476,  471,  472
2473,  906,  903,  981,  972
2474, 1190, 1236, 1191, 1082
2475, 1096,  626,  627,  639
2476,  425,  424,  127, 1018
2477, 1007, 1010, 1267,  742
2478,  994, 1018,  128,  424
2479,  903,  849, 1262,  882
2480,  853,  885,  889,  851
2481,  981,  643, 1064,  642
2482,  987, 1005,  756,  751
2483,  127,  424,  128, 1018
2484,  998,  990, 1308,  989
2485,  990, 1308,  987, 1005
2486,  605, 1206,  606,  593
2487, 1005, 1308,  757,  752
2488,  988,  993,  995,  992
2489, 1307, 1331,  410,  384
2490, 1042, 1085, 1090, 1092
2491,  872,  187,   20,  188
2492,  365, 1159, 1139,  932
2493, 1215, 1153, 1235,  871
2494, 1138,  417,  390,  391
2495,  493,  965,  856,  999
2496,  872, 1215,  951,  949
2497,  872, 1263,  188,  871
2498,  872, 1215, 1154, 1263
2499,  366,  365, 1144, 1159
2500, 1159,  339,  366,  365
2501,  919,   68,   67,  538
2502,  903,  981, 1064,  882
2503,  353, 1156, 1175,  914
2504,  903,  971, 1262,  602
2505, 1125, 1130, 1131, 1132
2506,  844,  845,  589,  588
2507,  964,  308,  281,  282
2508, 1339, 1220,  332,   91
2509,  849,  846,  844,  882
2510, 1323,  278,  305,  304
2511, 1316, 1301, 1317,  960
2512, 1317,  196,   28,   29
2513,  205,  898,  231,  980
2514, 1306,  195, 1098,  960
2515,  850,  846,  854,  845
2516, 1321,   61,   62,  303
2517,  903,  971,  907,  981
2518, 1287,  512,  507,   34
2519, 1306,  221,  195,  960
2520, 1226,  552, 1062,  551
2521,  221,  222,  195,  960
2522,  915,  918,  925, 1338
2523, 1340, 1184,   40,  207
2524, 1097,  924,  193,  920
2525,  541, 1103,  546,  542
2526, 1103,  541, 1099,  542
2527, 1323,  279,  278,  252
2528, 1175, 1156, 1329,  866
2529, 1250, 1206,  606,  605
2530, 1206,  594, 1073,  607
2531,  937,  661,  656,  657
2532, 1340, 1185,  207,  208
2533, 1231,  938,  310,  311
2534,  969,  280,  281,  307
2535, 1207, 1249, 1275, 1066
2536,  904,  590,  602,  589
2537, 1285, 1250,  631,  618
2538, 1015,  399,  400,  426
2539, 1251,  631, 1250,  632
2540, 1275, 1207, 1075, 1024
2541, 1073,  607,  608, 1025
2542, 1150, 1072, 1157, 1158
2543, 1155,  914,  913,  866
2544,  158, 1206,  901,  593
2545, 1195,  458,   52,   51
2546, 1031,  288,  262,  289
2547, 1035, 1031, 1082, 1034
2548, 1184,   39,  207,  206
2549, 1074, 1205,  986, 1248
2550, 1162, 1148,  318,  317
2551, 1251, 1250, 1252,  632
2552, 1275, 1251,  644, 1276
2553, 1251,  632, 1024,  645
2554,  966,  256,  283,  282
2555, 1285, 1276,  630,  631
2556,   24, 1227,  557, 1305
2557, 1206,  985, 1073,  158
2558, 1029,  288,  289,  315
2559, 1262,  615,  627,  614
2560, 1259,  561,  557,  562
2561, 1206,  901, 1249,  985
2562, 1236, 1187, 1185, 1237
2563,  562, 1305,   24,  557
2564, 1242, 1197,  467, 1191
2565, 1187, 1181, 1194, 1076
2566, 1238,  458,   51,  453
2567, 1028,  211,   46,  237
2568, 1032,   48,  622,   49
2569, 1197,   42,   41,  472
2570, 1044,  831,  835,  830
2571, 1190, 1195, 1030, 1192
2572, 1093,  839,  143,  838
2573, 1232,  309,  308,  282
2574,  938, 1181,  468, 1193
2575,  984, 1065,  986,  795
2576, 1190, 1194, 1187, 1193
2577,  904,  603,  602,  590
2578, 1186, 1193, 1181,  938
2579, 1086, 1050, 1094, 1040
2580,  799,  974, 1065,  798
2581, 1028, 1033,   47, 1036
2582, 1033, 1032,   48,  622
2583, 1032, 1266, 1033, 1081
2584, 1036, 1033,   47, 1260
2585,  956,  292,  265,  266
2586, 1258,   23,  190,   22
2587, 1131, 1130,  941, 1132
2588,  925,  244,  245,  271
2589,  677,   96,  848, 1310
2590, 1186,  311,  285,  312
2591, 1334,  441,  415,  442
2592, 1303,   95, 1310,  912
2593, 1107,  581,  580,  576
2594, 1068,  394, 1158,  420
2595, 1204,  269,  268,  242
2596, 1039,  850,  810,  811
2597,  843,  151,  152,  586
2598,  887,  931, 1209, 1140
2599,  952,  949, 1216, 1107
2600,  871,   21,  189,  188
2601,  336,  362,  363,  888
2602,  243,  925,  270,  244
2603,  994, 1273, 1169,  993
2604, 1150, 1245, 1072, 1158
2605, 1244, 1072, 1245,  768
2606, 1245, 1072,  131,  768
2607, 1158,  394, 1157,  395
2608, 1245, 1169,  130,  422
2609, 1150, 1166, 1255, 1164
2610, 1313,  710,  868,  709
2611, 1299,  865,  713,  709
2612,  870,  865,  713, 1299
2613, 1304,  243,  925,  270
2614,  843,  586,  152,  587
2615,  120,  864,  713,  870
2616,  939,  100, 1159,   99
2617, 1133,  864,  865,  718
2618, 1133,  865,  719,  718
2619, 1095,  613,  877,  600
2620, 1139,  339,  338,   98
2621,  877,  843,  600,  587
2622,  877, 1092, 1090,  585
2623, 1321, 1323,  304,  278
2624,  877,  611, 1092,  598
2625,  943,  196,  223,  222
2626,  933,  931, 1138, 1334
2627,  611, 1088, 1087, 1092
2628,  933,  109,  929,  658
2629, 1125, 1132,  523,  528
2630, 1139,  339,   99, 1159
2631,  928, 1189,  664,  665
2632,  939,  662,  657,  100
2633, 1130,  941, 1343, 1131
2634,  929,  654,  659,  658
2635,  969,  306,  305,  279
2636, 1311,  408, 1176,  382
2637,  926,  272,  271,  245
2638, 1228,  372,  399,  398
2639, 1131, 1325,  520,  519
2640, 1132,  518,  523,   64
2641, 1131,  941, 1336, 1325
2642, 1143,  447,  451,  104
2643, 1143,  367,  104,  393
2644, 1209, 1139,  887,  667
2645, 1091,  108,  443,  444
2646, 1107,  951,  576,  575
2647,  937,  662,  661,  657
2648,  326,  914,  913, 1155
2649, 1326, 1279,  303,  302
2650, 1047,  636,  637,  172
2651,  951,  576,  572,  949
2652,  874,  875,   88,  862
2653,  939,  662,  100,   99
2654,   60,  305,  858,   59
2655, 1016,  402,  401,  375
2656, 1146,  452,  447,  446
2657, 1139,  887,  667,   98
2658,  869, 1177,  870,  861
2659, 1213,  967, 1287, 1110
2660,  100,  340, 1159,   99
2661, 1296, 1177,  703, 1299
2662, 1139,  662,   99,  667
2663, 1177,  433,  870,  861
2664,  936,  657,  652,  101
2665,  922,  275,  276,  302
2666, 1177,  434,  118,  433
2667,  965,  307,   57,   58
2668, 1082, 1236,  209,  236
2669, 1079, 1080, 1193,   52
2670, 1168,  763,  995,  764
2671, 1181,  938,  468,  473
2672, 1078,  314, 1196,   51
2673, 1131, 1326,  518, 1132
2674, 1079, 1078,  313,  287
2675, 1236, 1198,  236, 1082
2676, 1078, 1029, 1196,  314
2677, 1029, 1190, 1031, 1078
2678,  898,  205,  896,   38
2679, 1320, 1328, 1327, 1319
2680,  978, 1054,  485,  490
2681, 1068,  420,  132,  133
2682,  966, 1232,  964,  282
2683,  898,  231,  980,  966
2684,  175, 1253, 1268,  781
2685,  979,  896,  966,  961
2686, 1076,  475,  471,  476
2687, 1231,  310, 1232,  284
2688,  615,  628,  616,  971
2689, 1179, 1186, 1181,  938
2690,  966,  256,  961,  230
2691, 1032, 1029, 1028,  289
2692, 1001, 1017, 1015, 1019
2693,   18,  290,   17,  180
2694,  966,  964,  256,  282
2695, 1078, 1029,  314,  288
2696, 1029, 1196,  314,  315
2697,  516, 1325,  520, 1328
2698,  477, 1184,   40, 1188
2699,  966,  257, 1051,  283
2700, 1233, 1185,  259,  233
2701,  889,  813,  809,  814
2702, 1028, 1031, 1030, 1035
2703,   51, 1078, 1195, 1196
2704, 1328,  520, 1336, 1325
2705, 1188, 1340,   41, 1197
2706, 1076, 1197, 1194, 1187
2707, 1029,  288, 1031,  289
2708, 1092,  585,  598,  597
2709,  289, 1028,  263, 1031
2710,  315, 1196, 1077, 1029
2711,  481,  477, 1225,  482
2712, 1228,  998, 1273, 1018
2713, 1188, 1225,  477, 1184
2714, 1238, 1192, 1195,  459
2715, 1181,  473,  468,  469
2716,  233, 1185,  259,  260
2717, 1043, 1044, 1045, 1042
2718, 1079,  313,  312,  286
2719, 1186, 1079, 1187, 1193
2720, 1186,  312,  938,  311
2721, 1245, 1169,  763,  130
2722,  983, 1065,  984,  801
2723, 1196,  314,  315,   50
2724, 1078,  287,  288,  314
2725, 1166,   77,  317,   76
2726, 1150, 1071, 1244, 1167
2727, 1282,  596,  597,  609
2728, 1150, 1245, 1244, 1072
2729, 1077,  315,   49,    4
2730,  995, 1169,  758,  763
2731, 1190, 1080, 1078, 1195
2732, 1244, 1149,  769,  764
2733,  958,  291,  264,  265
2734, 1071,  773, 1072,  768
2735,  995,  994,  758, 1169
2736, 1147, 1149,  993, 1243
2737,  993, 1273, 1171,  989
2738,  972, 1064,  976,  883
2739,  899,  901,  604,  591
2740, 1285,  605, 1250,  618
2741, 1204,  268, 1234,  241
2742,  971,  628, 1262,  615
2743,  956,  265,  292,  291
2744,  803,  982,  166, 1064
2745,  849,  850,  973,  845
2746,  938,  312, 1193,   53
2747,  845,  588,  153,  154
2748, 1285,  617,  907,  604
2749,  934,  239,  265,  238
2750, 1081, 1038, 1265, 1260
2751, 1322,  225,  251, 1278
2752,  951,  873,  572,  571
2753, 1081, 1038, 1093, 1094
2754, 1194,  465,  470,  469
2755, 1028, 1032, 1033, 1038
2756, 1328, 1336,  521,  522
2757, 1060,  549,  550,  554
2758, 1037, 1028,  211, 1036
2759, 1033, 1028,  263,  289
2760, 1029,  289, 1032,  315
2761,  958,  290,  291,   74
2762, 1028, 1031, 1035, 1034
2763,  190, 1201,  216,  217
2764, 1030, 1264, 1035, 1082
2765, 1307, 1294, 1339,  357
2766, 1078, 1031, 1029,  288
2767, 1204,  295,  294,  268
2768, 1060,  916,  549,  548
2769, 1338, 1304,  296, 1059
2770,  970,  228,  202,  229
2771, 1070, 1167,  775,  774
2772,  924, 1227,  192, 1203
2773, 1274, 1171, 1163, 1158
2774, 1304,  295,  269,  296
2775,  137, 1022, 1023, 1255
2776, 1022, 1164, 1026, 1253
2777,  957,   73,   74,  291
2778, 1333,  561, 1259,  562
2779,  924,  192,  193,  219
2780, 1227,  557,   25,   24
2781,   26, 1097,  547,  552
2782, 1071, 1167,  774,  769
2783, 1059,  295,  296,   69
2784,  860,  863, 1176,  381
2785, 1244, 1167,  769, 1149
2786, 1127,   65,  528,   66
2787,  192,  924,  193,   25
2788, 1067,  132, 1072,  773
2789,  919,  544,  917,  916
2790, 1067, 1070, 1068, 1069
2791,  658, 1211,  663, 1189
2792, 1059,  295,   69,   70
2793, 1139,   99,  339,   98
2794, 1067, 1068,  132,    8
2795,  878,  506,  501,  502
2796,  899,  591,  590,  156
2797, 1177,  708,  870,  119
2798,  859, 1175,  866,  862
2799,  715,  868,  714,  908
2800,  869, 1296, 1177, 1312
2801, 1330, 1296, 1289, 1293
2802, 1188, 1182, 1225, 1184
2803, 1057,  559,  554,  555
2804,  713, 1299,  708,  870
2805,  859,  875,  866,  868
2806,  868,  714,  865,  709
2807,  864,  861,  870,  120
2808, 1195,  463,  458,  459
2809, 1080,  469,  468,  464
2810, 1328,  941, 1325, 1336
2811, 1231, 1230, 1232,  310
2812,  958,  952,   75,   74
2813, 1344,  300,  273,  274
2814, 1215, 1048, 1161,  957
2815, 1191,   42,  467,   43
2816,  872,  953, 1215,  949
2817,  277,  278,  251, 1322
2818, 1323,  278, 1322,  252
2819, 1128,  532,  536,  531
2820,  864,  865,  718,  713
2821, 1040, 1265, 1094, 1089
2822, 1079,   52,  312,  313
2823, 1159,  366,  339,  340
2824, 1101,  148, 1265,    3
2825,  550, 1062,  551,  917
2826, 1277,  941, 1328, 1336
2827, 1038, 1029, 1032, 1077
2828, 1233,  285,  259,  286
2829, 1259,  560,  555,  556
2830,  609, 1266, 1260, 1033
2831, 1101, 1265, 1036,    3
2832, 1302, 1222,  412, 1257
2833, 1098,  195,   27,   28
2834, 1158,  395,  421,  394
2835, 1265,   45, 1036,    3
2836,   45, 1260,  583, 1265
2837,  970,  961,  255,  229
2838, 1265, 1036,   45, 1260
2839,  490,  999,  489,  494
2840,  845,  812,  973,  154
2841,  966,  961,  896,  230
2842, 1019,  399,  373,  400
2843, 1320,  508,  513,   62
2844, 1132,  518,   64,   63
2845,  850,  812,  845,  817
2846,  903,  845,  904,  844
2847, 1010,  323, 1267,   83
2848,  854,  851,  850,  816
2849, 1003,  126,  425,  426
2850,  846,  854,  845,  843
2851, 1323,  278,  279,  305
2852,  970,  229,  202,  203
2853,  904,  845,  154,  589
2854,  895,  881, 1303, 1283
2855,  903,  981,  972, 1064
2856, 1027,  492,  497,  496
2857,  850,  845,  812,  973
2858,  820, 1105,  855,  819
2859,  964,  282,  255,  256
2860, 1318,   32,   33,  200
2861,  855,  815,  819,  851
2862,  816,  851,  855,  854
2863,  844,  849,  903,  845
2864,  853,  849,  889,  883
2865, 1012,  124,  427,  428
2866,  851,  885,  814,  819
2867, 1022, 1255, 1026, 1164
2868, 1075,  977, 1024, 1020
2869, 1078,  287,  314,  313
2870, 1256, 1257,  413,  439
2871, 1069, 1075,  647,  161
2872, 1010,  737,  741,  736
2873, 1150, 1022, 1255, 1157
2874, 1150, 1162, 1158, 1157
2875, 1175,  405, 1329,  378
2876,  862,  328,  329,  355
2877, 1021, 1074, 1254, 1073
2878, 1020, 1022, 1253, 1070
2879,  972,  903, 1064,  883
2880,  886, 1088,  638, 1041
2881, 1088,  637,  624,  625
2882, 1210, 1230,  483, 1332
2883, 1321,  303,  304,   61
2884,  846,  852, 1095,  882
2885, 1318,  199,   32,  200
2886, 1191,   43, 1264, 1082
2887,  981,  629,  642,  641
2888,  902,  155,  973,  807
2889,  882,  981,  628,  971
2890,  948,  946,  673,  112
2891,  903,  971,  882, 1262
2892, 1325,  518, 1131, 1326
2893,  846,  852,  855,  843
2894,  971,  615, 1262,  602
2895, 1255,    5, 1165,   76
2896,  883,  903, 1064,  882
2897,   45,   46, 1036,  211
2898, 1032,  315,  289,   49
2899, 1087, 1095,  613,  877
2900,  947,  439, 1256,  113
2901, 1247,  945,  946,  996
2902,  613, 1087,  612, 1096
2903,  879,  969,  857,  858
2904, 1027,  911,  497,  492
2905, 1332, 1054,  965,  488
2906,   58,  493,  965,  856
2907, 1057,  560,  565,  564
2908, 1106,  578,  179,   75
2909, 1302,  413, 1256, 1257
2910,  965,   57, 1332,  488
2911, 1232,  965,   57, 1332
2912, 1102,  273,  246,  247
2913,  912,  335,  361, 1284
2914, 1222,  360,  386,  359
2915, 1054,  965,  488,  999
2916,  294, 1049,   71,   70
2917,  969,  307,  965,  856
2918, 1060,  549,  554,  553
2919, 1226,  917,  546,  551
2920, 1129,  529,  530,  534
2921, 1063,  553,  554,  558
2922,  924, 1227,   25,  192
2923, 1087,  855, 1084, 1045
2924, 1084, 1045,  825,  826
2925,  819, 1105,  855,  885
2926,  853,  883,  889,  813
2927,  854,  816,  850,  817
2928,  846,  855,  854,  843
2929, 1103,  540,  544,  539
2930, 1300,  298,  299,   66
2931, 1086,  841, 1050,  836
2932, 1044, 1085, 1086,  831
2933,  853,  882,  883,  884
2934, 1044, 1050,  834,  835
2935, 1343,  526,  530,  525
2936, 1085,  150, 1092,  149
2937, 1300,   67,  298,   66
2938, 1126,   65,   66,  299
2939, 1125,  528,  523,  524
2940, 1281,  584, 1092,  597
2941,  886,  884,  853,  169
2942, 1277, 1336,  527, 1343
2943,  877,  585, 1090,  586
2944, 1325,  515,  520,  519
2945,  276,  250, 1279,  277
2946, 1213,  227,  226,  200
2947,  982,  981, 1276,  643
2948, 1281,  584,  597,  596
2949, 1162, 1148,  317, 1166
2950, 1147, 1151,  766, 1243
2951, 1147,  993, 1151, 1243
2952,  850,  815,  811,  816
2953, 1131,  524,  519,  520
2954, 1162, 1170,  318, 1148
2955, 1163, 1158, 1157,  395
2956, 1147, 1149,  766,  771
2957, 1134,  429,  430,  122
2958,  548, 1060, 1055,  553
2959, 1056, 1200, 1258, 1201
2960, 1328,  516,  521,  520
2961,  268, 1234,  241,  267
2962, 1234, 1204,  294,  268
2963, 1234,  294, 1049,  293
2964, 1240,   61,  503,  508
2965, 1309,  332,  358, 1339
2966, 1063, 1057,  559,  554
2967, 1338, 1059,  916,  918
2968, 1095,  614,  627,  626
2969, 1271, 1286,  347,  321
2970,  991, 1151,  761,  762
2971, 1325,  515,  519,  514
2972, 1170, 1004,   79, 1151
2973, 1004, 1151,  762,   79
2974,  461, 1192,  466, 1242
2975, 1319,  198,  199,  225
2976, 1179, 1187, 1076, 1181
2977, 1191,   43, 1082,   42
2978,  878,  506,  505,  501
2979, 1080, 1181,  468,  469
2980, 1192, 1195,  459,  460
2981,  981,  641,  628,  629
2982, 1076,  476, 1182,  475
2983,  635, 1178, 1047, 1032
2984, 1031, 1029,  289, 1028
2985, 1033,  609, 1266,  622
2986, 1131, 1336, 1343,  525
2987, 1028, 1033,  263,   47
2988, 1006, 1001, 1002, 1000
2989,   48,  289, 1032, 1033
2990,  266, 1234,  267, 1235
2991, 1240,   61,   60,  503
2992,  890,  689,  688,  684
2993,   54,  473,  938,   55
2994,  933,  929,  108, 1091
2995, 1104,  454,  453,  144
2996, 1180,  479,  478,  474
2997, 1215, 1263,  871, 1235
2998, 1326,   62,  302,  303
2999, 1340, 1197, 1187, 1236
3000, 1092,  598,  610,  597
3001, 1318,  200,  226,  199
3002, 1316, 1160,  960,  222
3003,  943,  197,  198,  224
3004, 1345,  198,  943,  197
3005, 1283,  333,  360,  359
3006, 1170, 1337, 1271,  319
3007,  990, 1005,  987, 1008
3008, 1261, 1297,  436,  116
3009, 1211,  933,  658,  110
3010, 1223,  333,  332,   92
3011, 1308,  987, 1004,  989
3012, 1284,  360,  387,  386
3013,  989,  988,  993,  994
3014, 1317, 1345,  532, 1343
3015, 1277,  941, 1336, 1343
3016, 1126,  922,  940, 1130
3017, 1277, 1345,  941, 1343
3018, 1230,  478,  483,   56
3019, 1196,   51,  314,   50
3020, 1077,    4,  143,   50
3021,  905,  749,  753,  748
3022,  943, 1316, 1130, 1345
3023, 1301, 1098, 1099, 1128
3024, 1192,  462,  461,  457
3025, 1283,  334,  360,  333
3026, 1089,  584, 1092, 1281
3027, 1010,  324,   83,   84
3028, 1281,  583, 1265, 1089
3029,  460, 1192,  457,  455
3030, 1281, 1089,  584,  583
3031, 1202, 1266,  623,  636
3032, 1043, 1042, 1045, 1041
3033, 1317,  195,   28,  196
3034, 1230,  309,  310,   55
3035, 1126, 1344, 1316,  274
3036, 1345,  527,   30,  532
3037, 1040, 1265, 1281, 1260
3038, 1029,  315, 1032, 1077
3039,  633,  632, 1024, 1252
3040, 1281, 1092,  610,  597
3041, 1032,  635, 1178,   49
3042, 1038, 1036, 1260, 1033
3043, 1047,  635, 1266,  636
3044, 1150, 1162, 1157, 1166
3045, 1315,   76,  316, 1255
3046, 1157,  369,  342,  343
3047,  966,  231, 1051,  257
3048, 1150, 1157, 1255, 1166
3049, 1023,  136, 1255,  342
3050, 1168, 1244, 1245,  768
3051, 1238,  453,   51,   50
3052,  111, 1247,  112,  946
3053, 1170, 1148, 1151,   78
3054, 1266,  636,  635,  623
3055, 1126,  300, 1344,  274
3056, 1272, 1171, 1273,  989
3057, 1195,  465,  464,  460
3058, 1151, 1243,  761,  766
3059, 1148,  317, 1166,   77
3060, 1147, 1243,  766, 1149
3061, 1183, 1185, 1233,  233
3062,  919,  543,  916,   68
3063,  928,  660,  664,  659
3064, 1255,  136,  137,  342
3065, 1131, 1128, 1125,  529
3066, 1209,  665, 1335,  666
3067, 1006,  746,  745,  741
3068,  937,  657,  939,  662
3069, 1126, 1300,   66, 1127
3070, 1295,  650,  140,  139
3071,  994, 1169,  129,  758
3072,  993, 1171, 1170,  989
3073,  929,  933,  658,  659
3074, 1150, 1244, 1168, 1149
3075,  933,  417, 1091,  443
3076,  896,  911, 1174,  961
3077,  928, 1335,  665,  660
3078,  878,  911,  967,  502
3079,  896,  230,  204,  231
3080,  848,  677,   97,   96
3081, 1255,  316,  137,    5
3082,  864,  430, 1329,  431
3083, 1027,  962,  911,  896
3084,  991,  756,  761,  760
3085, 1270, 1069,  778, 1075
3086, 1064,  167,  642,  166
3087, 1072,  773,  132,  768
3088, 1218, 1217, 1261,  894
3089, 1148,   77,  318,  317
3090, 1162, 1170, 1171,  344
3091, 1152, 1167,  771,  776
3092,  396,  395,  422, 1274
3093, 1331, 1261, 1297,  436
3094, 1218, 1261,  437,  894
3095,  335, 1284,  912, 1303
3096, 1302, 1303,  895,  945
3097, 1286,  322,  348,  321
3098, 1324, 1298, 1239,  510
3099, 1279,  303,  302,  276
3100, 1325,  514,  519,  518
3101,  922,  300, 1132, 1126
3102, 1326,  302,   62,   63
3103,  405, 1329,  378,  404
3104, 1148,   78,  318,   77
3105, 1007, 1308, 1005,  752
3106, 1162, 1157,  343,  369
3107, 1017, 1286, 1007,  322
3108, 1271,  346,  320,  347
3109, 1004, 1271, 1170, 1337
3110, 1015, 1019,  399,  425
3111, 1000,  126, 1002,  743
3112, 1000,  749,  748,  744
3113,  862,  354,  328,  355
3114, 1271, 1228,  372,  346
3115, 1228,  425, 1003, 1018
3116, 1021,  137,  136,  608
3117,  870,  433,  119,  432
3118, 1337,  320, 1271,  319
3119, 1000, 1002,  744,  743
3120,  782, 1246, 1254,  781
3121, 1065,  799, 1066,  794
3122,  905,  128,  748,  753
3123, 1337,  319,   79,  320
3124, 1065,  794, 1066,  986
3125, 1065,  986, 1249,  984
3126, 1206, 1252, 1251, 1250
3127,  791,  986,  795,  984
3128,  900,  797,  901,  157
3129,  983,  973,  806,  807
3130,  983,  973, 1039,  806
3131, 1178,  635,    4,   49
3132, 1220,  332,   91,   92
3133, 1307, 1330, 1331, 1309
3134, 1220,   91, 1288,  702
3135, 1339, 1288, 1220,   91
3136, 1303, 1284,  912, 1302
3137,   95,  912,   96, 1310
3138, 1286,  321,   81,  322
3139,  690, 1123, 1221,  685
3140,  891,  690, 1123, 1221
3141, 1223,  895,  881, 1221
3142,  890, 1123,  689,  684
3143,  881,   95, 1303,   94
3144,  322,   82, 1267,  323
3145, 1198, 1236,  236,  235
3146, 1321,  277,  304,  303
3147, 1117,  325,  324,   84
3148, 1169, 1273,  423, 1274
3149, 1179, 1231, 1186,  938
3150, 1237,  234,  260, 1185
3151, 1236,  234, 1237, 1185
3152, 1233, 1237,  260, 1185
3153, 1240,  509, 1298,  508
3154, 1131,  525,  524,  520
3155, 1076, 1197,  472,  471
3156,  875,  721,  868,  716
3157, 1330, 1290, 1296, 1297
3158, 1314,  324,  350,  323
3159,  859,  870,  864,  861
3160,  252,  225,  251, 1322
3161,  859,  865,  864,  870
3162,  870,  861,  432,  120
3163,  933, 1211, 1334,  110
3164,  870,  868,  865, 1299
3165, 1017,  322,  323,  349
3166, 1213,  967,  968,  227
3167, 1219, 1289,  701,  702
3168,  967,  502,   35,  507
3169,  869, 1296, 1313, 1299
3170, 1177,  870,  708, 1299
3171,  827,  151, 1090,  832
3172, 1314,  375,  349,  376
3173, 1313,  869,  876, 1292
3174, 1294, 1288, 1291, 1293
3175, 1286,   82,  322,   81
3176, 1183, 1184,  207,  206
3177,  876,  717,  716,  712
3178, 1291, 1292,   89,  874
3179, 1289, 1293, 1292, 1288
3180, 1313,  868,  710,  711
3181,  876,  711, 1292,  712
3182,  860, 1177,  861,  433
3183, 1006, 1008,  744,  745
3184, 1011, 1012, 1114, 1113
3185, 1006,  744, 1002,  739
3186, 1001, 1006, 1141, 1009
3187, 1010, 1141, 1115, 1009
3188,   80, 1337,  320, 1308
3189, 1286,  321,  348,  347
3190, 1137,  416, 1334,  415
3191,  996,  389,  363, 1137
3192,  709, 1299,  708,  713
3193, 1137,  390,  416,  389
3194,  417, 1138,  932,  391
3195, 1339, 1288,  331, 1294
3196, 1228, 1018,  424,  425
3197,  876,  875,   88,  874
3198,  876,  716,  868,  711
3199,  914,  327,  354,  353
3200,  859,  874,  876,  869
3201,  859,  869,  870,  861
3202,  876,   88,  875,  717
3203,  908,  720,  868,  721
3204,  862,  875,   88,  914
3205,  862,   88,  329,  328
3206,  868,  716,  721,  720
3207, 1151,  762,  766,  761
3208,  909, 1116,  725,  726
3209, 1286, 1019,  347,  348
3210, 1256,  997,  414,  413
3211, 1256,  948,  113,  112
3212, 1011, 1009, 1141, 1010
3213, 1314, 1017,  349,  375
3214, 1023,  634,  621,  135
3215, 1012, 1013, 1113, 1011
3216, 1222,  386,  412,  385
3217,  736, 1010, 1115,  741
3218, 1173,  402,  428, 1142
3219,  876,  711,  712,  716
3220,  868,  711,  715,  710
3221, 1139,  931, 1209,  887
3222, 1147, 1152, 1150, 1149
3223, 1010, 1009,  741,  742
3224, 1007,  747, 1009,  742
3225,  870,  432,  861,  433
3226,   82,  322, 1267, 1007
3227, 1068, 1022, 1071, 1072
3228,  980, 1183, 1184, 1052
3229, 1070,  775, 1253,  176
3230, 1167, 1149,  771,  770
3231, 1152, 1164, 1167,  776
3232, 1073,  159,  160,  594
3233, 1152,  771, 1167, 1149
3234, 1020, 1254, 1026, 1021
3235,  177, 1070,  774,  178
3236, 1168,  764, 1244,  768
3237, 1167, 1149,  770,  769
3238,  114,  947,  438,  894
3239,  986,  795,  794,  790
3240, 1218,  894,  437,  438
3241, 1223,  881,  687, 1221
3242,  891,  890,  895, 1123
3243,  947,  895, 1257,  894
3244,  881, 1303, 1283,   94
3245, 1296,  117,  698,  118
3246, 1310,  895, 1303,  945
3247, 1222, 1309,  359,  385
3248, 1302,  412, 1222,  386
3249,  360,  386, 1284, 1222
3250,  945,  997,  996, 1247
3251,  915,  924,  925,  918
3252, 1098,  923, 1160, 1102
3253,  923,  926,  925,  245
3254,  920, 1100,  921, 1102
3255,  915,  923,  926,  925
3256,  872, 1154,   20,  187
3257,  214,  215, 1263, 1235
3258, 1289,  704,  699,  700
3259, 1288,  331,   90,   91
3260, 1234,  267, 1235,  241
3261, 1289,  705,  700,  701
3262,  956, 1048,  292,  293
3263,  696,  701, 1219,  700
3264,  897,  898,   38,  980
3265,  874,  862,   88,  329
3266,  861,  405,  432,  431
3267, 1307, 1339,  358,  357
3268,  896,  966,  898,  979
3269,  966,  964,  961,  256
3270,  284, 1233,  258, 1051
3271, 1232,  283,  284,  310
3272,  961,  896,  230, 1174
3273,  966, 1232,  282,  283
3274, 1310,  682,  681,  677
3275, 1024,  646,  645,  633
3276, 1269,  788,  789,  793
3277, 1341, 1155, 1342,  352
3278, 1296,  703,  699,  704
3279, 1342, 1142,  351,  377
3280, 1142, 1155, 1342, 1341
3281, 1341,  326,   85,  913
3282, 1183, 1233,  259,  233
3283, 1155, 1156,  352,  326
3284, 1117, 1118,   85,  732
3285, 1341,   85, 1118,  913
3286, 1221, 1223,  692,  687
3287, 1017,  348,  349,  375
3288, 1117, 1341,   85, 1118
3289, 1261,  116,  436,  115
3290,  737,  732, 1111, 1117
3291,  922,  940,  276,  275
3292, 1277, 1345, 1343,  527
3293, 1233, 1237,  286,  260
3294, 1345,  532, 1343,  527
3295,  894,  114,  115,  437
3296,  948,  678,  113,  673
3297,  943, 1277, 1345,  941
3298,  827,  826, 1085, 1090
3299, 1131,  529,  525,  530
3300,  950, 1154,  934,  954
3301, 1002,  743,  738,  739
3302, 1013,  733,  738,  125
3303,  222,  940,  943, 1316
3304,   95, 1310,  682,  881
3305,   95,   96,  682, 1310
3306, 1113,  734,  739,  738
3307, 1002,  126,  738,  743
3308,  223,  224,  943,  942
3309, 1059,   70,   69,  548
3310, 1083, 1140,  996, 1137
3311, 1257,  439,  438,  412
3312, 1140, 1137, 1247,  996
3313,  931, 1139, 1335,  939
3314, 1139,  939,   99,  662
3315, 1183, 1233,  258,  259
3316,  984,  796,  791,  792
3317, 1103,  544,  540,  545
3318, 1083, 1137,  363,  364
3319, 1160,  220,  247,  246
3320,  363,  337,  888, 1083
3321, 1139,  667, 1335,  662
3322,  848, 1209, 1140,  887
3323,  339,  365, 1159, 1139
3324, 1209,  670,  665,  666
3325, 1275,  164,  644,  645
3326, 1137, 1138,  390,  364
3327, 1321, 1278, 1322,  277
3328, 1026,  595,    5,  137
3329, 1214, 1318, 1109, 1110
3330, 1110, 1214,  252, 1323
3331, 1209,  671,  667,  672
3332, 1214, 1320, 1240, 1298
3333, 1320, 1298, 1325,  513
3334,  944,  679,  893,  678
3335, 1183, 1233, 1052, 1051
3336, 1323,  305,  858,   60
3337, 1240, 1323,   60,   61
3338,  250, 1279,  277, 1278
3339, 1058, 1305, 1203, 1201
3340,  455, 1101,  145, 1104
3341,  916, 1060, 1055,  548
3342, 1241, 1056, 1048, 1153
3343, 1153, 1057, 1333,  565
3344,  892,  891,  890,  895
3345, 1241, 1063,  558, 1049
3346, 1241,  564, 1057,  565
3347, 1190, 1031, 1198, 1082
3348, 1198, 1237, 1236,  235
3349, 1335,  662,  666,  661
3350, 1079, 1193,   53,   52
3351,  933,  931, 1334, 1211
3352, 1079, 1193,  312,   53
3353, 1164, 1152, 1166, 1165
3354, 1037,   44,  457,    3
3355, 1190, 1191, 1030, 1082
3356,  147,  455,  146,  456
3357,  912,  362,  335,  336
3358, 1237, 1186, 1079, 1187
3359, 1186,  938,  312, 1193
3360, 1023,  342,  368,  136
3361, 1211,  111,  441,  110
3362,  236, 1031, 1082, 1198
3363,  677,  676, 1310,  848
3364, 1051,  232,  980, 1183
3365,  994,  995,  758,  988
3366, 1001, 1006, 1002, 1141
3367,  997,  387,  414,  413
3368,  929,  653,  109,  108
3369, 1083,   97,   98,  338
3370,  990,  998, 1286, 1019
3371, 1279, 1321,  277, 1278
3372,  102,  447,  341,  103
3373,  987,  749, 1008,  750
3374,  988,  758,  754,  992
3375,  994,  424, 1273, 1018
3376, 1015,  426, 1003,  425
3377,  905,  749,  987,  754
3378, 1000,  749,  990,  905
3379,  988,  994,  998, 1018
3380,  994, 1169, 1273,  423
3381,  887, 1083,  996,  888
3382, 1217, 1218, 1261, 1309
3383, 1145,  366, 1159,  340
3384, 1174,  230,  204,  896
3385, 1214, 1320, 1327, 1319
3386, 1091,  444,  445,  107
3387,  848,  676,  671,  672
3388,  947, 1256,  439, 1257
3389, 1159,  932, 1144,  939
3390,  996,  847,  848,  945
3391, 1310,  945,  888,  848
3392, 1123,  684,  685,  689
3393,  652,  101,    6,  446
3394,  978,  490,  485,  486
3395,  881,  682,  681, 1310
3396, 1271,  347, 1228,  346
3397,  362,  996,  363,  888
3398,  937, 1335,  661,  662
3399, 1144,  418,  391,  392
3400,  912,   96, 1310,  888
3401,  189,  190, 1258, 1200
3402, 1241,  558, 1063,  559
3403, 1048,   72, 1049,  563
3404, 1235,  240,  214,  241
3405,  237,  210, 1035,  211
3406, 1258,  562, 1305,   23
3407, 1069,  161,  647,  133
3408,  911,   36,  497,   37
3409,  556, 1061, 1227, 1062
3410, 1255,  316,    5,   76
3411,  966,  230,  231,  257
3412, 1055, 1049, 1204, 1059
3413, 1199, 1203,  217, 1201
3414, 1285,  605,  617,  604
3415,  892, 1290, 1261,  693
3416,  900,  156,  802,  157
3417, 1068,  977,  134,  133
3418, 1268,  176,  780,  779
3419, 1147,   77, 1148, 1166
3420, 1271,  319,  346,  345
3421, 1058, 1061, 1259, 1057
3422, 1162,  343,  344,  370
3423, 1199,  217,  925,  243
3424, 1203,  191,  190,   23
3425, 1199,  925, 1304,  243
3426, 1203,   24,  192,  191
3427, 1172, 1173,  428, 1012
3428, 1172, 1012,  428,  124
3429, 1111, 1141, 1115, 1010
3430, 1016, 1142,  402,  376
3431, 1302,  387,  997,  413
3432,  428, 1142, 1012, 1173
3433, 1233,  259, 1185,  260
3434, 1170,  318,  345,  344
3435, 1329, 1133,  122,  864
3436, 1005,  752,  757,  756
3437, 1134, 1329,  430, 1173
3438, 1329, 1173, 1342,  404
3439, 1170,   79, 1337,  319
3440, 1019,  374,  347,  348
3441, 1117,   85,   84,  737
3442, 1001,  990, 1007, 1019
3443, 1173,  430,  403,  404
3444, 1271,  320,  321,  347
3445, 1228,  399, 1019,  425
3446, 1272,  372,  371,  345
3447, 1342,  377,  351,  378
3448,  917, 1060,  549,  550
3449,  888,  336,  912,   96
3450,  948, 1247,  945,  946
3451, 1274, 1163,  370,  396
3452, 1287, 1239,  878,  507
3453, 1016,  428,  401,  402
3454, 1236,  209,  236,  235
3455,  966,  979,  965, 1232
3456, 1331,  384,  411,  410
3457, 1341,  351,  325,  352
3458, 1311,  409,  435,  408
3459,  910,  875,   87,  722
3460,  867, 1027,  494,  999
3461, 1062,  555, 1061, 1060
3462, 1016,  375,  376,  402
3463,  916, 1060,  917,  918
3464,  969, 1110,  280,  279
3465, 1287,  507,  967,   34
3466, 1287,  967,  201,   34
3467,  970,  967,  202,  228
3468,  754,  988,  753,  758
3469,  969,  254,  968,  255
3470,  330,  357, 1294,  356
3471,  913,   85,   86,  326
3472,  970,   35,  911,   36
3473,  951,  575,  570,  571
3474,  994, 1273,  998, 1018
3475, 1163,  370,  396,  369
3476,  336,   96,  888,  337
3477,  944,  946,  847,  674
3478,  997,  387,  388,  414
3479,  912,  336,  335,   95
3480, 1291,  356,  355,  329
3481,  564, 1153, 1161,  565
3482,  912,  335,  362,  361
3483, 1292,  706,  707,  711
3484,  947,  438,  894, 1257
3485,  979,  999,  965, 1054
3486,  909,  908,  725, 1116
3487,  411,  385, 1218,  412
3488,  987,  750,  751,  755
3489,  330,  331, 1294,  357
3490,  427, 1012, 1013,  124
3491, 1337,   79, 1004,   80
3492,  512, 1287, 1239, 1327
3493, 1154,  954,  950,  953
3494,   99,  340, 1159,  339
3495, 1287, 1327,  512,   33
3496, 1144,  935,  932, 1091
3497, 1048,   72,  292,  293
3498, 1144,  392,  365,  366
3499, 1122,  449,  649,  648
3500,  914,   87,   88,  328
3501, 1318,   33, 1287,  200
3502, 1279,  940,  942,  276
3503, 1127, 1129,  529, 1125
3504,  956,  291,  958,  265
3505, 1279,  277,  303,  276
3506, 1278, 1214, 1322,  225
3507, 1309, 1220, 1223,  332
3508, 1318,   32, 1319, 1327
3509, 1139,  365,  338,  339
3510, 1261,  116,  115,  688
3511, 1214, 1109, 1240, 1323
3512, 1188,  472,   41,  477
3513, 1102,  926,  246,  272
3514,  473,  938,   55, 1180
3515, 1306,  194,  195,  221
3516, 1330, 1293, 1288, 1294
3517, 1217, 1261,  892, 1290
3518, 1188, 1340, 1187, 1184
3519,  551, 1062,  556,  552
3520, 1145,  101,  341,  100
3521,  367,  393, 1143,  366
3522,  872,   21,   20,  577
3523, 1184,   39,  482,   40
3524, 1118,   86,  732,  727
3525,  997,  388,  361,  362
3526, 1134, 1172,  429,  123
3527, 1329, 1133,  866, 1136
3528, 1011, 1314, 1017, 1010
3529, 1237,  260,  234,  261
3530,  991,  761, 1151, 1243
3531, 1340, 1197,   42,   41
3532, 1264,  462,  457,   44
3533,  341,  447,  367,  103
3534, 1231,  311,  310,  284
3535, 1114, 1341, 1155, 1142
3536, 1256,  112,  113,  439
3537, 1111, 1011, 1114, 1141
3538, 1307,  357,  383, 1294
3539, 1010,  742,   84,   83
3540,  928,  931, 1189, 1335
3541,   85,   86,  732, 1118
3542,  947,  945, 1256, 1257
3543, 1186, 1233, 1237,  286
3544,  469, 1181,  474,  470
3545, 1180, 1230,  938,   55
3546, 1045, 1087, 1090, 1084
3547, 1087,  855,  852,  843
3548, 1183,  258, 1051,  232
3549, 1145,  340,  100,  341
3550, 1202,  636, 1047, 1266
3551, 1087,  852,  855,  886
3552,  100, 1159, 1145,  939
3553,  821,  855,  825, 1084
3554, 1095,  844,  601,  600
3555, 1209,  671,  666,  667
3556,  843, 1090,  827,  151
3557,  447, 1143, 1145,  367
3558,  259,  285, 1233,  258
3559,  843,  586, 1090,  151
3560,  446,  102,  101,    6
3561,  877,  843,  586, 1090
3562,  967,  201,  228,  227
3563,   36,  970, 1174,  911
3564, 1213, 1110,  252,  253
3565, 1213,  968,  253,  227
3566, 1146,  447,  102,  446
3567, 1146, 1122, 1120,  452
3568, 1025, 1252,  620,  633
3569, 1074, 1025, 1021, 1020
3570, 1272,  344,  371,  370
3571, 1023,  135,  134,  634
3572, 1062,  556,  552, 1227
3573,  595,  607,  608, 1073
3574, 1157,  369,  368,  342
3575,  992,  759,  754,  755
3576, 1329,  431,  430,  404
3577, 1250,  618,  605,  606
3578, 1068,  977, 1023,  134
3579, 1023,  394,  134,  135
3580, 1023,  136,  368,  135
3581, 1149,  770,  766,  771
3582, 1021,  595, 1026,  137
3583, 1025, 1252,  607,  620
3584, 1252,  619,  606,  607
3585, 1021, 1022, 1023,  137
3586, 1105, 1045,  823,  824
3587, 1162, 1171,  370,  344
3588, 1162,  317,  318,  344
3589, 1039,  973,  811,  806
3590,  853,  884,  168,  169
3591, 1046, 1093,  838,  839
3592, 1041, 1047, 1040, 1088
3593, 1101,  457,  455,  147
3594, 1147,  772,  771,  767
3595, 1138, 1139, 1083,  931
3596, 1007, 1010, 1017, 1267
3597, 1265, 1089,  583,  148
3598, 1253,  782,  781,  174
3599, 1259,  556,  557,  561
3600, 1035, 1037, 1028,  211
3601, 1260, 1265, 1281,  583
3602, 1036,   44,   45,  211
3603, 1142,  350,  377,  376
3604, 1162,  318, 1170,  344
3605,  869, 1292,  863,  874
3606,  862,  863, 1291,  874
3607,  869, 1177, 1299,  870
3608,  925,  243,  217,  244
3609,  862,  863,  381,  355
3610,  356, 1291,  863, 1294
3611, 1294, 1291,  863, 1293
3612, 1217, 1219, 1290,  891
3613, 1339, 1330, 1288, 1294
3614, 1330, 1293, 1289, 1288
3615,  987, 1008,  751,  750
3616, 1228,  373,  399,  372
3617, 1291,  874,   89,  329
3618, 1274,  397,  396,  370
3619,  781, 1246, 1254, 1268
3620, 1254, 1026, 1021,  595
3621, 1254,  782, 1026,  160
3622, 1206,  158, 1073,  593
3623, 1254,  160, 1026,  595
3624,  919,  916,  543,  544
3625, 1320, 1278, 1279, 1277
3626, 1056, 1058, 1201, 1258
3627,  676,  675,  847,  671
3628, 1059,  295, 1204, 1304
3629,  919,  916, 1338,   68
3630, 1246,  160,  159,  787
3631,  985,  158,  797,  792
3632, 1059,  916,  548,   69
3633, 1314,  323,  350,  349
3634, 1026,  595,  160,    5
3635, 1276,  631,  643,  630
3636, 1075,  647,  161,  162
3637, 1170,   78, 1151,   79
3638, 1228,  398, 1273,  372
3639, 1341,  324,  351,  350
3640, 1285,  631,  630,  618
3641, 1170, 1148,   78,  318
3642, 1329, 1342,  378,  404
3643, 1333, 1258,  567,  562
3644, 1026,  782, 1253,  174
3645, 1019,  373,  374,  400
3646, 1026, 1253, 1165,  174
3647, 1286, 1228,  347, 1019
3648, 1165, 1152, 1166,   76
3649, 1140, 1208, 1209,  848
3650, 1118, 1116,  726,  731
3651, 1023, 1157,  368,  342
3652,  946,  669,  673,  668
3653, 1189,  668,  663,  664
3654, 1255, 1166, 1315,   76
3655,  870,  119,  120,  432
3656, 1071, 1070,  774, 1167
3657, 1074, 1246, 1254, 1073
3658,  451, 1120,  419,  445
3659,  749,  744, 1000,  990
3660, 1020, 1246, 1268, 1254
3661, 1143,  366, 1145,  367
3662, 1246, 1020, 1268, 1248
3663,  981,  630,  642,  629
3664, 1091,  418,  419,  445
3665, 1177,  119,  118,  703
3666, 1011, 1142, 1341, 1114
3667, 1314, 1017,  323,  349
3668, 1156,  353,  379,  352
3669, 1016, 1314,  376,  375
3670, 1007,  752, 1005,  747
3671,  862,  353,  354,  380
3672, 1001, 1141, 1011, 1009
3673, 1342,  377,  404,  403
3674,  356, 1294,  383,  357
3675, 1113, 1012, 1114, 1172
3676, 1114, 1117, 1118, 1341
3677, 1111, 1118,  731, 1116
3678, 1175,  380,  406,  379
3679, 1176,  408,  407,  381
3680,  927,  932, 1091,  933
3681, 1013,  738, 1002,  125
3682,  124,  427,  125, 1013
3683, 1333, 1259,  561,  560
3684, 1144,  419,  392,  393
3685,  951, 1161,  569,  573
3686, 1153, 1048, 1161, 1215
3687, 1048, 1235, 1215, 1153
3688, 1055, 1199, 1056, 1058
3689,  957,  568, 1161,  573
3690,  433,  860,  406,  861
3691,  233, 1185,  234,  207
3692, 1234,  956,  266,  293
3693, 1340, 1236,  208,  209
3694,  901,  158,  593,  592
3695, 1340, 1184, 1185, 1187
3696,   73,  568, 1048,  957
3697, 1076, 1197, 1188,  472
3698, 1340, 1236,  209,   42
3699, 1198,  262,  235,  236
3700, 1197,  472,  467,   42
3701,  954,  185, 1108,  183
3702, 1059, 1338,   69,  296
3703, 1126, 1132,  922, 1130
3704,   25,  192, 1227,   24
3705, 1061, 1057, 1060,  555
3706,  926,  271,  925,  245
3707, 1302, 1222, 1283, 1284
3708,  924,  918, 1203,  925
3709,  921,   68, 1338,  297
3710, 1301, 1098, 1160, 1102
3711, 1103,  919,  539,  544
3712, 1049,   72,  293,   71
3713, 1234,  294,  267,  268
3714, 1144,  417,  391,  418
3715,  923,  245,  925,  219
3716,  924,  915,  917,  918
3717, 1103,  546,  542, 1226
3718,  920,  921,  926, 1102
3719, 1059, 1055, 1304, 1204
3720, 1083,   98, 1139,  338
3721, 1211,  663,  111,  110
3722, 1338,  925,  271,  270
3723, 1137,  364,  390,  363
3724, 1220,  702,  697,   92
3725,  918, 1227, 1226,  924
3726, 1259,  561,  560,  556
3727,  336,  337,  888,  363
3728, 1079,  286, 1237,  287
3729, 1228, 1018, 1273,  424
3730, 1334,  443,  416,  417
3731, 1317, 1345,   29,  532
3732, 1117, 1341, 1314,  324
3733,  994,  423,  424,  128
3734, 1001, 1003,  990, 1019
3735, 1062,  555,  551,  556
3736, 1317, 1128, 1229, 1098
3737,  786, 1205,  790,  791
3738, 1345, 1343, 1317, 1130
3739,  196, 1317,  960, 1345
3740,  935,  936, 1145,  939
3741, 1093,  144,  143,  839
3742, 1195,   52,  458,  463
3743, 1116,  725,  730,  729
3744, 1004,  991, 1151,  989
3745,  863,  382,  355,  356
3746, 1137,  389,  363,  390
3747,  874,  862,  329, 1291
3748,  854,  817,  153,  822
3749,  910,  726,  722,  727
3750,  991, 1243,  760,  761
3751, 1004, 1308,   80,  757
3752, 1147,  766, 1151,  767
3753, 1138,  364,  391,  390
3754,  894, 1218,  895, 1257
3755, 1168,  764, 1243, 1149
3756, 1004,  757, 1005, 1308
3757, 1243,  991,  992,  993
3758, 1145,  101, 1146,  341
3759, 1243,  766, 1149,  765
3760, 1243,  765, 1149,  764
3761,  922,  302,   63,  301
3762,  528, 1132, 1126, 1125
3763,   94,  881,  687, 1223
3764, 1083,  364,  363,  337
3765, 1326,  922,  302,   63
3766,  844,  588,  600,  587
3767, 1345,   30,  197,   29
3768, 1137, 1247,  996,  389
3769,  908,  715,  719,  714
3770, 1289,  706, 1313,  705
3771, 1138,  364,  365,  391
3772, 1312,  118, 1177,  434
3773,  900,  156,  157,  591
3774, 1240, 1298,  509, 1239
3775, 1298, 1325,  514,  515
3776, 1091,  444,  107,  108
3777, 1248,  986,  789,  790
3778,  985,  159,  158,  792
3779,  593,  901,  605, 1206
3780,  880,  505, 1239,  504
3781,  503,  504,  880, 1240
3782, 1109, 1239, 1240,  858
3783, 1285,  630,  617,  618
3784,  994, 1273,  424,  423
3785, 1245,  422,  130,  421
3786, 1013,  125,  124,  733
3787,  507,  512, 1287, 1239
3788, 1068,  420,  134,  394
3789, 1109,  878, 1287, 1239
3790, 1014,  401,  427,  400
3791, 1142,  403,  376,  377
3792, 1044,  830,  834,  829
3793, 1324, 1239,  511,  510
3794,  878,  911,  502,  501
3795,  880,  500,  878,  505
3796,  991,  755,  756,  760
3797,  864,  121,  713,  718
3798, 1287,  878,  967,  507
3799,  833, 1178,  838, 1046
3800, 1142,  376,  403,  402
3801,  849,  889,  850,  851
3802, 1043,  828, 1047, 1041
3803, 1043,  828, 1045,  829
3804, 1086, 1050,  841, 1094
3805, 1044, 1042, 1085, 1045
3806, 1307, 1339, 1294, 1330
3807, 1281, 1092, 1089, 1040
3808,  443,  933, 1334,  109
3809, 1085, 1045,  826,  831
3810, 1000,  743,  127,  126
3811,  997,  388,  387,  361
3812,  149,  584,  150, 1092
3813,  882,  628,  641,  640
3814, 1290, 1297,  116,  117
3815, 1097,  924, 1227,   26
3816, 1142,  350,  351,  377
3817,  738, 1141, 1113, 1013
3818,  914, 1156, 1155,  326
3819,  910,   86,  914,  913
3820, 1219,  695,  891, 1221
3821,  909, 1114, 1118,  913
3822, 1114, 1173, 1136, 1172
3823,   86,  914,  913,  326
3824,  325, 1341,  326,   85
3825, 1214, 1320, 1298, 1327
3826, 1307,  357,  384,  383
3827, 1323, 1110,  858,  305
3828,  879,  969,  858, 1110
3829,  942,  249,  223,  250
3830, 1318, 1319,   32,  199
3831, 1319,  198,   31,  199
3832, 1324,  516, 1325,  515
3833, 1328,  517, 1327,   32
3834, 1228,  425,  398,  399
3835, 1327,   33,  517,  512
3836, 1219, 1290,  891,  695
3837, 1126,  940,  274, 1316
3838, 1261,  116, 1290, 1297
3839,  914,  327,  328,  354
3840,  698, 1290,  117, 1296
3841, 1289, 1313,  704,  705
3842, 1296,  704, 1299,  703
3843, 1219, 1288, 1330, 1289
3844, 1217, 1330, 1219, 1220
3845,  891,  695, 1290,  694
3846,  890,  893, 1123,  684
3847, 1008,  744,  745,  749
3848, 1217, 1223, 1309, 1220
3849,  332, 1220, 1223,   92
3850, 1245,  131,  421,  130
3851,  893,  895, 1124,  945
3852, 1015,  426,  425,  399
3853, 1172,  123,  428,  429
3854, 1329, 1173,  404,  430
3855, 1223, 1221,  692,  697
3856,  987, 1005,  757,  756
3857,  744, 1008,  990,  749
3858, 1015,  374,  375,  401
3859, 1307, 1331,  384, 1309
3860,  891,  694,  892,  689
3861,  462, 1264, 1192, 1191
3862, 1242, 1192,  466, 1194
3863,  892,  689,  694,  693
3864,  483, 1053,  479, 1210
3865,  481, 1053, 1182,  480
3866,  860,  407,  406,  380
3867,  979, 1053, 1232, 1052
3868,  902,  904,  973,  155
3869, 1332, 1054,  488,  483
3870, 1060,  917,  918, 1062
3871, 1055,  916,  918, 1060
3872,  969,  255,  281,  254
3873, 1230, 1332,   56,  483
3874,  964,  282, 1232,  308
3875, 1188,  472, 1197,   41
3876,  869, 1176, 1293, 1312
3877, 1172, 1013, 1113, 1012
3878, 1188,   41,   40,  477
3879, 1136,  866,  908, 1133
3880, 1198,  262, 1031,  288
3881, 1065,  798, 1066,  799
3882,  904,  844,  589,  602
3883,  974,  976, 1064,  803
3884,  894,  688,  115,  683
3885,  912,  336,   95,   96
3886,  974,  799,  804,  803
3887,  922, 1126,  940,  274
3888, 1066, 1065,  986, 1249
3889, 1285,  901,  899,  906
3890, 1275, 1066,  982,  164
3891,  945,  847,  848, 1310
3892,  981,  643,  642,  630
3893, 1323,   60,  304,  305
3894, 1056, 1333, 1259, 1258
3895, 1058, 1259, 1061, 1305
3896, 1241, 1161, 1048,  563
3897, 1230, 1232,  309,   56
3898, 1139,  939, 1159,   99
3899,  932, 1091,  933,  417
3900, 1120,  450,  451,  452
3901,  484,  483, 1053,  479
3902, 1097,   27, 1098,  194
3903, 1256,  440,  439,  413
3904, 1091,  445,  444,  418
3905, 1100, 1300, 1127,  533
3906,  888, 1083,  996,  363
3907, 1120,  447,  452,  451
3908, 1334,  442,  415,  416
3909, 1200,  189,  190,  216
3910,  432,  861,  431,  120
3911, 1256,  112, 1247,  948
3912,  365,  391, 1144,  932
3913, 1145,  366, 1144, 1159
3914,  440, 1256,  112, 1247
3915,  932, 1139,  939, 1159
3916,  391, 1138,  932,  365
3917, 1111, 1011, 1010, 1117
3918, 1112, 1114, 1135, 1172
3919, 1111, 1118, 1114, 1117
3920, 1256,  440,  413,  414
3921,   65,  528, 1132, 1126
3922, 1333,  565,  560,  561
3923, 1091,  417,  418,  444
3924, 1019,  347,  374,  373
3925, 1117, 1010,  737,   84
3926, 1101,  457,    3, 1037
3927,  938,   54,   55,  310
3928,  451,  104,  105,  393
3929, 1111,  736,  735,  731
3930, 1299,  704,  709,  708
3931, 1113, 1111, 1141, 1115
3932, 1111, 1114, 1118, 1116
3933,  865,  709,  714,  713
3934, 1112, 1116,  730,  729
3935,  739,  738, 1141, 1113
3936,  862,  406, 1175,  380
3937, 1289,  701,  706,  705
3938, 1134, 1173,  430,  429
3939, 1172, 1173,  429,  428
3940, 1114, 1012, 1142, 1173
3941,  932,  931, 1139, 1138
3942,  905,  127, 1000,  748
3943,   50,  315, 1196, 1077
3944,  854,  821,  817,  822
3945, 1091,  417,  444,  443
3946, 1080,  463, 1195,  464
3947, 1104, 1038, 1037, 1101
3948,  652,  936, 1146,  448
3949, 1238,   50, 1077,  453
3950, 1078, 1080,   52, 1195
3951, 1079,  313, 1078,   52
3952,  308, 1232,  965,   57
3953, 1121,  648,  107,  450
3954,  231,  232,  980, 1051
3955, 1051,  257,  231,  258
3956,  979,  965, 1232, 1332
3957, 1047,  833,  172,  828
3958, 1054,  999,  489,  490
3959, 1332, 1210, 1053,  483
3960,  896,  231,  205,  898
3961,  105,  451,  419,  106
3962, 1169,  129,  758,  130
3963, 1329, 1155, 1136,  866
3964, 1068,  133,  134,  420
3965,  908,  724,  720,  725
3966, 1068, 1022, 1072, 1157
3967, 1112,  734,  730,  735
3968,  727,  913, 1118,   86
3969, 1147, 1152, 1166, 1150
3970, 1041, 1045, 1087, 1042
3971, 1047, 1041,  171,  637
3972,  886, 1045, 1041,  823
3973,  993, 1245, 1171, 1169
3974, 1287, 1213,  227,  967
3975,  868,  710,  715,  714
3976,  149,  837, 1089, 1085
3977, 1228, 1019, 1003,  425
3978, 1049,   72,   71,  558
3979, 1030, 1196, 1029, 1077
3980, 1319,  198,  225,  224
3981, 1228, 1273,  398,  424
3982, 1318,  225,  199,  226
3983, 1006,  745,  744,  740
3984,  853,  886,  885,  852
3985, 1087, 1096,  886, 1088
3986,  852,  884,  853,  886
3987, 1202, 1092,  611,  610
3988, 1202, 1088,  637,  624
3989,  886,  852,  855,  885
3990, 1088, 1040, 1202, 1047
3991, 1015,  400,  374,  401
3992, 1172,  728,  733,  124
3993,  877, 1092,  585,  598
3994, 1016,  428,  427,  401
3995, 1081, 1032, 1266, 1047
3996,  625, 1096,  612, 1088
3997,  905, 1018, 1003,  127
3998,  905,  998, 1003, 1018
3999,  987,  754,  750,  755
4000,  905, 1000,  749,  748
4001, 1170,  989, 1004, 1151
4002,  970,  967,   35,  202
4003, 1247,  440,  111,  112
4004, 1098, 1160,  960, 1301
4005,  945, 1310,  888,  912
4006, 1016, 1314, 1142,  376
4007, 1017,  374, 1019,  348
4008, 1014, 1015, 1016,  401
4009, 1139,  662, 1335,  939
4010, 1128, 1229, 1098, 1099
4011, 1296,  117, 1312, 1297
4012, 1231,  311, 1186,  938
4013,  864,  121,  120,  713
4014, 1016,  401, 1015,  375
4015, 1071, 1070, 1167, 1164
4016,  781,  175,  780, 1268
4017,  779, 1268,  784,  780
4018, 1068, 1072,  420, 1158
4019, 1206, 1073,  594,  593
4020,  864,  122,  430,  121
4021, 1336,  526, 1343,  525
4022,  862,  380,  354,  381
4023, 1343,  531,  526,  527
4024,  946,  673,  669,  674
4025, 1025,  634, 1024,  633
4026,  922, 1130,  941,  940
4027, 1270,  779,  784,  783
4028, 1177,  118,  119,  433
4029, 1022, 1069, 1068, 1070
4030,  914,   87,  875,   88
4031, 1070, 1167, 1253,  775
4032, 1254, 1026,  782, 1253
4033, 1275,  163,  645, 1024
4034, 1269, 1066,  793,  794
4035, 1157,  394,  368,  395
4036, 1269, 1066,  163,  788
4037, 1205,  986,  790,  791
4038,  163, 1075, 1024, 1275
4039,  979,  965, 1332, 1054
4040, 1213,  968, 1110,  253
4041,  963,  967,  970,  968
4042,  231,  966,  896,  230
4043, 1230, 1232,   56, 1332
4044,  966,  898,  979,  980
4045, 1253, 1165,  174,  175
4046,  961,  229,  256,  255
4047,  961, 1174,  230,  229
4048,  925,  218,  245,  244
4049, 1069, 1075,  161,  778
4050,  991,  762,  761,  757
4051, 1150, 1148, 1162, 1166
4052, 1163,  395, 1157,  369
4053, 1152,  777,   77,   76
4054, 1271, 1308,  989,  998
4055,  860,  380,  381,  407
4056, 1274,  423,  396,  397
4057, 1138,  417,  416,  390
4058,  674, 1124,  847,  944
4059,  994,  129,  128,  753
4060, 1162, 1171, 1163,  370
4061,  989, 1004, 1271, 1170
4062, 1169,  129,  422,  423
4063, 1128,  531, 1343,  532
4064, 1316,  248, 1160,  222
4065, 1344, 1160,  248,  247
4066, 1339,  331,  358,  357
4067,  920,  919, 1100, 1103
4068, 1102, 1160, 1344,  247
4069,  947,  113,  438,  439
4070,  848,  672, 1209,  887
4071, 1102,  926,  272,  298
4072,  587,  843,  600,  844
4073, 1300, 1102, 1344,  299
4074, 1208,  669, 1189,  665
4075,  891,  690,  695,  694
4076, 1288,   90,  331,  330
4077, 1339,  331, 1288,   91
4078, 1292,  712,  711,  707
4079, 1169,  422,  129,  130
4080,  881, 1124, 1310,  680
4081,  901,  604,  592,  605
4082,  886,  170,  639,  169
4083, 1245,  130,  763,  131
4084, 1261,  437,  115,  436
4085, 1331, 1218,  411,  385
4086, 1307,  383,  384,  410
4087, 1331,  410,  436,  409
4088,  869, 1176, 1312, 1177
4089,  434,  408, 1312,  435
4090, 1295,  930,  650,  651
4091,   76, 1165, 1255, 1166
4092, 1163,  369,  396,  395
4093, 1083,   97,  338,  337
4094, 1223,  334,  333,   93
4095, 1261,  693,  116,  688
4096, 1158,  422,  421,  395
4097, 1190, 1195, 1078, 1196
4098, 1188, 1340, 1197, 1187
4099, 1243,  764,  759,  760
4100, 1233,  260,  286,  259
4101, 1069,  778,  161,  178
4102, 1085, 1086,  832,  837
4103, 1077, 1178,    4,   49
4104, 1031,  289,  262,  263
4105, 1198,  287, 1079, 1237
4106, 1104, 1077, 1093,  143
4107, 1077, 1178,  143,    4
4108,  145, 1101,  841, 1093
4109, 1032, 1266,  635,  622
4110,  147, 1101,  457,    3
4111, 1170, 1004, 1337,   79
4112,  669, 1189,  665,  664
4113,  984,  791,  796,  795
4114, 1032,   49, 1077,  315
4115,  393,  451,  419,  105
4116, 1236, 1190, 1187, 1237
4117,  845,  154,  817,  812
4118, 1083,  338,  364,  337
4119,  515,  516, 1325,  520
4120,  622, 1032, 1266, 1033
4121, 1238, 1104, 1192,  454
4122, 1035,   44, 1037,  211
4123, 1245,  421, 1158,  422
4124, 1264,  457, 1037,   44
4125,  950,  952,  957,  951
4126,  914,  326,  327,  353
4127,  950, 1215,  951,  957
4128, 1095, 1096,  882,  852
4129, 1158,  420,  394,  421
4130, 1161,  564,  569,  568
4131, 1306,  960, 1160,  221
4132, 1072,  131,  132,  420
4133, 1160,  220,  923, 1306
4134, 1306, 1098,  195,  194
4135, 1344,  247,  274,  273
4136, 1021,  136,  621,  608
4137, 1070, 1167, 1164, 1253
4138, 1152,  776,  777, 1165
4139, 1098,   28, 1317,  195
4140,   87,   86,  327,  914
4141,  943,  960,  222, 1316
4142,  994,  758,  129,  753
4143,  993, 1151, 1170, 1148
4144, 1160,  248,  221,  222
4145, 1301, 1126, 1300, 1344
4146,  943, 1345,  197,  196
4147, 1317, 1345,  196,   29
4148, 1341,  351,  324,  325
4149, 1344,  274,  247,  248
4150, 1028, 1035, 1030, 1037
4151,  840, 1093,  841, 1050
4152, 1271,  345,  372, 1272
4153, 1047, 1178,  635,  173
4154, 1135,  724,  728,  723
4155, 1007,  746, 1009,  747
4156,   46, 1036,  211, 1028
4157, 1192, 1191, 1242,  461
4158, 1303,   95,  335,   94
4159, 1238, 1030, 1077, 1196
4160, 1047, 1041,  828,  171
4161, 1006,  739,  740,  744
4162,  385,  358, 1309,  359
4163, 1117,   84,   85,  325
4164, 1178, 1047,  833,  173
4165, 1081, 1077, 1032, 1178
4166,   97,  888,   96,  337
4167, 1333, 1259, 1258,  562
4168,  901,  604,  591,  592
4169,  874,   89,  329,   88
4170,  870,  119,  708,  120
4171, 1126, 1127,   66,   65
4172, 1053,  480,  485,  484
4173, 1126,  528, 1127,   65
4174,  529, 1125, 1131,  524
4175, 1277, 1345,  527,   30
4176,  859,  862,  874,  863
4177,  864,  713,  870,  865
4178, 1147,  772, 1152,  771
4179, 1164, 1026, 1253, 1165
4180,  925,  217,  218,  244
4181, 1167,  776, 1253,  775
4182, 1255,  342,  137,  316
4183,  352,  353,  326, 1156
4184, 1162,  343, 1157, 1315
4185, 1177,  119,  703,  708
4186,  317,   76,  316, 1315
4187, 1243,  761,  765,  760
4188,  860, 1176,  407,  381
4189, 1183,  233,  259,  232
4190, 1209, 1189, 1335,  665
4191, 1312,  117,  434,  435
4192,  848,  677,  672,   97
4193, 1311,  409,  408,  382
4194, 1086,  841,  836,  837
4195,  869, 1289, 1292, 1313
4196, 1033,   47,  609,   48
4197,  862,  354,  355,  381
4198, 1176,  407,  408,  434
4199,  697, 1219,  701,  702
4200,  943, 1130,  941, 1345
4201,  848,  676,  672,  677
4202,  359, 1223,  332, 1309
4203,  285, 1233,  258,  284
4204, 1261,  894,  115,  437
4205, 1089,  584,  583,  149
4206, 1290,  693,  117,  116
4207, 1050,  836,  841,  840
4208, 1140, 1211,  946,  111
4209, 1247,  441,  440,  414
4210, 1211,  668,  946,  111
4211,  914,  354,  862,  353
4212,  685,  681,  881,  686
4213, 1034,  237,  210, 1035
4214,  914,   87,  328,  327
4215,  236,  263, 1031,  262
4216, 1045, 1041,  823,  828
4217, 1047,  173,  636,  172
4218, 1202,  623, 1266,  610
4219, 1131, 1128,  530, 1343
4220,  891,  690,  694,  689
4221,  353,  326, 1156,  914
4222, 1041,  828,  171,  823
4223,  676, 1310,  848,  847
4224, 1050,  835,  840,  839
4225,  893,  683,  678,  679
4226,  237,  236, 1034,  210
4227, 1050,  840,  835,  836
4228, 1086,  836,  831,  832
4229, 1206,  607,  606,  594
4230, 1043, 1047, 1040, 1041
4231, 1034,  236,  263, 1031
4232,  982,  165,  644,  164
4233,  947,  113,  114,  438
4234, 1046,  838,  833,  834
4235,  922, 1279,  276,  940
4236, 1326,  922, 1279,  302
4237,  928,  659,  654,  655
4238,  280,  969,  254, 1110
4239, 1208,  847,  848, 1140
4240, 1088,  624,  611,  612
4241, 1335,  666,  662,  667
4242, 1097,   26,   27,  194
4243,  929,  658,  109,  653
4244, 1085,  832, 1086,  831
4245,  110,  109,  442, 1334
4246, 1119,  653,  108,  648
4247, 1178,  173,  838,    4
4248, 1044,  835,  834,  830
4249, 1143, 1120,  451,  447
4250,  922,  941, 1130, 1132
4251,  923,  220,  219,  193
4252, 1046, 1047,  833, 1178
4253, 1213,  253,  226,  227
4254, 1160,  221,  247,  220
4255, 1189,  659,  663,  658
4256, 1226,  547,  551,  546
4257, 1042, 1085, 1045, 1090
4258, 1119,  653,  648,  649
4259, 1046,  834,  839,  838
4260,  557, 1061, 1227,  556
4261, 1122,  452,  449,  450
4262,  150,  832, 1085, 1090
4263,  922,  274,  940,  275
4264,  949,  577,  576,  572
4265,  933,  929,  109,  108
4266, 1103,  917,  544,  545
4267, 1047,  173,  172,  833
4268, 1045,  831,  830,  826
4269, 1305, 1203, 1227, 1058
4270, 1183, 1184, 1185,  207
4271, 1227,  552,   26,   25
4272, 1047,  637,  171,  172
4273,  853,  168,  883,  813
4274,  922, 1279,  302,  276
4275, 1043,  833,  828,  829
4276, 1340,   41,  209,  208
4277, 1085,  827,  831,  826
4278, 1047,  171,  828,  172
4279,  106,  451,  419,  445
4280, 1121,  107,  445,    7
4281,  993, 1245, 1150, 1171
4282, 1239,  504,  505,  509
4283,  843,  152,  827,  822
4284, 1302,  413, 1257,  412
4285, 1227,   25,  557,  552
4286,  651,  138,  139,  448
4287,  686,  681,  881,  682
4288, 1221,  881,  687,  686
4289, 1121,    7,  445,  106
4290,  652,  138,  651,  448
4291, 1063, 1059,   70, 1049
4292, 1334,  109,  442,  443
4293,  935,  936, 1295, 1146
4294, 1119,  648,  108,  107
4295, 1045,  829,  828,  824
4296, 1041,  171,  638,  170
4297, 1311, 1294, 1330, 1307
4298, 1146,  341,  102,  447
4299, 1146,  652,  446,  101
4300, 1145,  366,  340,  367
4301,  930,  650,  651,  655
4302,  928, 1189,  659,  664
4303,  929,  658,  653,  654
4304,  824,  823, 1105,  819
4305,   24, 1305, 1203, 1227
4306,  652,  651,  936,  448
4307, 1045,  828,  823,  824
4308, 1041,  171,  170,  823
4309, 1334,  442,  416,  443
4310, 1091, 1121,  445, 1120
4311, 1316,  248,  940,  274
4312, 1298,  508,  509,  513
4313,  862,  380,  379,  353
4314,  881,  687,  686,  682
4315, 1055, 1060, 1063,  553
4316, 1084,  843, 1090,  827
4317, 1295,  449,  448,  140
4318, 1038, 1101, 1036, 1037
4319,  884,  168,  169,  640
4320,  687, 1223,  692,   94
4321,  649,  648,  449,  141
4322,  853,  818,  169,  813
4323, 1175,  353,  862,  379
4324,  820,  821,  855,  825
4325, 1295,  448,  449,  452
4326, 1043,  829,  834,  833
4327,  648,  450,  142,  107
4328, 1146,  448,  452,  446
4329,  142,  107,  450,    7
4330,  649,  141,  449,  140
4331,  861,  406,  432,  405
4332,  843,  151,  827,  152
4333,  914,  862,  354,  328
4334,  888,  887,   97,  848
4335,  855,  886, 1045, 1087
4336, 1121,  445,  451,  106
4337, 1133, 1135,  122,  723
4338,  462, 1191,   43, 1264
4339, 1121,  451, 1120,  450
4340,  886,  169,  818,  170
4341, 1084,  826,  822,  827
4342,  101,  936, 1146,  652
4343,  930,  655,  651,  656
4344,  885,  823,  818,  819
4345, 1269,  789,  986,  794
4346, 1133,  121,  718,  122
4347, 1295,  448,  651,  139
4348,  652,  448,  446,  138
4349,  875,  910,  866,  908
4350, 1329, 1136, 1155, 1173
4351, 1084,  821,  826,  825
4352, 1090,  150,  151,  585
4353, 1175,  379,  405,  378
4354, 1045,  830,  829,  825
4355, 1119,  654,  929,  653
4356, 1105,  820,  824,  819
4357, 1105,  820,  825,  824
4358, 1032, 1178, 1047, 1081
4359, 1096,  638,  625,  626
4360,  648,  141,  142,  449
4361,  937,  939,  931, 1335
4362, 1202,  610,  611,  623
4363,  850,  973,  812,  811
4364,  854,  152,  822,  153
4365, 1104,  454,  144,  145
4366,  910,  909,  727,  913
4367, 1181,  469,  474,  473
4368,  908,  715,  868,  720
4369,   90, 1291, 1288, 1292
4370, 1079,  313,  286,  287
4371, 1143, 1145,  935, 1146
4372, 1033,  263,   47,   48
4373, 1230,   56,   55,  478
4374, 1111,  735,  736, 1115
4375,  853,  169,  168,  813
4376,  914,  862,  328,   88
4377,  570,  571, 1333,  951
4378,  885,  818,  813,  814
4379, 1329, 1156, 1342, 1155
4380, 1180,  474,  478,  473
4381,  979,  966, 1051, 1232
4382,  854,  817,  845,  153
4383, 1194,  466,  470,  465
4384, 1077,  453,   50,  143
4385, 1244,  764,  769,  768
4386,  889,  809,  813,  808
4387, 1316,  222,  940,  248
4388,  979, 1232, 1053, 1332
4389,  909, 1114, 1116, 1118
4390, 1140,  441, 1211,  111
4391,  850,  816,  811,  812
4392,  973,  154,  812,  155
4393, 1273,  423,  397,  424
4394,  855,  815,  816,  820
4395, 1318, 1319,  199,  225
4396,  973,  811,  807,  812
4397, 1323, 1110,  305,  279
4398,  854,  817,  821,  816
4399,  804, 1039,  976,  809
4400,   26, 1227,   25,  924
4401, 1032, 1077,   49, 1178
4402,  809,  805, 1039,  810
4403,  889,  810,  814,  809
4404,  864, 1329, 1175,  431
4405, 1101, 1094,  842,  841
4406,  883,  808,  813,  168
4407,   94,   95,  687,  881
4408, 1195,  460,  464,  459
4409, 1039,  805,  806,  810
4410,  455, 1101,  147,  146
4411, 1028,   47,  237,   46
4412, 1266,  635,  622,  623
4413,  147,  457,  455,  456
4414,  881,  686, 1221,  685
4415,  850,  812,  817,  816
4416, 1337,   80,  320,   79
4417, 1310,  681,  676,  677
4418,  677,   96, 1310,  682
4419,  153,  843,  587,  845
4420, 1226,  542,  547,  546
4421, 1306,  221,  220,  194
4422, 1329,  404,  405,  431
4423, 1262,  601,  602,  614
4424,  976,  804,  809,  808
4425,  320, 1308,  321,   80
4426, 1084,  843,  827,  822
4427,  145,  146, 1101,  455
4428,  982,  166,  165,  798
4429,  921,   67,  297,  298
4430, 1329, 1156, 1175,  378
4431,  975,  804,  800,  805
4432,  804,  975, 1039,  805
4433,  981,  630, 1276,  643
4434,  983,  802,  806,  801
4435,  236, 1082,  210,  209
4436, 1192,  460,  461,  465
4437,   86,  910,  914,   87
4438,  917,  549,  544,  545
4439, 1311, 1312,  435, 1297
4440, 1304,  296,  269,  270
4441, 1064,  166,  642,  643
4442,  899,  591,  604,  603
4443,  863,  355,  382,  381
4444,  882,  640,  627,  628
4445,  167,  883,  808,  803
4446, 1064,  166,  803,  167
4447,  798,  982,  166,  803
4448, 1100, 1301, 1098, 1099
4449,  971,  603,  615,  602
4450,  991,  756,  757,  761
4451,  407,  433,  860,  406
4452, 1204,  242,  268,  241
4453, 1238,  454,  459,  458
4454,   70, 1059, 1204, 1049
4455, 1055,  918, 1058, 1061
4456, 1192,  460,  459,  455
4457,  983,  805,  801,  806
4458,  906, 1285, 1249, 1276
4459, 1176,  863, 1293,  382
4460, 1274, 1169,  422,  423
4461, 1331, 1261, 1330, 1297
4462, 1264,   43,  462,   44
4463,  461, 1192,  457,  460
4464, 1170,   78,   79,  319
4465, 1175,  861,  431,  405
4466,  983,  802,  807,  806
4467, 1262,  614,  602,  615
4468, 1269,  793, 1066,  788
4469, 1221, 1219,  695,  696
4470,  976,  804,  808,  803
4471,  984,  800,  795,  796
4472, 1296,  118,  698,  703
4473,  983,  800,  801,  805
4474, 1314,  376,  349,  350
4475, 1311, 1330, 1293, 1297
4476,  798,  982, 1066,  165
4477,  975,  804,  799,  800
4478, 1339,  331,  332,  358
4479, 1261,  693, 1290,  116
4480,  950,  956,  958,  959
4481,  883,  808,  168,  167
4482,  894,  438,  114,  437
4483, 1066,  794,  798,  793
4484,  993, 1243,  991, 1151
4485, 1273,  397,  398,  424
4486, 1257,  439,  412,  413
4487,  938,  468,   54,   53
4488,  477,  476,  481, 1225
4489,  109,  933, 1334,  110
4490,  885,  819,  818,  814
4491,  984,  797,  801,  796
4492,  468, 1193,   53,  938
4493, 1224,   38,  487,   39
4494,  799,  795, 1065,  800
4495, 1232,  310,  309,  283
4496,  979, 1332, 1053, 1054
4497,  904,  154,  155,  589
4498, 1054,  484,  488,  483
4499,  980,  232,  205,  206
4500,  155,  807,  902,  156
4501, 1269, 1066,  794,  986
4502, 1285,  907,  617,  630
4503, 1070,  778,  178,  177
4504,  899,  603,  590,  591
4505, 1066,  793,  164,  788
4506,  174,   76, 1165,    5
4507, 1195,  459,  464,  463
4508, 1276,  643,  631,  644
4509, 1269,  783,  788,  163
4510, 1024,  633,  634,  646
4511,  436,  409,  435, 1297
4512,  792,  159, 1205,  985
4513, 1182,  470,  475,  474
4514,  414,  415,  388,  997
4515,  888,  997,  362,  996
4516, 1194,  470,  466,  471
4517,  979,  980,  978, 1053
4518, 1181,  474,  470, 1182
4519,  984,  792,  797,  796
4520, 1324,  516,  515,  511
4521,  974,  803,  798,  799
4522, 1311, 1331, 1297,  409
4523, 1253, 1165,  175,  776
4524, 1248,  790,  789,  785
4525,  890,  893,  895, 1123
4526,  175,  777,  776, 1165
4527, 1248,  786, 1205,  790
4528, 1331,  437, 1218, 1261
4529,  909, 1136,  908, 1116
4530,  471, 1197,  472,  467
4531, 1126, 1316, 1130,  940
4532, 1313,  704,  705,  709
4533, 1313,  705,  706,  710
4534,  146, 1101,  147,  842
4535, 1289,  705,  704,  700
4536, 1114, 1155, 1341,  913
4537, 1269,  789,  788,  784
4538,  844,  601,  589,  602
4539, 1191,  462,   43,  467
4540, 1155, 1341,  326,  352
4541, 1232,  308,   56,   57
4542, 1313,  705,  710,  709
4543, 1269,  788,  783,  784
4544,  777,  174,   76, 1165
4545, 1096, 1088,  625,  638
4546, 1182,  475,  479,  474
4547,  984,  800,  796,  801
4548, 1133,  723,  718,  719
4549,  987, 1004,  991,  757
4550,  883,  168,  640,  641
4551, 1246,  160,  787,  782
4552, 1206, 1249,  901, 1250
4553,  986,  794,  789,  790
4554, 1005,  751,  746,  747
4555, 1248,  785,  780,  781
4556, 1248,  786,  785,  781
4557,  911,  501,  496,  497
4558, 1023,  137,  136, 1021
4559,  999,  965,  488,  493
4560, 1270,  783,  778,  779
4561, 1075,  783,  162,  778
4562, 1121, 1122, 1119,  648
4563, 1340, 1197, 1236,   42
4564, 1155,  326, 1341,  913
4565, 1007,  752,   82,   81
4566, 1111, 1117, 1010,  737
4567, 1021,  137,  608,  595
4568, 1026,    5,  160,  782
4569, 1340, 1184,  207, 1185
4570, 1008,  745,  746,  750
4571, 1248,  790,  785,  786
4572,  697, 1223,   93,  692
4573, 1314, 1011, 1016, 1142
4574, 1248,  780,  785,  784
4575, 1275,  645,  163,  164
4576, 1231,  285, 1186,  311
4577, 1206,  606,  593,  594
4578, 1107,  575,  579,  574
4579, 1218,  438,  437,  411
4580, 1023,  394,  135,  368
4581, 1307,  410,  409,  383
4582, 1269,  794,  793,  789
4583,  646, 1075, 1024,  163
4584, 1064,  167,  641,  642
4585, 1248,  784,  785,  789
4586,  176, 1253, 1268,  175
4587, 1053,  486,  978,  485
4588, 1287,   34,   33,  512
4589,  204,  231,  205,  896
4590, 1253,  175,  174,  781
4591, 1246,  782,  786,  781
4592, 1113,  738,  733,  734
4593,  980,   38,  205,  898
4594, 1226,  547,  552,  551
4595, 1097, 1099, 1098, 1229
4596,  175, 1165,  174,  777
4597, 1014,  427,  426,  400
4598,  907,  630,  629,  617
4599, 1302,  386,  387,  413
4600,  978,  486,  487,  491
4601,  691, 1221,  695,  696
4602,  914, 1156, 1175,  866
4603, 1111,  737,  736,  732
4604, 1173,  402,  429,  428
4605, 1070,  778,  177,  779
4606,  594,  595, 1073,  607
4607, 1067,  178,    8,  773
4608, 1205,  786,  787,  791
4609, 1290,  699,  695,  700
4610,   93,   92, 1223,  697
4611, 1152,   76, 1165,  777
4612,  949,  872,  572,  951
4613, 1070,  774,  775,  177
4614, 1219,  700, 1290,  695
4615, 1199,  216,  217,  243
4616, 1203, 1201, 1305,   23
4617, 1152,  776,  771,  772
4618, 1167,  775,  771,  776
4619, 1296,  703,  698,  699
4620, 1232,  282,  283,  309
4621, 1321, 1323,  278, 1322
4622,  993, 1171, 1150, 1148
4623, 1253,  176,  775,  776
4624, 1221,  690,  691,  695
4625, 1071,  178,  773,  774
4626, 1067,  773,    8,  132
4627, 1167,  774,  770,  775
4628, 1152,  777,  776,  772
4629, 1007,  742, 1267,  747
4630,  747, 1267,   83,  742
4631,  177, 1070,  779,  176
4632, 1313,  706,  711,  710
4633, 1070,  176,  177,  775
4634, 1054,  488,  484,  489
4635, 1054,  485,  490,  489
4636, 1066,  165,  793,  798
4637,  995,  759,  763,  758
4638, 1010,   83, 1267,  742
4639, 1027,  495,  490,  491
4640,  965,  493,   58,  488
4641, 1072,  421,  131,  420
4642, 1068,  132,    8,  133
4643,  457, 1264, 1192,  462
4644,  999,  493,  488,  489
4645,  999,  489,  494,  493
4646, 1149,  770,  769,  765
4647,  395, 1163, 1274,  396
4648, 1147,   78,   77,  772
4649, 1017,  322, 1267,  323
4650, 1027,  490,  495,  494
4651, 1147,  771,  766,  767
4652,  967,   34,  507,   35
4653, 1070,  774,  178, 1071
4654,  925,  271,  270,  244
4655, 1027,  492,  496,  491
4656, 1007,  747,   82,  752
4657,  346, 1271,  345,  372
4658, 1071,  773,  769,  774
4659, 1157,  369,  395,  368
4660, 1149,  764,  765,  769
4661, 1071,  769,  773,  768
4662, 1167,  775,  770,  771
4663, 1126,   65,  299,  300
4664,  493,  856,   58,   59
4665,  920, 1097,  924, 1226
4666, 1027,  496,  495,  491
4667,   82,  747, 1267,   83
4668, 1273,  989,  994,  998
4669,  965,  856,  963,  969
4670, 1245,  131,  763,  768
4671,  870,  708,  713,  120
4672,  911,   35,  502,   36
4673,  857,  494,  499,  498
4674, 1051,  284, 1232,  283
4675,  857,  494,  498,  493
4676,  409, 1331, 1297,  436
4677, 1324,  515,  510,  511
4678, 1151,   79,   78,  767
4679, 1152,  772,   77,  777
4680, 1004,   80,   79,  762
4681,  911,  497,  502,  501
4682,  880,  498,  499,  503
4683, 1239,  510,  506,  511
4684,  992,  754,  987,  755
4685, 1267,   82,   83,  323
4686, 1243,  764,  760,  765
4687, 1168,  768,  763,  764
4688,  330,   90, 1291, 1288
4689, 1072,  131,  768,  132
4690, 1025, 1074, 1073, 1252
4691,  621, 1023,  136, 1021
4692, 1162,  343,  317,  344
4693, 1147,  767,   78,  772
4694, 1275, 1066,  164,  163
4695,  850,  810,  811,  815
4696, 1213,  252,  226,  253
4697,  995, 1243,  764,  759
4698,  995,  759,  764,  763
4699,  759,  995,  992,  758
4700, 1298,  514,  509,  510
4701, 1152, 1150, 1164, 1166
4702,  992,  760,  759,  755
4703,  880,  503,  499,  504
4704, 1246, 1268,  781, 1248
4705, 1274,  396,  423,  422
4706,  992,  755,  991,  760
4707,  879,  857,  880,  858
4708, 1331,  437,  436,  410
4709, 1308,  757,  752,   81
4710,  166,  982,  643, 1064
4711,  987,  750,  754,  749
4712, 1239,  509,  505,  510
4713, 1249,  984,  985,  901
4714, 1151,  762,   79,  767
4715, 1005,  752,  756,  751
4716, 1318,  200, 1213,  226
4717, 1151,  767,  766,  762
4718, 1014, 1012, 1013,  427
4719,  920,  924,  193,  923
4720, 1032,   48,   49,  289
4721, 1274,  397, 1273,  423
4722, 1221,  691,  687,  692
4723,  746, 1005, 1007, 1008
4724, 1026,  174,    5,  782
4725, 1253,  176,  776,  175
4726,  878,  502,  507,  506
4727, 1029,  288,  315,  314
4728,  686, 1221,  690,  691
4729,  923,  246,  245,  219
4730, 1149,  770,  765,  766
4731,  960, 1301, 1317, 1098
4732, 1093,  144,  839,  840
4733, 1255, 1164, 1165, 1026
4734, 1239,  511,  506,  507
4735, 1308,  757,   81,   80
4736, 1007, 1010,  742, 1009
4737,  967, 1287,  201,  227
4738, 1004,  757,   80,  762
4739, 1006, 1009, 1008,  746
4740, 1009,  746,  741,  742
4741,  686,  691,  687, 1221
4742, 1131,  519,  523,  518
4743, 1087,  843, 1095,  877
4744,  692, 1223,   93,   94
4745,  886,  818,  885,  823
4746, 1002,  739,  744,  743
4747,  993, 1150, 1245, 1168
4748, 1010,  742,  741,  737
4749, 1167,  774,  769,  770
4750, 1132,   65,   64,  523
4751,  198,   30, 1345, 1277
4752, 1098, 1317,  960,  195
4753,  685,  681,  680,  881
4754,  987,  751,  756,  755
4755, 1003,  425,  127, 1018
4756, 1324,  512,  517,  516
4757,  990, 1005, 1007, 1308
4758, 1327,   33,   32,  517
4759,  908,  725,  720,  721
4760, 1337, 1004, 1271, 1308
4761, 1000,  748,  127,  743
4762, 1169,  130,  758,  763
4763, 1323,   61,  304,   60
4764, 1338,  296,  270,  297
4765, 1243,  765,  761,  766
4766, 1105,  886,  855,  885
4767,  861,  433,  432,  406
4768, 1006,  740,  741,  745
4769, 1175,  405,  379,  406
4770, 1005,  751,  747,  752
4771,  570,  565,  569, 1161
4772,  587,  845,  588,  153
4773, 1306,  220,  923,  194
4774,  293, 1234,  267,  266
4775,  734,  735, 1115,  739
4776,  240, 1235,  214,  959
4777, 1263,  187,  214,  213
4778, 1235,  266,  240,  267
4779, 1324, 1328, 1325,  516
4780, 1326,   63,   62,  513
4781,  845,  843,  587,  844
4782, 1103,  541,  545,  540
4783, 1263,  959,  213,  214
4784, 1324,  516,  511,  512
4785,  959,  240,  239,  213
4786,  306,  858,  856,  969
4787, 1263,  959, 1154,  213
4788, 1107,  574,  951,  575
4789, 1263,  213, 1154,  187
4790, 1118,  727,  732,  731
4791, 1277,   31,  527,  522
4792, 1116,  730,  726,  731
4793,  872,  187, 1263, 1154
4794,  232,  258, 1051,  231
4795, 1116,  725,  726,  730
4796, 1230, 1232,  310,  309
4797,  966,  283,  256,  257
4798,  861,  431,  120,  864
4799, 1172,  123,  728,  124
4800,  911,  497,   36,  502
4801, 1017,  348,  375,  374
4802, 1135,  724,  729,  728
4803,  896, 1174,   37,  204
4804,  352, 1341,  351, 1342
4805, 1326,  513,  518,   63
4806,  910,  727,  722,   87
4807,   86,  913, 1118,   85
4808,  389,  996,  363,  362
4809, 1251, 1250,  631, 1276
4810,  901,  605,  592,  593
4811,  909,  726, 1118, 1116
4812,  389, 1247,  997,  415
4813,  919,  543,  538,  539
4814, 1317,   29,   28,  537
4815,  530, 1128, 1129,  531
4816, 1131,  524,  523,  519
4817, 1133,  724,  723,  719
4818, 1172,  123,  124,  428
4819,  875,  717,  722,  721
4820, 1343,  532,  531,  527
4821, 1306, 1098,  923, 1160
4822, 1288,  707,  706,  702
4823,  551,  917,  546,  550
4824, 1110,  252,  279, 1323
4825, 1336,  526,  522,  527
4826,  875,  908,  868,  721
4827,  982,  644,  165,  643
4828, 1232,  309,   56,  308
4829,  908,  724,  719,  720
4830,  978,  486,  491,  490
4831, 1155,  909,  866,  913
4832, 1199,  243,  242,  216
4833,  865,  864, 1133,  866
4834,  203,   36,  970, 1174
4835, 1014,  125,  426,  427
4836,  165,  166,  982,  643
4837, 1113,  729,  733,  728
4838,  724, 1136,  908, 1133
4839, 1340,   41,   42,  209
4840,  921,   68,  297,   67
4841, 1127,  533,  528,  529
4842, 1125,  524,  529,  528
4843,  938,   54,  311,   53
4844, 1300,  538,   67,  533
4845,   36,   37,  911, 1174
4846, 1180,  938, 1181,  473
4847, 1236, 1191, 1082,   42
4848, 1282,  610, 1202, 1266
4849,  875,   87,  722,   88
4850, 1097,  542, 1229,   27
4851, 1343,  526,  531,  530
4852, 1292, 1288,   90,  707
4853,  910,  727,   87,   86
4854, 1210,  479,  483,  478
4855, 1229, 1128,  537,  536
4856, 1071,  768, 1244,  769
4857, 1128,  530, 1343,  531
4858,  295, 1059, 1204,   70
4859,  355,  863, 1291,  862
4860, 1232,  966,  964,  965
4861, 1292, 1288,  707,  706
4862,   37,   38,  492,  897
4863,  865,  718,  714,  719
4864, 1102,  298,  272,  299
4865,  896,  492,  897,   37
4866,  909, 1136, 1155,  866
4867,  908,  715,  720,  719
4868,  865,  718,  713,  714
4869,  909, 1118,  727,  913
4870,  978,  487,  492,  491
4871,  916,  543,  544,  548
4872, 1097,   26,  194,  193
4873,  869,  863, 1292, 1293
4874,  964,  281,  308,  307
4875, 1118,  731,  726,  727
4876, 1100,  539,  538,  534
4877,  876,   89,   88,  717
4878,  875,  722,  717,   88
4879,  897,  492,  487,   38
4880, 1045, 1084, 1090,  826
4881,  371, 1272, 1273,  372
4882, 1228,  373,  372,  346
4883,  886,  884,  169,  639
4884, 1296, 1312,  118, 1177
4885,  868,  720,  715,  716
4886,  921,  926,  298,  297
4887,  868,  709,  710,  714
4888, 1060,  553,  548,  549
4889,  165,  982, 1066,  164
4890, 1002,  126,  125,  738
4891,  415, 1247,  997,  414
4892, 1129,  540,  539,  535
4893,  990, 1286,  998, 1308
4894, 1127,  529,  534,  533
4895, 1342,  352, 1156,  378
4896, 1338,   68,   69,  296
4897,  919,  543,   68,  538
4898, 1083, 1138, 1137,  364
4899,  946,  668,  673,  112
4900, 1137, 1138,  416,  390
4901,  875,  717,  721,  716
4902, 1301, 1344, 1300, 1102
4903,  896,   37,   38,  205
4904, 1144,  418,  392,  419
4905,  916,  544,  549,  548
4906, 1099, 1229,  541,  536
4907, 1288,  702,   91,  707
4908, 1311,  383,  409,  382
4909, 1291,  329,  330,  356
4910,  531, 1128, 1129,  536
4911, 1177,  119,  870,  433
4912,  899,  156,  900,  591
4913, 1133,  723,  122,  718
4914, 1311, 1294,  383,  382
4915,  864,  121,  431,  120
4916,  864,  430,  431,  121
4917, 1131,  941, 1326, 1132
4918, 1274, 1245, 1158,  422
4919,  923,  220,  246,  219
4920,  392,  366, 1144,  393
4921, 1339,  357, 1294,  331
4922, 1198,  287, 1237,  261
4923, 1080,  468,   53,  463
4924, 1288,  330,  331, 1294
4925,  801,  983,  802,  797
4926,  541,  540, 1099,  536
4927, 1291, 1288, 1294,  330
4928, 1291,  330,   89,   90
4929,  844,  601,  588,  589
4930, 1129,  539,  534,  535
4931,  876,  712,   89,  717
4932, 1060, 1063,  553,  554
4933, 1326,  922,  941, 1279
4934, 1186,  286,  312,  285
4935, 1340, 1236, 1187, 1185
4936, 1097,   27,  547,  542
4937, 1220,  702,   92,   91
4938, 1291,  329,   89,  330
4939, 1301, 1102, 1160, 1344
4940, 1236,  208,  209,  235
4941, 1282, 1281,  597,  596
4942, 1237,  234,  235,  261
4943, 1092,  585,  597,  584
4944, 1219,  695,  696,  700
4945, 1290,  699,  694,  695
4946,  924,  218,  192,  219
4947, 1014,  126,  426,  125
4948, 1082,   42,   43,  210
4949, 1297,  116,  435,  436
4950,  916,  543,  548,   69
4951, 1251,  632,  645,  644
4952,  917,  916,  544,  549
4953, 1060,  554,  550,  555
4954, 1095,  626,  613,  614
4955, 1297,  116,  117,  435
4956, 1290,  698,  693,  694
4957,  886, 1041,  170,  823
4958,  924, 1227, 1203,  918
4959, 1288,   91,   90,  707
4960, 1307, 1309,  384,  358
4961, 1192,  454,  455,  459
4962,  892,  694, 1290,  693
4963, 1098,  195,  194,   27
4964, 1226,  918,  917, 1062
4965, 1237,  260,  287,  286
4966, 1179, 1186, 1233, 1185
4967,  976,  809,  889,  808
4968, 1198,  288,  261,  262
4969, 1242,  466,  462,  467
4970, 1242,  461,  462,  466
4971, 1292,  707,   90,  712
4972, 1242,  461, 1191,  462
4973,  917,  550,  549,  545
4974, 1100, 1102, 1300,  921
4975,  691, 1221,  696,  692
4976, 1059,   70,  548,  553
4977, 1290,  693,  698,  117
4978,  891,  690, 1221,  695
4979, 1062,  555,  550,  551
4980, 1290,  694,  699,  698
4981, 1291,  356,  330, 1294
4982, 1242, 1191,  467,  462
4983,  519, 1325,  518, 1131
4984, 1203,  218,  925,  217
4985,  702, 1289,  701,  706
4986, 1237,  260,  261,  287
4987, 1078,   51,  313,  314
4988, 1197, 1194, 1242, 1076
4989,   25,  924,  193,   26
4990, 1080,   52, 1195,  463
4991, 1296, 1297, 1312, 1293
4992, 1194,  469,  464,  465
4993, 1198,  261,  288,  287
4994,  552, 1097,  547, 1226
4995, 1282, 1040, 1266, 1202
4996, 1311, 1331, 1307, 1297
4997, 1081, 1032, 1038, 1033
4998, 1289, 1288,  702, 1219
4999, 1123,  689,  685,  690
5000, 1078,   51,   52,  313
5001, 1063,  558,   71,  553
5002, 1204,  243,  269,  242
5003, 1292,  712,   90,   89
5004, 1263,  214,  188,  215
5005, 1104,  145,  455,  454
5006, 1024,  633,  645,  632
5007,  690, 1221,  686,  685
5008, 1197,  467, 1191,   42
5009, 1260, 1033,   47,  609
5010, 1258,   23,   22,  567
5011,  867,  499,  495,  500
5012, 1063,  554,  559,  558
5013,  892,  689,  693,  688
5014, 1133, 1135, 1134,  122
5015, 1176, 1312,  434,  408
5016,  908,  865,  714,  719
5017, 1331,  411,  437,  410
5018, 1134,  429,  122,  123
5019, 1236,  234,  208,  235
5020, 1219,  696, 1221,  697
5021, 1234,  293,  267,  294
5022, 1314, 1341,  350,  324
5023, 1223, 1283, 1222,  359
5024, 1342,  378,  351,  352
5025, 1173,  430,  429,  403
5026,  893,  680,  685,  684
5027, 1341,  325,  326,  352
5028, 1134, 1136, 1173, 1172
5029, 1057,  559,  555,  560
5030,  896,  979,  898,  897
5031, 1100,  919,  920,  921
5032,  565, 1153, 1161,  570
5033,  864, 1329, 1133,  866
5034,  893,  684,  683,  679
5035, 1161,  568,  563,  564
5036, 1258,  562,   23,  567
5037,  869, 1296, 1289, 1313
5038, 1076, 1181, 1194,  470
5039, 1183,  233,  207, 1185
5040,  681, 1310,  680,  881
5041,  992,  993,  995, 1243
5042,  583, 1281, 1260,  596
5043, 1057,  559,  560,  564
5044, 1333,  562,  567,  566
5045,  692, 1221,  696,  697
5046,  891, 1290,  892,  694
5047, 1033,  622,   48,  609
5048,  877,  587,  599,  586
5049, 1200, 1263,  188,  215
5050, 1219,  701, 1289,  700
5051, 1256,  440,  112,  439
5052,  877,  599,  612,  611
5053, 1241,  559,  564,  563
5054, 1106,  181,  955,  179
5055, 1054,  485,  489,  484
5056,  915,  920,  917,  919
5057, 1044,  836,  835,  831
5058,  890,  688,  683,  684
5059,  893,  684,  679,  680
5060, 1084,  826,  821,  822
5061, 1124,  675,  679,  674
5062, 1333,  565,  561,  566
5063,  565,  570,  566, 1333
5064, 1153, 1333,  873,  951
5065, 1258,  873,  189,  871
5066, 1225, 1182,  476,  481
5067,  570, 1153, 1333,  565
5068,  680, 1310,  681,  676
5069,  872,  577,  572,   21
5070,  573,  951,  574,  569
5071, 1333,  570,  566,  571
5072, 1336,  522,  526,  521
5073,  571,  951,  576,  572
5074,  675,  680,  676, 1310
5075, 1085,  150,  837,  832
5076,  843,  153,  587,  152
5077,  877,  598,  599,  611
5078,  944,  678,  674,  679
5079,  947,  683,  114,  678
5080,  675, 1310,  676,  847
5081,  671,  675,  847,  670
5082, 1333,  566,  561,  562
5083, 1216,  949,  582,  581
5084, 1161,  573,  568,  569
5085,  951,  575,  571,  576
5086, 1320, 1279, 1326,  941
5087, 1127,  533,   66,  528
5088,  997,  912,  888,  362
5089,  957,  573,   74,  568
5090,  951,  570,  575,  574
5091, 1253,  776, 1164, 1165
5092,  855,  820,  816,  821
5093, 1333,  951, 1153,  570
5094, 1140, 1137, 1334,  415
5095, 1330, 1296, 1290, 1289
5096, 1274, 1171, 1158, 1245
5097,  894,  683,  115,  114
5098,  847, 1124,  675, 1310
5099, 1106,  579,   10,    9
5100,  873, 1258,   22,  567
5101,  955,  185,  179,  181
5102,  847,  675,  674,  670
5103,  566, 1333,  571,  567
5104,  567, 1333,  571,  873
5105,   22,  189,  873,   21
5106,  965,  307,  308,   57
5107,  945,  997,  912,  888
5108,  947,  113,  678,  114
5109,  965,  488,   58,   57
5110, 1100,  538,  533,  534
5111, 1241, 1161,  563,  564
5112, 1107,  580,  579,  575
5113, 1069,    8,  161,  133
5114,  790,  791,  986,  795
5115,  953,  949, 1216,  954
5116, 1090,  832, 1085,  827
5117, 1216,  581,   12,  182
5118, 1212,  582,   19,  183
5119, 1212,  186,   19,  187
5120,  953,  577,   20,  582
5121, 1103,  540, 1099,  541
5122, 1106,  579,    9,  578
5123,  934,   15,  184,  212
5124, 1103,  546,  917,  545
5125,  944,  678,  673,  674
5126, 1106,  955,   75,  179
5127, 1106,  578,  574,  579
5128,  848,  945,  888,  996
5129, 1189,  664,  663,  659
5130, 1090,  586,  585,  151
5131, 1045,  829,  824,  825
5132,  109,  933,  108,  443
5133, 1039,  806,  811,  810
5134,  581,  580,   11,  182
5135,  951, 1153,  570, 1161
5136,  393, 1120,  419,  451
5137, 1335,  666,  665,  661
5138,  907,  604,  617,  616
5139,  953,   19,  582,   20
5140,  949,  576,  577,  581
5141,  582,   13,   19,  183
5142, 1085,  832,  831,  827
5143,  843,  600,  844, 1095
5144,  973,  811,  806,  807
5145,  845,  817,  154,  153
5146, 1026,  174, 1165,    5
5147, 1028,   47,  263,  237
5148, 1101,  842,  148,  147
5149,  985,  157,  797,  158
5150,  841,  145,  146, 1101
5151, 1332,   57,   56,  483
5152, 1190, 1192, 1194, 1195
5153,  148,  149,  842, 1094
5154,  928,  660,  665,  664
5155, 1100, 1127,  534,  533
5156, 1129,  535,  534,  530
5157,  903,  973,  902,  904
5158,  148,   45, 1265,    3
5159,  930,  650,  654,  649
5160, 1124,  675,  680,  679
5161, 1331, 1218, 1309, 1261
5162, 1103,  917,  919,  544
5163, 1260,  583,  596,   46
5164, 1322,  278,  251,  252
5165,  948,  113,  112,  673
5166,  937,  656,  660,  655
5167,  936,  656,  652,  657
5168, 1139,   99,   98,  667
5169, 1103, 1226,  917,  546
5170, 1089, 1040, 1265, 1281
5171,  901,  157,  158,  592
5172,  873,  572,  567,   22
5173,  837, 1089, 1094,  149
5174, 1266,  610,  623,  622
5175, 1095,  600,  601,  613
5176,  930,  650,  655,  654
5177, 1241,  558,  559,  563
5178, 1119, 1295,  930,  649
5179, 1260,  596,  609,   47
5180,  584,  150, 1092,  585
5181, 1144,  365,  392,  391
5182, 1119,  653,  649,  654
5183,  936,  656,  651,  652
5184, 1049,  558,  563,   72
5185,  936,  100,  657,  101
5186,  916,  543,   69,   68
5187,  173, 1178,  838,  833
5188, 1281,  596,  583,  584
5189,    3,   44,   45, 1036
5190, 1097,   27,   26,  547
5191,  847,  670,  674,  669
5192, 1137,  389,  416,  415
5193, 1295,  649,  140,  650
5194, 1105, 1045,  824,  825
5195, 1125, 1131, 1130, 1128
5196,  953,  954, 1216, 1212
5197,  937, 1335,  662,  939
5198,  926,  298,  271,  272
5199, 1161,  565,  569,  564
5200,  937,  661, 1335,  660
5201, 1045,  830,  825,  826
5202,  110, 1211,  663,  658
5203,  928,  659,  655,  660
*Nset, nset=PIPE_CEL_BODY, generate
    1,  1345,     1
*Elset, elset=PIPE_CEL_BODY, generate
    1,  5203,     1
*Elset, elset=PIPE_SOLID_ALL, generate
1, 5203, 1
*Surface, type=ELEMENT, name=PIPE_SOLID_SURF
PIPE_SOLID_ALL, S1
PIPE_SOLID_ALL, S2
PIPE_SOLID_ALL, S3
PIPE_SOLID_ALL, S4
** Section: SEC_PIPE_RIGID
*Solid Section, elset=PIPE_CEL_BODY, material=MAT_PIPE_RIGID
,
*End Part
**  
** SCREENING ONLY: exact STEP import; no node scaling
*Part, name=Robot_SOLID
*Node
1, -6.32574341792, -3.34095707, -9.31279264887
2, -8.41352332587, -3.20872895493, -9.75652214882
3, -8.69444719051, -3.5992528536, -9.81137306633
4, -6.34669206343, -3.35164034418, -9.217411269
5, -6.36791287363, -3.38533824317, -9.12760752256
6, -6.38817257786, -3.44009237588, -9.04860045252
7, -6.40629374846, -3.51272061933, -8.98498169346
8, -6.42122325315, -3.59900208193, -8.94044851557
9, -6.43209344128, -3.69392241047, -8.91758903862
10, -6.43827257948, -3.79196517519, -8.91773175943
11, -6.43940155859, -3.88743248623, -8.94086838355
12, -6.43541476344, -3.97477612548, -8.98565430741
13, -6.42654389562, -4.04892000962, -9.04948672258
14, -6.41330449317, -4.10555516397, -9.12865594194
15, -6.39646598783, -4.14139014669, -9.21856090735
16, -6.3770069677, -4.15434236777, -9.31397669341
17, -6.35605832219, -4.14365909358, -9.40935807328
18, -6.33483751199, -4.1099611946, -9.49916181972
19, -6.31457780776, -4.0552070619, -9.57816888975
20, -6.29645663717, -3.98257881843, -9.64178764881
21, -6.28152713247, -3.89629735584, -9.6863208267
22, -6.27065694434, -3.8013770273, -9.70918030365
23, -6.26447780616, -3.70333426258, -9.70903758285
24, -6.26334882703, -3.60786695155, -9.68590095872
25, -6.26733562218, -3.52052331228, -9.64111503486
26, -6.27620649001, -3.44637942815, -9.57728261969
27, -6.28944589245, -3.3897442738, -9.49811340033
28, -6.30628439779, -3.35390929107, -9.40820843492
29, -6.42516150323, -3.33466049345, -9.33392262387
30, -6.52457958854, -3.32836391688, -9.35505259889
31, -6.62399767385, -3.32206734033, -9.3761825739
32, -6.72341587555, -3.31577075641, -9.39731257365
33, -6.82283396086, -3.30947417984, -9.41844254866
34, -6.92225204618, -3.30317760329, -9.43957252366
35, -7.02167013149, -3.29688102673, -9.46070249867
36, -7.1210882168, -3.29058445017, -9.48183247368
37, -7.22050630211, -3.28428787362, -9.5029624487
38, -7.31992438743, -3.27799129706, -9.52409242371
39, -7.41934247274, -3.2716947205, -9.54522239871
40, -7.51876055805, -3.26539814394, -9.56635237372
41, -7.61817864336, -3.25910156739, -9.58748234873
42, -7.71759672868, -3.25280499083, -9.60861232375
43, -7.81701481399, -3.24650841427, -9.62974229876
44, -7.9164328993, -3.24021183772, -9.65087227377
45, -8.01585098462, -3.23391526115, -9.67200224877
46, -8.11526906993, -3.2276186846, -9.69313222378
47, -8.21468712615, -3.22132210989, -9.71426219261
48, -8.31410524055, -3.21502553148, -9.73539217381
49, -8.43447197139, -3.21941222911, -9.66114076895
50, -8.45569278158, -3.25311012809, -9.57133702251
51, -8.47595248582, -3.3078642608, -9.49232995247
52, -8.49407365641, -3.38049250425, -9.42871119341
53, -8.5090031611, -3.46677396686, -9.38417801551
54, -8.51987334924, -3.56169429538, -9.36131853857
55, -8.52605248742, -3.65973706011, -9.36146125938
56, -8.52718146655, -3.75520437115, -9.3845978835
57, -8.5231946714, -3.84254801041, -9.42938380736
58, -8.51432380357, -3.91669189454, -9.49321622253
59, -8.50108440112, -3.97332704889, -9.57238544188
60, -8.48424589579, -4.00916203162, -9.6622904073
61, -8.46478687566, -4.02211425268, -9.75770619336
62, -8.44383823014, -4.0114309785, -9.85308757323
63, -8.42261741995, -3.97773307952, -9.94289131966
64, -8.40235771571, -3.92297894681, -10.0218983897
65, -8.38423654512, -3.85035070336, -10.0855171488
66, -8.36930704043, -3.76406924077, -10.1300503267
67, -8.35843685229, -3.66914891223, -10.1529098036
68, -8.3522577141, -3.5711061475, -10.1527670828
69, -8.35112873497, -3.47563883647, -10.1296304586
70, -8.35511553013, -3.3882951972, -10.0848445348
71, -8.36398639797, -3.31415131308, -10.0210121197
72, -8.37722580041, -3.25751615873, -9.94184290028
73, -8.39406430574, -3.22168117599, -9.85193793487
74, -8.67617959774, -3.49721662555, -9.80871770194
75, -8.63101451294, -3.40410429503, -9.80025977383
76, -8.5695603071, -3.32113034092, -9.78823151599
77, -8.49574086015, -3.24949670411, -9.77344964752
78, -6.40148055356, -3.61407679248, -9.0378315205
79, -6.41626080428, -3.71504919832, -8.99837838611
80, -6.38665689323, -3.53554742426, -9.08417675981
81, -6.41863280261, -3.89041315853, -9.03947512514
82, -6.41635669071, -3.96474963653, -9.07233612055
83, -6.35655413616, -3.44989657439, -9.20028912323
84, -6.40479931034, -4.00703983067, -9.13931661025
85, -6.37806342373, -4.06154238871, -9.28135228152
86, -6.36274789558, -4.07574264327, -9.35764453807
87, -6.34565748957, -4.04708075473, -9.42951512318
88, -6.31592325863, -3.96191829333, -9.54403908018
89, -6.30116709566, -3.88202705646, -9.58966091268
90, -6.28672943315, -3.77946443495, -9.6270282718
91, -6.28396548302, -3.60215166471, -9.5871949638
92, -6.28588127061, -3.52787031237, -9.55604574781
93, -6.29732865996, -3.48671915081, -9.4899221973
94, -6.32411766655, -3.4353576758, -9.34857261213
95, -6.339535833, -3.4201978778, -9.27151149796
96, -6.37348830221, -3.47094869548, -9.12688600406
97, -6.42290543121, -3.81587448297, -8.99716011859
98, -6.39470767634, -4.05646156025, -9.20152580038
99, -6.32894803888, -4.02575015465, -9.50177795535
100, -6.28016059632, -3.67757225495, -9.6275720145
101, -6.30768171965, -3.43969005615, -9.42719596757
102, -6.34425051798, -3.51956421457, -9.27893899342
103, -6.32010917045, -3.53440414504, -9.3969479975
104, -6.30107326641, -3.69685632688, -9.53492287581
105, -6.3972762122, -3.89799120218, -9.14221765367
106, -6.33469439633, -3.95717413788, -9.45430577452
107, -6.3825747867, -3.6252437267, -9.13011220697
108, -6.36738672329, -3.54046194873, -9.17630881758
109, -6.35784746409, -3.98042500467, -9.35229747581
110, -6.30216733553, -3.58518468105, -9.49649787418
111, -6.40254410461, -3.79167486986, -9.08575035054
112, -6.38119221216, -3.96481386477, -9.23780671602
113, -6.3202598961, -3.87243799499, -9.49697041392
114, -6.32430103107, -3.66697289853, -9.41672949502
115, -6.36140348385, -3.64000763204, -9.2341242776
116, -6.34131021389, -3.8630113841, -9.39511806126
117, -6.37437275058, -3.85368666808, -9.23677769974
118, -6.30627820014, -3.80098929929, -9.54146413713
119, -6.39693595317, -3.69323766727, -9.08280355562
120, -6.33946786655, -3.61298924468, -9.32928168911
121, -6.3474651747, -3.70672747769, -9.31958706792
122, -6.36184982046, -3.89283148021, -9.30736387131
123, -6.32186172424, -3.77685625475, -9.46095104185
124, -6.38249428848, -3.71891110477, -9.15840314418
125, -6.3550150271, -3.80573859678, -9.31356904006
126, -6.33799063426, -3.76386132274, -9.38119094105
127, -6.36751894317, -3.75517821138, -9.23967057444
128, -6.38484126101, -3.80348841063, -9.17256387868
129, -6.4057024831, -3.34761271451, -9.42933840993
130, -6.38886397776, -3.38344769725, -9.51924337535
131, -6.37562457532, -3.44008285159, -9.5984125947
132, -6.36675370749, -3.51422673573, -9.66224500987
133, -6.36276691234, -3.60157037498, -9.70703093373
134, -6.36389589146, -3.69703768602, -9.73016755785
135, -6.37007502964, -3.79508045075, -9.73031027866
136, -6.38094521779, -3.89000077929, -9.70745080172
137, -6.39587472248, -3.97628224188, -9.66291762382
138, -6.41399589308, -4.04891048533, -9.59929886476
139, -6.43425559731, -4.10366461804, -9.52029179472
140, -6.45547640751, -4.13736251703, -9.43048804829
141, -6.47642505302, -4.14804579121, -9.33510666842
142, -6.49588407315, -4.13509357014, -9.23969088236
143, -6.51272257849, -4.09925858741, -9.14978591695
144, -6.52596198093, -4.04262343305, -9.07061669759
145, -6.53483284876, -3.96847954893, -9.00678428242
146, -6.53881964391, -3.88113590967, -8.96199835856
147, -6.53769066478, -3.78566859863, -8.93886173444
148, -6.5315115266, -3.68762583391, -8.93871901364
149, -6.52064133846, -3.59270550537, -8.96157849058
150, -6.50571183377, -3.50642404278, -9.00611166848
151, -6.48759066318, -3.43379579932, -9.06973042753
152, -6.46733095895, -3.37904166661, -9.14873749757
153, -6.44611014874, -3.34534376763, -9.238541244
154, -6.50512056841, -3.34131613795, -9.45046838494
155, -6.48828206308, -3.37715112068, -9.54037335036
156, -6.47504266064, -3.43378627504, -9.61954256972
157, -6.4661717928, -3.50793015917, -9.68337498488
158, -6.46218499765, -3.59527379843, -9.72816090875
159, -6.46331397678, -3.69074110946, -9.75129753286
160, -6.46949311496, -3.78878387418, -9.75144025367
161, -6.4803633031, -3.88370420272, -9.72858077673
162, -6.49529280779, -3.96998566532, -9.68404759883
163, -6.51341397839, -4.04261390878, -9.62042883977
164, -6.53367368262, -4.09736804148, -9.54142176974
165, -6.55489449281, -4.13106594047, -9.4516180233
166, -6.57584313833, -4.14174921465, -9.35623664342
167, -6.59530215846, -4.12879699359, -9.26082085738
168, -6.6121406638, -4.09296201085, -9.17091589196
169, -6.62538006624, -4.0363268565, -9.0917466726
170, -6.63425093407, -3.96218297238, -9.02791425744
171, -6.63823772923, -3.87483933311, -8.98312833357
172, -6.6371087501, -3.77937202208, -8.95999170945
173, -6.63092961191, -3.68132925735, -8.95984898865
174, -6.62005942377, -3.58640892881, -8.98270846559
175, -6.60512991909, -3.50012746622, -9.02724164349
176, -6.58700874849, -3.42749922276, -9.09086040255
177, -6.56674904425, -3.37274509006, -9.16986747257
178, -6.54552823406, -3.33904719107, -9.25967121901
179, -6.60453865372, -3.3350195614, -9.47159835995
180, -6.58770014838, -3.37085454413, -9.56150332537
181, -6.57446074594, -3.42748969848, -9.64067254473
182, -6.56558987812, -3.50163358261, -9.70450495989
183, -6.56160308296, -3.58897722187, -9.74929088376
184, -6.56273206209, -3.68444453291, -9.77242750788
185, -6.56891120027, -3.78248729763, -9.77257022867
186, -6.57978138842, -3.87740762617, -9.74971075174
187, -6.5947108931, -3.96368908876, -9.70517757384
188, -6.6128320637, -4.03631733223, -9.64155881478
189, -6.63309176794, -4.09107146492, -9.56255174475
190, -6.65431257813, -4.12476936391, -9.47274799831
191, -6.67526122365, -4.1354526381, -9.37736661843
192, -6.69472024378, -4.12250041702, -9.28195083238
193, -6.71155874911, -4.0866654343, -9.19204586697
194, -6.72479815155, -4.03003027995, -9.11287664761
195, -6.73366901939, -3.95588639581, -9.04904423245
196, -6.73765581454, -3.86854275655, -9.00425830857
197, -6.73652683541, -3.77307544552, -8.98112168446
198, -6.73034769723, -3.6750326808, -8.98097896366
199, -6.71947750909, -3.58011235226, -9.00383844059
200, -6.7045480044, -3.49383088966, -9.0483716185
201, -6.6864268338, -3.4212026462, -9.11199037756
202, -6.66616712957, -3.36644851349, -9.19099744758
203, -6.64494631937, -3.33275061451, -9.28080119402
204, -6.70395685542, -3.32872297747, -9.4927283597
205, -6.68711835008, -3.36455796021, -9.58263332512
206, -6.67387894764, -3.42119311455, -9.66180254447
207, -6.66500807981, -3.49533699868, -9.72563495964
208, -6.66102128465, -3.58268063794, -9.7704208835
209, -6.66215026378, -3.67814794898, -9.79355750762
210, -6.66832940197, -3.7761907137, -9.79370022842
211, -6.67919959011, -3.87111104224, -9.77084075149
212, -6.69412909479, -3.95739250483, -9.72630757359
213, -6.7122502654, -4.03002074829, -9.66268881452
214, -6.73250996963, -4.084774881, -9.58368174449
215, -6.75373077982, -4.11847277998, -9.49387799806
216, -6.77467942534, -4.12915605416, -9.39849661818
217, -6.79413844547, -4.1162038331, -9.30308083213
218, -6.81097695081, -4.08036885036, -9.21317586671
219, -6.82421635325, -4.02373369601, -9.13400664735
220, -6.83308722108, -3.94958981189, -9.07017423219
221, -6.83707401623, -3.86224617263, -9.02538830832
222, -6.8359450371, -3.76677886159, -9.0022516842
223, -6.82976589892, -3.66873609686, -9.00210896341
224, -6.81889571078, -3.57381576832, -9.02496844034
225, -6.80396620609, -3.48753430573, -9.06950161824
226, -6.7858450355, -3.41490606228, -9.1331203773
227, -6.76558533126, -3.36015192957, -9.21212744733
228, -6.74436452106, -3.32645403059, -9.30193119377
229, -6.80337494073, -3.32242640091, -9.5138583347
230, -6.7865364354, -3.35826138364, -9.60376330012
231, -6.77329703296, -3.41489653799, -9.68293251948
232, -6.76442616512, -3.48904042213, -9.74676493464
233, -6.76043936997, -3.57638406139, -9.79155085851
234, -6.7615683491, -3.67185137242, -9.81468748263
235, -6.76774748728, -3.76989413714, -9.81483020343
236, -6.77861767542, -3.86481446568, -9.79197072649
237, -6.79354718011, -3.95109592828, -9.74743754859
238, -6.8116683507, -4.02372417174, -9.68381878953
239, -6.83192805494, -4.07847830444, -9.60481171951
240, -6.85314886514, -4.11217620343, -9.51500797307
241, -6.87409751066, -4.12285947761, -9.41962659319
242, -6.89355653079, -4.10990725654, -9.32421080714
243, -6.91039503612, -4.07407227381, -9.23430584172
244, -6.92363443856, -4.01743711946, -9.15513662236
245, -6.93250530639, -3.94329323533, -9.0913042072
246, -6.93649210155, -3.85594959606, -9.04651828333
247, -6.93536312242, -3.76048228503, -9.02338165922
248, -6.92918398424, -3.66243952031, -9.02323893841
249, -6.91831379609, -3.56751919177, -9.04609841535
250, -6.90338429141, -3.48123772918, -9.09063159325
251, -6.8852631208, -3.40860948571, -9.15425035231
252, -6.86500341657, -3.35385535301, -9.23325742234
253, -6.84378260638, -3.32015745403, -9.32306116878
254, -6.90279302605, -3.31612982435, -9.53498830971
255, -6.8859545207, -3.35196480709, -9.62489327513
256, -6.87271511826, -3.40859996144, -9.70406249449
257, -6.86384425044, -3.48274384556, -9.76789490966
258, -6.85985745528, -3.57008748483, -9.81268083352
259, -6.86098643441, -3.66555479586, -9.83581745765
260, -6.8671655726, -3.76359756059, -9.83596017844
261, -6.87803576074, -3.85851788913, -9.8131007015
262, -6.89296526542, -3.94479935172, -9.7685675236
263, -6.91108643602, -4.01742759518, -9.70494876455
264, -6.93134614025, -4.07218172788, -9.62594169451
265, -6.95256695045, -4.10587962687, -9.53613794808
266, -6.97351559596, -4.11656290104, -9.4407565682
267, -6.99297461609, -4.10361067998, -9.34534078215
268, -7.00981312143, -4.06777569725, -9.25543581673
269, -7.02305252387, -4.0111405429, -9.17626659738
270, -7.0319233917, -3.93699665877, -9.11243418221
271, -7.03591018685, -3.84965301951, -9.06764825835
272, -7.03478120773, -3.75418570848, -9.04451163423
273, -7.02860206955, -3.65614294376, -9.04436891342
274, -7.01773188141, -3.56122261522, -9.06722839036
275, -7.00280237671, -3.47494115262, -9.11176156826
276, -6.98468120612, -3.40231290916, -9.17538032732
277, -6.96442150189, -3.34755877645, -9.25438739736
278, -6.94320069169, -3.31386087747, -9.34419114379
279, -7.00221111136, -3.3098332478, -9.55611828473
280, -6.98537260602, -3.34566823053, -9.64602325014
281, -6.97213320358, -3.40230338487, -9.7251924695
282, -6.96326233575, -3.47644726901, -9.78902488467
283, -6.9592755406, -3.56379090827, -9.83381080853
284, -6.96040451972, -3.65925821931, -9.85694743265
285, -6.96658365791, -3.75730098403, -9.85709015345
286, -6.97745384604, -3.85222131257, -9.83423067651
287, -6.99238335074, -3.93850277516, -9.78969749862
288, -7.01050452133, -4.01113101862, -9.72607873956
289, -7.03076422556, -4.06588515133, -9.64707166952
290, -7.05198503577, -4.09958305031, -9.55726792308
291, -7.07293368128, -4.11026632449, -9.46188654321
292, -7.09239270141, -4.09731410342, -9.36647075716
293, -7.10923120675, -4.06147912069, -9.27656579175
294, -7.12247060919, -4.00484396634, -9.19739657239
295, -7.13134147702, -3.93070008221, -9.13356415722
296, -7.13532827217, -3.84335644296, -9.08877823336
297, -7.13419929304, -3.74788913192, -9.06564160923
298, -7.12802015486, -3.64984636719, -9.06549888843
299, -7.11714996672, -3.55492603865, -9.08835836538
300, -7.10222046203, -3.46864457606, -9.13289154327
301, -7.08409929143, -3.39601633261, -9.19651030233
302, -7.0638395872, -3.3412621999, -9.27551737236
303, -7.042618777, -3.30756430091, -9.3653211188
304, -7.10162919667, -3.30353667124, -9.57724825974
305, -7.08479069133, -3.33937165397, -9.66715322515
306, -7.07155128889, -3.39600680832, -9.74632244451
307, -7.06268042106, -3.47015069246, -9.81015485968
308, -7.05869362591, -3.55749433171, -9.85494078354
309, -7.05982260503, -3.65296164274, -9.87807740766
310, -7.06600174322, -3.75100440747, -9.87822012846
311, -7.07687193136, -3.84592473601, -9.85536065153
312, -7.09180143604, -3.9322061986, -9.81082747363
313, -7.10992260665, -4.00483444206, -9.74720871457
314, -7.13018231088, -4.05958857476, -9.66820164453
315, -7.15140312107, -4.09328647376, -9.57839789809
316, -7.17235176659, -4.10396974794, -9.48301651822
317, -7.19181078672, -4.09101752687, -9.38760073216
318, -7.20864929206, -4.05518254414, -9.29769576676
319, -7.2218886945, -3.99854738979, -9.2185265474
320, -7.23075956233, -3.92440350566, -9.15469413223
321, -7.23474635748, -3.83705986639, -9.10990820837
322, -7.23361737835, -3.74159255536, -9.08677158424
323, -7.22743824017, -3.64354979064, -9.08662886345
324, -7.21656805203, -3.5486294621, -9.10948834039
325, -7.20163854734, -3.46234799951, -9.15402151828
326, -7.18351737675, -3.38971975604, -9.21764027734
327, -7.16325767251, -3.33496562334, -9.29664734737
328, -7.14203686232, -3.30126772436, -9.38645109381
329, -7.20104728198, -3.29724009468, -9.59837823475
330, -7.18420877665, -3.33307507742, -9.68828320017
331, -7.17096937421, -3.38971023177, -9.76745241953
332, -7.16209850637, -3.46385411589, -9.83128483469
333, -7.15811171122, -3.55119775516, -9.87607075855
334, -7.15924069035, -3.64666506619, -9.89920738267
335, -7.16541982853, -3.74470783091, -9.89935010347
336, -7.17629001668, -3.83962815945, -9.87649062654
337, -7.19121952136, -3.92590962204, -9.83195744864
338, -7.20934069195, -3.99853786551, -9.76833868957
339, -7.22960039619, -4.05329199821, -9.68933161954
340, -7.25082120639, -4.08698989719, -9.59952787311
341, -7.27176985191, -4.09767317138, -9.50414649323
342, -7.29122887204, -4.08472095031, -9.40873070718
343, -7.30806737737, -4.04888596758, -9.31882574176
344, -7.32130677981, -3.99225081323, -9.2396565224
345, -7.33017764765, -3.9181069291, -9.17582410724
346, -7.3341644428, -3.83076328984, -9.13103818337
347, -7.33303546367, -3.73529597881, -9.10790155925
348, -7.32685632549, -3.63725321408, -9.10775883846
349, -7.31598613734, -3.54233288554, -9.13061831539
350, -7.30105663266, -3.45605142294, -9.17515149329
351, -7.28293546206, -3.38342317949, -9.23877025235
352, -7.26267575783, -3.32866904678, -9.31777732238
353, -7.24145494763, -3.29497114779, -9.40758106882
354, -7.3004653673, -3.29094351813, -9.61950820975
355, -7.28362686196, -3.32677850086, -9.70941317517
356, -7.27038745951, -3.3834136552, -9.78858239453
357, -7.26151659169, -3.45755753934, -9.85241480969
358, -7.25752979654, -3.5449011786, -9.89720073356
359, -7.25865877567, -3.64036848964, -9.92033735768
360, -7.26483791385, -3.73841125436, -9.92048007848
361, -7.27570810199, -3.8333315829, -9.89762060154
362, -7.29063760668, -3.91961304549, -9.85308742364
363, -7.30875877727, -3.99224128895, -9.78946866458
364, -7.3290184815, -4.04699542166, -9.71046159456
365, -7.3502392917, -4.08069332064, -9.62065784812
366, -7.37118793721, -4.09137659482, -9.52527646824
367, -7.39064695734, -4.07842437375, -9.42986068219
368, -7.40748546268, -4.04258939102, -9.33995571677
369, -7.42072486513, -3.98595423667, -9.26078649741
370, -7.42959573295, -3.91181035254, -9.19695408225
371, -7.4335825281, -3.82446671328, -9.15216815838
372, -7.43245354899, -3.72899940224, -9.12903153427
373, -7.4262744108, -3.63095663752, -9.12888881346
374, -7.41540422266, -3.53603630898, -9.1517482904
375, -7.40047471797, -3.44975484639, -9.1962814683
376, -7.38235354737, -3.37712660293, -9.25990022736
377, -7.36209384314, -3.32237247022, -9.33890729739
378, -7.34087303294, -3.28867457124, -9.42871104383
379, -7.39988345261, -3.28464694156, -9.64063818477
380, -7.38304494727, -3.3204819243, -9.73054315018
381, -7.36980554483, -3.37711707865, -9.80971236954
382, -7.360934677, -3.45126096278, -9.87354478471
383, -7.35694788185, -3.53860460204, -9.91833070857
384, -7.35807686097, -3.63407191307, -9.9414673327
385, -7.36425599916, -3.7321146778, -9.94161005349
386, -7.3751261873, -3.82703500634, -9.91875057655
387, -7.39005569199, -3.91331646894, -9.87421739865
388, -7.40817686259, -3.98594471239, -9.8105986396
389, -7.42843656682, -4.04069884509, -9.73159156956
390, -7.44965737702, -4.07439674408, -9.64178782313
391, -7.47060602253, -4.08508001826, -9.54640644325
392, -7.49006504266, -4.0721277972, -9.4509906572
393, -7.506903548, -4.03629281446, -9.36108569178
394, -7.52014295044, -3.97965766011, -9.28191647243
395, -7.52901381827, -3.90551377598, -9.21808405726
396, -7.53300061342, -3.81817013672, -9.1732981334
397, -7.53187163429, -3.72270282569, -9.15016150928
398, -7.52569249611, -3.62466006097, -9.15001878847
399, -7.51482230797, -3.52973973243, -9.17287826541
400, -7.49989280328, -3.44345826984, -9.21741144331
401, -7.48177163269, -3.37083002637, -9.28103020237
402, -7.46151192846, -3.31607589367, -9.36003727241
403, -7.44029111825, -3.28237799469, -9.44984101885
404, -7.49930153793, -3.27835036501, -9.66176815978
405, -7.48246303259, -3.31418534774, -9.75167312519
406, -7.46922363015, -3.37082050209, -9.83084234455
407, -7.46035276231, -3.44496438622, -9.89467475972
408, -7.45636596716, -3.53230802549, -9.93946068358
409, -7.45749494629, -3.62777533652, -9.9625973077
410, -7.46367408447, -3.72581810124, -9.9627400285
411, -7.47454427261, -3.82073842978, -9.93988055156
412, -7.4894737773, -3.90701989237, -9.89534737367
413, -7.5075949479, -3.97964813584, -9.83172861461
414, -7.52785465213, -4.03440226854, -9.75272154457
415, -7.54907546232, -4.06810016752, -9.66291779813
416, -7.57002410784, -4.0787834417, -9.56753641826
417, -7.58948312797, -4.06583122063, -9.47212063221
418, -7.60632163332, -4.02999623791, -9.3822156668
419, -7.61956103576, -3.97336108356, -9.30304644744
420, -7.62843190358, -3.89921719942, -9.23921403227
421, -7.63241869874, -3.81187356017, -9.19442810841
422, -7.63128971961, -3.71640624914, -9.17129148428
423, -7.62511058142, -3.6183634844, -9.17114876348
424, -7.61424039328, -3.52344315587, -9.19400824043
425, -7.5993108886, -3.43716169327, -9.23854141832
426, -7.581189718, -3.36453344982, -9.30216017738
427, -7.56093001376, -3.30977931711, -9.38116724742
428, -7.53970920357, -3.27608141812, -9.47097099385
429, -7.59871962323, -3.27205378846, -9.68289813479
430, -7.5818811179, -3.30788877119, -9.77280310021
431, -7.56864171546, -3.36452392553, -9.85197231956
432, -7.55977084762, -3.43866780967, -9.91580473473
433, -7.55578405247, -3.52601144892, -9.96059065859
434, -7.5569130316, -3.62147875996, -9.98372728271
435, -7.56309216978, -3.71952152469, -9.98387000351
436, -7.57396235793, -3.81444185323, -9.96101052658
437, -7.58889186261, -3.90072331582, -9.91647734868
438, -7.60701303321, -3.97335155927, -9.85285858962
439, -7.62727273745, -4.02810569198, -9.77385151958
440, -7.64849354764, -4.06180359097, -9.68404777314
441, -7.66944219316, -4.07248686515, -9.58866639327
442, -7.68890121329, -4.05953464408, -9.49325060721
443, -7.70573971862, -4.02369966135, -9.40334564181
444, -7.71897912106, -3.967064507, -9.32417642245
445, -7.7278499889, -3.89292062287, -9.26034400728
446, -7.73183678405, -3.80557698361, -9.21555808342
447, -7.73070780492, -3.71010967257, -9.19242145929
448, -7.72452866674, -3.61206690785, -9.1922787385
449, -7.7136584786, -3.51714657931, -9.21513821544
450, -7.69872897391, -3.43086511672, -9.25967139333
451, -7.68060780331, -3.35823687326, -9.32329015239
452, -7.66034809908, -3.30348274055, -9.40229722242
453, -7.63912728888, -3.26978484157, -9.49210096886
454, -7.69813770855, -3.26575721189, -9.7040281098
455, -7.68129920321, -3.30159219462, -9.79393307522
456, -7.66805980077, -3.35822734898, -9.87310229458
457, -7.65918893294, -3.43237123311, -9.93693470974
458, -7.65520213779, -3.51971487237, -9.98172063361
459, -7.65633111692, -3.6151821834, -10.0048572577
460, -7.6625102551, -3.71322494812, -10.0049999785
461, -7.67338044324, -3.80814527666, -9.98214050159
462, -7.68830994793, -3.89442673926, -9.93760732369
463, -7.70643111852, -3.96705498272, -9.87398856462
464, -7.72669082275, -4.02180911542, -9.7949814946
465, -7.74791163296, -4.05550701441, -9.70517774816
466, -7.76886027847, -4.06619028859, -9.60979636828
467, -7.78831929859, -4.05323806753, -9.51438058223
468, -7.80515780394, -4.01740308479, -9.42447561681
469, -7.81839720638, -3.96076793044, -9.34530639745
470, -7.8272680742, -3.88662404631, -9.28147398229
471, -7.83125486936, -3.79928040705, -9.23668805842
472, -7.83012589024, -3.70381309602, -9.2135514343
473, -7.82394675205, -3.60577033129, -9.21340871351
474, -7.81307656391, -3.51085000275, -9.23626819044
475, -7.79814705922, -3.42456854016, -9.28080136834
476, -7.78002588862, -3.3519402967, -9.3444201274
477, -7.75976618439, -3.297186164, -9.42342719743
478, -7.73854537419, -3.26348826501, -9.51323094387
479, -7.79755579386, -3.25946063534, -9.7251580848
480, -7.78071728852, -3.29529561807, -9.81506305022
481, -7.76747788608, -3.35193077242, -9.89423226958
482, -7.75860701826, -3.42607465655, -9.95806468474
483, -7.7546202231, -3.51341829582, -10.0028506086
484, -7.75574920223, -3.60888560685, -10.0259872328
485, -7.76192834041, -3.70692837157, -10.0261299535
486, -7.77279852855, -3.80184870011, -10.0032704766
487, -7.78772803324, -3.8881301627, -9.95873729869
488, -7.80584920384, -3.96075840617, -9.89511853964
489, -7.82610890807, -4.01551253887, -9.81611146961
490, -7.84732971827, -4.04921043785, -9.72630772317
491, -7.86827836378, -4.05989371203, -9.63092634329
492, -7.88773738391, -4.04694149096, -9.53551055724
493, -7.90457588925, -4.01110650824, -9.44560559182
494, -7.91781529169, -3.95447135389, -9.36643637246
495, -7.92668615952, -3.88032746975, -9.3026039573
496, -7.93067295467, -3.79298383049, -9.25781803343
497, -7.92954397554, -3.69751651945, -9.23468140932
498, -7.92336483736, -3.59947375473, -9.23453868852
499, -7.91249464923, -3.5045534262, -9.25739816545
500, -7.89756514453, -3.4182719636, -9.30193134335
501, -7.87944397394, -3.34564372014, -9.36555010241
502, -7.85918426971, -3.29088958743, -9.44455717244
503, -7.8379634595, -3.25719168845, -9.53436091888
504, -7.89697387918, -3.25316405878, -9.74628805982
505, -7.88013537384, -3.28899904152, -9.83619302523
506, -7.8668959714, -3.34563419586, -9.91536224459
507, -7.85802510357, -3.41977807999, -9.97919465976
508, -7.85403830842, -3.50712171925, -10.0239805836
509, -7.85516728754, -3.60258903029, -10.0471172077
510, -7.86134642572, -3.70063179502, -10.0472599286
511, -7.87221661386, -3.79555212356, -10.0244004516
512, -7.88714611855, -3.88183358615, -9.9798672737
513, -7.90526728915, -3.9544618296, -9.91624851465
514, -7.92552699338, -4.00921596231, -9.83724144461
515, -7.94674780359, -4.04291386129, -9.74743769818
516, -7.9676964491, -4.05359713547, -9.65205631831
517, -7.98715546923, -4.04064491441, -9.55664053225
518, -8.00399397457, -4.00480993167, -9.46673556683
519, -8.01723337701, -3.94817477732, -9.38756634748
520, -8.02610424483, -3.8740308932, -9.32373393231
521, -8.03009103999, -3.78668725394, -9.27894800845
522, -8.02896206086, -3.6912199429, -9.25581138433
523, -8.02278292267, -3.59317717818, -9.25566866352
524, -8.01191273453, -3.49825684964, -9.27852814046
525, -7.99698322985, -3.41197538704, -9.32306131836
526, -7.97886205925, -3.33934714359, -9.38668007742
527, -7.95860235501, -3.28459301088, -9.46568714746
528, -7.93738154482, -3.2508951119, -9.5554908939
529, -7.99639196449, -3.24686748222, -9.76741803483
530, -7.97955345915, -3.28270246495, -9.85732300024
531, -7.96631405671, -3.3393376193, -9.9364922196
532, -7.95744318888, -3.41348150344, -10.0003246347
533, -7.95345639372, -3.5008251427, -10.0451105587
534, -7.95458537285, -3.59629245373, -10.0682471827
535, -7.96076451104, -3.69433521845, -10.0683899035
536, -7.97163469918, -3.78925554699, -10.0455304266
537, -7.98656420386, -3.87553700958, -10.0009972487
538, -8.00468537446, -3.94816525305, -9.93737848966
539, -8.0249450787, -4.00291938575, -9.85837141962
540, -8.04616588889, -4.03661728474, -9.76856767318
541, -8.06711453441, -4.04730055892, -9.67318629331
542, -8.08657355454, -4.03434833785, -9.57777050726
543, -8.10341205987, -3.99851335512, -9.48786554185
544, -8.11665146231, -3.94187820077, -9.40869632249
545, -8.12552233015, -3.86773431664, -9.34486390732
546, -8.1295091253, -3.78039067738, -9.30007798346
547, -8.12838014617, -3.68492336635, -9.27694135933
548, -8.12220100799, -3.58688060162, -9.27679863853
549, -8.11133081985, -3.49196027308, -9.29965811548
550, -8.09640131516, -3.40567881049, -9.34419129337
551, -8.07828014457, -3.33305056703, -9.40781005243
552, -8.05802044033, -3.27829643433, -9.48681712247
553, -8.03679963014, -3.24459853534, -9.5766208689
554, -8.0958100498, -3.24057090566, -9.78854800984
555, -8.07897154446, -3.2764058884, -9.87845297526
556, -8.06573214202, -3.33304104275, -9.95762219461
557, -8.05686127419, -3.40718492688, -10.0214546098
558, -8.05287447904, -3.49452856614, -10.0662405336
559, -8.05400345817, -3.58999587717, -10.0893771578
560, -8.06018259635, -3.6880386419, -10.0895198785
561, -8.07105278449, -3.78295897044, -10.0666604016
562, -8.08598228918, -3.86924043303, -10.0221272238
563, -8.10410345977, -3.94186867649, -9.95850846467
564, -8.124363164, -3.99662280919, -9.87950139463
565, -8.14558397421, -4.03032070818, -9.78969764819
566, -8.16653261973, -4.04100398237, -9.69431626832
567, -8.18599163985, -4.02805176129, -9.59890048227
568, -8.20283014519, -3.99221677857, -9.50899551686
569, -8.21606954763, -3.93558162422, -9.4298262975
570, -8.22494041545, -3.86143774008, -9.36599388233
571, -8.22892721061, -3.77409410082, -9.32120795847
572, -8.22779823149, -3.67862678979, -9.29807133434
573, -8.22161909331, -3.58058402507, -9.29792861355
574, -8.21074890516, -3.48566369653, -9.32078809049
575, -8.19581940047, -3.39938223393, -9.36532126839
576, -8.17769822987, -3.32675399047, -9.42894002744
577, -8.15743852564, -3.27199985776, -9.50794709747
578, -8.13621771544, -3.23830195878, -9.59775084391
579, -8.19522810602, -3.23427433095, -9.80967797866
580, -8.17838960068, -3.27010931369, -9.89958294408
581, -8.16515019824, -3.32674446803, -9.97875216344
582, -8.15627933041, -3.40088835216, -10.0425845786
583, -8.15229253526, -3.48823199142, -10.0873705025
584, -8.15342151438, -3.58369930246, -10.1105071266
585, -8.15960065256, -3.68174206719, -10.1106498474
586, -8.17047084071, -3.77666239573, -10.0877903705
587, -8.1854003454, -3.86294385832, -10.0432571926
588, -8.203521516, -3.93557210177, -9.97963843353
589, -8.22378122022, -3.99032623448, -9.90063136346
590, -8.24500203043, -4.02402413347, -9.81082761703
591, -8.26595067594, -4.03470740765, -9.71544623715
592, -8.28540969607, -4.02175518658, -9.6200304511
593, -8.30224820141, -3.98592020385, -9.53012548568
594, -8.31548760385, -3.92928504949, -9.45095626632
595, -8.32435847168, -3.85514116537, -9.38712385116
596, -8.32834526683, -3.76779752611, -9.34233792729
597, -8.3272162877, -3.67233021507, -9.31920130318
598, -8.32103714952, -3.57428745035, -9.31905858237
599, -8.31016696137, -3.47936712181, -9.34191805931
600, -8.29523745669, -3.39308565922, -9.38645123721
601, -8.2771162861, -3.32045741576, -9.45006999627
602, -8.25685658187, -3.26570328305, -9.5290770663
603, -8.23563577166, -3.23200538407, -9.61888081273
604, -8.29464622043, -3.22797775255, -9.83080795985
605, -8.27780771509, -3.26381273528, -9.92071292527
606, -8.26456831265, -3.32044788963, -9.99988214461
607, -8.25569744482, -3.39459177377, -10.0637145598
608, -8.25171064967, -3.48193541302, -10.1085004837
609, -8.25283962879, -3.57740272406, -10.1316371078
610, -8.25901876697, -3.67544548878, -10.1317798286
611, -8.26988895511, -3.77036581732, -10.1089203516
612, -8.28481845981, -3.85664727991, -10.0643871737
613, -8.3029396304, -3.92927552338, -10.0007684147
614, -8.32319933463, -3.98402965607, -9.92176134466
615, -8.34442014484, -4.01772755507, -9.83195759822
616, -8.36536879035, -4.02841082925, -9.73657621834
617, -8.38482781048, -4.01545860818, -9.64116043229
618, -8.40166631582, -3.97962362545, -9.55125546687
619, -8.41490571826, -3.9229884711, -9.47208624751
620, -8.42377658609, -3.84884458696, -9.40825383235
621, -8.42776338124, -3.7615009477, -9.36346790848
622, -8.42663440211, -3.66603363667, -9.34033128437
623, -8.42045526393, -3.56799087195, -9.34018856357
624, -8.40958507578, -3.47307054341, -9.3630480405
625, -8.3946555711, -3.38678908082, -9.4075812184
626, -8.37653440051, -3.31416083735, -9.47119997746
627, -8.35627469628, -3.25940670465, -9.55020704749
628, -8.33505388607, -3.22570880567, -9.64001079393
629, -8.49885397041, -3.25419842923, -9.63244797355
630, -8.53143368709, -3.27370383176, -9.69234806474
631, -8.57300741499, -3.37266176737, -9.52810249151
632, -8.54437080805, -3.30252026668, -9.60095644714
633, -8.60828191026, -3.38074142674, -9.60762817373
634, -8.5742769795, -3.60743374623, -9.39655044761
635, -8.54308932322, -3.39834539607, -9.45209484285
636, -8.58334482688, -3.42469900985, -9.48709344664
637, -8.62679057318, -3.46395918249, -9.53649281252
638, -8.60339865234, -3.55562190033, -9.44348985371
639, -8.65406857614, -3.58288999689, -9.52878720163
640, -8.65969772699, -3.44613703646, -9.68059285614
641, -8.68911176733, -3.62359203319, -9.61875542398
642, -8.69861074628, -3.55491685895, -9.70710722318
643, -8.67592600576, -3.53255319972, -9.61059708236
644, -8.56778540391, -3.74357168135, -9.40993782214
645, -8.60923830244, -3.66118051753, -9.44363258242
646, -8.65644236018, -3.69566146546, -9.54132844138
647, -8.60280118012, -3.85756262111, -9.55242065088
648, -8.60177328335, -3.79073090274, -9.48213939474
649, -8.64157710121, -3.78682660376, -9.56708588949
650, -8.50999253272, -4.00053061196, -9.76031100445
651, -8.53736609355, -3.97178587477, -9.63044896525
652, -8.57000028233, -3.92692457793, -9.59514672744
653, -8.633907139, -3.84757179441, -9.64533346072
654, -8.56885904703, -3.94869439096, -9.69706160883
655, -8.62485206069, -3.86717168705, -9.76779174397
656, -8.70264353905, -3.66567189901, -9.71344389012
657, -8.67726924441, -3.73502181563, -9.63244882276
658, -8.65607392931, -3.78498643491, -9.83051677757
659, -8.69121466399, -3.70661849624, -9.79339076089
660, -8.67610410046, -3.7717917144, -9.73039011324
661, -8.48897299888, -3.97251852591, -9.89606404723
662, -8.59520617864, -3.86098097845, -9.88106811141
663, -8.54519676303, -3.95084464632, -9.83143309184
664, -8.49640113879, -3.84775570112, -10.0262317666
665, -8.5109216871, -3.91975186942, -9.9450491432
666, -8.5574435384, -3.83581787747, -9.96856145412
667, -8.41655171148, -3.6178852082, -10.1415972918
668, -8.43613086616, -3.82844855153, -10.0822110437
669, -8.48297005536, -3.79628688574, -10.0666145081
670, -8.5375469928, -3.75141509171, -10.0381780254
671, -8.46848292038, -3.66413695269, -10.1115021686
672, -8.5481010998, -3.6269455415, -10.0511930488
673, -8.66808608744, -3.69699157532, -9.87986007808
674, -8.61428300444, -3.77295528761, -9.93444659398
675, -8.61088184973, -3.57548977588, -9.98093648328
676, -8.65960252094, -3.61725944386, -9.91407707247
677, -8.61658721844, -3.67533466565, -9.97331633299
678, -8.39972897982, -3.48175823894, -10.123214564
679, -8.46146212266, -3.55783220953, -10.1109493261
680, -8.54030293548, -3.5146581825, -10.0388987889
681, -8.47659467309, -3.36374296927, -10.0058965798
682, -8.45456425454, -3.42948836013, -10.0697203374
683, -8.52617485488, -3.42869819585, -10.0091210514
684, -8.43812371826, -3.25891863142, -9.90997286438
685, -8.45811224661, -3.30085575431, -9.95492392571
686, -8.54371124544, -3.37410468059, -9.94154332422
687, -8.50570081014, -3.28941895701, -9.87273987692
688, -8.65470542989, -3.53106888784, -9.89943123157
689, -8.59029451975, -3.47266137442, -9.96500113793
690, -8.62156964761, -3.43542302035, -9.88304406156
691, -8.59981647536, -3.3483055879, -9.69544215342
692, -8.58003308772, -3.36039977841, -9.859563571
693, -8.44865518848, -3.74793785211, -10.1080988928
694, -8.57432668783, -3.47511432532, -9.43651226403
695, -8.4945647379, -3.2436416893, -9.6893803461
696, -8.52876930723, -3.33435466576, -9.50662079202
697, -8.56714240004, -3.55762572229, -9.39604826852
698, -8.57327835836, -3.66813600311, -9.39827394648
699, -8.56688540779, -3.82035306417, -9.45177850602
700, -8.56527763912, -3.89193985715, -9.51980443262
701, -8.50016573449, -3.98941786573, -9.83763307766
702, -8.45242897754, -3.89064693881, -10.0290898408
703, -8.4160127694, -3.66716696968, -10.1402962589
704, -8.4091998743, -3.55662377693, -10.1380194006
705, -8.40679972348, -3.40471255852, -10.082696071
706, -6.68748981316, -3.9548788246, -9.44716429193
707, -6.63675681677, -3.89847510134, -9.54585621488
708, -6.75172594842, -3.82289414498, -9.44732883561
709, -6.67619059555, -3.82461338107, -9.38381685161
710, -6.46886616809, -3.87435130221, -9.41550521375
711, -6.55258451456, -3.89525141122, -9.4024937434
712, -6.47661811745, -3.79077660784, -9.44590601316
713, -6.53664390461, -3.88322574288, -9.50269977267
714, -6.59101134142, -3.8158001186, -9.46480709837
715, -6.55320775244, -3.72450053885, -9.47687751574
716, -6.47430558706, -3.81295762962, -9.52278299031
717, -6.5896436543, -3.78756134401, -9.61026296629
718, -6.67245572594, -3.79503960747, -9.53371137559
719, -8.26994804376, -3.44523813043, -9.44807820033
720, -8.34011276425, -3.39012811443, -9.52950992199
721, -7.27087872791, -3.73367032402, -9.59409921081
722, -7.40162838293, -3.73032994792, -9.5116102687
723, -7.33503387762, -3.8334807698, -9.55031661622
724, -7.30458232843, -3.77062576458, -9.48630461271
725, -7.1591320546, -3.57058332206, -9.78221194042
726, -7.25298566317, -3.55961396436, -9.79457497646
727, -7.14893682, -3.53233626027, -9.80343573117
728, -7.48654505665, -3.85331927082, -9.4182379394
729, -7.51279291725, -3.70198827086, -9.45109949377
730, -7.48281516922, -3.80292427598, -9.55508207407
731, -7.28446759082, -3.68871159569, -9.44896948117
732, -7.39940604024, -3.71554813929, -9.41138771281
733, -7.39561710598, -3.59783793169, -9.5969807986
734, -7.42634341982, -3.73975911957, -9.61191373304
735, -7.49578488659, -3.68463074776, -9.55635105444
736, -7.41716844067, -3.60809866678, -9.4757462178
737, -6.60046818403, -3.83620090427, -9.31778818284
738, -6.58555752603, -3.72381856987, -9.35218433128
739, -6.65535561614, -3.74276183284, -9.44629870288
740, -6.6805954233, -3.66445039253, -9.37364562734
741, -6.63501361505, -3.65874788202, -9.49390121291
742, -6.7764236532, -3.71318172985, -9.32273917675
743, -8.39845878548, -3.70121401094, -9.8140659213
744, -8.48896165972, -3.73857621402, -9.82443279348
745, -8.49191886661, -3.71705501532, -9.71026970028
746, -8.51392585655, -3.60641946873, -9.7862201087
747, -8.36761636974, -3.80640132846, -9.70130437871
748, -8.41583684567, -3.68210026847, -9.64621725658
749, -8.35240853837, -3.83670539376, -9.79912636545
750, -8.36264586554, -3.57709680624, -9.72973767097
751, -8.31790672309, -3.73111826937, -9.74577820491
752, -8.30182151664, -3.65830321692, -9.81924434779
753, -8.36042331442, -3.76659186367, -9.9022746202
754, -8.36818421939, -3.60090889398, -9.92172850967
755, -8.39242594679, -3.7090920908, -9.96632211773
756, -8.44612448266, -3.60056595699, -9.85159703257
757, -8.38635272688, -3.47508661661, -9.53182219861
758, -8.32563914703, -3.50256557495, -9.43366608696
759, -6.81445463968, -3.52265426816, -9.66900263823
760, -6.82335977952, -3.58942058306, -9.74847823082
761, -6.84284393627, -3.63329793773, -9.69804921272
762, -6.91013475573, -3.54467536903, -9.72702029187
763, -7.9438846659, -3.89582876935, -9.47156244245
764, -7.34511996615, -3.48724435828, -9.52170524049
765, -7.45501950394, -3.44314139592, -9.46465978359
766, -7.42924368332, -3.35419621576, -9.49193948947
767, -7.43493769458, -3.37459188964, -9.56648528452
768, -8.26007583614, -3.37359479885, -9.7108574761
769, -8.29179233098, -3.34756615926, -9.54641705661
770, -8.23266643511, -3.42388754987, -9.63115913632
771, -7.27027384465, -3.36312795141, -9.45282752845
772, -7.34204777839, -3.38190709359, -9.46038959514
773, -7.22843359718, -3.4450258694, -9.52555570064
774, -7.31172299238, -3.51231333735, -9.42635956769
775, -7.39951910522, -3.43451750953, -9.38757217137
776, -7.27587250593, -3.52439459067, -9.66032062798
777, -7.31144041188, -3.59978354298, -9.5366250927
778, -7.434508776, -3.54406960925, -9.40793332641
779, -7.43055271255, -3.50701873226, -9.541529542
780, -7.3501039741, -3.44864986564, -9.61476330436
781, -8.04153146046, -3.61336654753, -9.5537389626
782, -8.07173372184, -3.49078544673, -9.55952734141
783, -8.138570361, -3.57697434038, -9.54352075998
784, -8.05999880856, -3.54337734547, -9.46739893371
785, -7.97907681968, -3.67842096302, -9.69674583185
786, -7.96600186363, -3.54572830389, -9.56296915233
787, -7.93499206609, -3.63019223178, -9.51679151146
788, -8.10365134268, -3.63905012731, -9.4493412648
789, -6.76667101825, -3.4865966576, -9.41405118833
790, -6.82170326491, -3.4351476218, -9.33093391441
791, -6.78723979761, -3.60133038322, -9.38672544222
792, -6.7410839494, -3.54778112476, -9.28055726026
793, -6.81338217308, -3.60315866697, -9.30189810911
794, -6.81091346062, -3.49158361592, -9.23558263295
795, -6.7316900496, -3.66629181584, -9.72808640874
796, -6.83843009439, -3.64014446366, -9.19577337302
797, -6.7286563535, -3.63986903859, -9.2533952895
798, -7.3428610329, -3.60883909236, -9.40916108457
799, -7.36083013113, -3.55104519963, -9.33937975684
800, -7.23775820248, -3.59844111532, -9.45882857409
801, -7.26727085726, -3.61111724408, -9.3427724294
802, -7.3358139676, -3.66766737201, -9.3241213282
803, -7.56407265841, -3.58848944167, -9.40455554021
804, -7.51948421891, -3.56203124121, -9.47961970812
805, -7.62551909675, -3.68202706911, -9.49226456748
806, -7.49948266426, -3.71023998485, -9.32899880254
807, -7.6253839472, -3.73879284552, -9.38380189648
808, -7.58180409101, -3.84008098899, -9.48831296269
809, -7.19750042296, -3.72898456308, -9.44782555405
810, -7.35555988183, -3.82686875705, -9.45593574252
811, -7.34728417763, -3.70133968558, -9.65457750058
812, -7.28197498381, -3.9050061929, -9.49875198827
813, -6.37323075055, -3.49514607163, -9.4708970334
814, -8.44571935258, -3.51681271505, -9.81953133901
815, -8.34983931413, -3.43897700482, -9.76538498171
816, -8.35089692128, -3.50879263054, -9.86628457448
817, -8.25747149764, -3.55072982603, -9.68554747899
818, -8.27236867851, -3.56266663045, -9.77088309355
819, -8.47775344402, -3.49398654059, -9.70583487142
820, -8.45656502744, -3.58742570984, -9.67260292602
821, -7.67340635852, -3.44811867999, -9.69302480197
822, -7.76646400454, -3.40650858136, -9.64154230909
823, -7.76931650571, -3.3570817741, -9.75051371768
824, -7.77901413549, -3.5073380594, -9.68624469427
825, -7.65025822888, -3.46792161395, -9.79483656038
826, -7.78099498495, -3.44338087825, -9.80209152179
827, -7.60104022136, -3.3636526077, -9.71131430498
828, -7.66166079518, -3.37897940832, -9.78111151556
829, -7.6972201786, -3.36168421394, -9.67009006503
830, -7.67703893728, -3.44125005922, -9.58588726176
831, -7.71406806926, -3.5605320462, -9.77549612862
832, -7.64570615387, -3.52966491301, -9.70301402706
833, -8.11776402395, -3.68992273987, -9.64376564408
834, -8.09048434444, -3.71716186312, -9.75052507762
835, -8.04278882802, -3.76507598221, -9.59888384198
836, -8.09797264936, -3.80637776867, -9.70484270822
837, -8.22119852311, -3.7772975791, -9.69830859678
838, -8.23243636556, -3.66955764943, -9.73758965566
839, -6.42109453782, -3.64698347093, -9.34377790919
840, -6.39294970711, -3.59307081708, -9.450832121
841, -8.22183153856, -3.65759685748, -9.59883598385
842, -8.17306890157, -3.61738370057, -9.69322609376
843, -8.11921986274, -3.68680717946, -9.53490734188
844, -6.61249514818, -3.77326610209, -9.25404005931
845, -6.77327158269, -3.92582291854, -9.41466863522
846, -6.7465299618, -3.88560034722, -9.33573883844
847, -6.73579000192, -3.8435346592, -9.25452150418
848, -6.73792121907, -3.71015157248, -9.48583966988
849, -7.00705424421, -3.44399672602, -9.24983004936
850, -7.00572920241, -3.39295172226, -9.32023833293
851, -7.09985874945, -3.53089842761, -9.24350062153
852, -7.10971496474, -3.46346782596, -9.30324685621
853, -7.0025528306, -3.52219827141, -9.32164561358
854, -6.91161147551, -3.42029222523, -9.33277452923
855, -6.91769322716, -3.45663301616, -9.23329025338
856, -8.26473850176, -3.30058808302, -9.60370652517
857, -7.96724874411, -3.94929552216, -9.78948537159
858, -8.08014900645, -3.8915523931, -9.73815303519
859, -7.9291715092, -3.85280309653, -9.77438153182
860, -8.01365151678, -3.80226848743, -9.81683739229
861, -7.00080864569, -3.49368989768, -9.1920683383
862, -7.06762789612, -3.72074713554, -9.65767918972
863, -7.08104977267, -3.7059854942, -9.76295761851
864, -7.14643046392, -3.68933713901, -9.70281158981
865, -7.06807489858, -3.59602258072, -9.74147896106
866, -6.97995736308, -3.69976956235, -9.60160325166
867, -7.02305797397, -3.59846325283, -9.59739258049
868, -7.12920034039, -3.70375595954, -9.59556562605
869, -7.16131051361, -3.79399971214, -9.72360721199
870, -7.22961843125, -3.766121325, -9.67297129297
871, -7.0170373322, -3.80788492819, -9.54202740865
872, -6.95977674869, -3.82657543374, -9.62529745112
873, -7.10023787231, -3.82230818692, -9.64511367404
874, -7.83382031277, -3.57183387408, -9.42459182157
875, -7.89100260448, -3.62874667798, -9.31758074062
876, -7.87002888663, -3.68266963376, -9.47317863204
877, -7.79783919337, -3.76193636634, -9.40728957628
878, -6.9978738692, -3.73336849309, -9.73728020284
879, -8.0138230021, -3.85172158299, -9.64176751749
880, -8.15759201455, -3.90701442788, -9.62503677662
881, -7.96441105561, -3.77332160568, -9.65650482489
882, -7.87591032412, -3.88826093262, -9.70204929226
883, -8.22102506272, -3.33802577977, -9.54728818769
884, -8.10538598066, -3.83119993335, -9.5584505337
885, -6.93185032026, -3.82915513142, -9.44146678378
886, -6.87950128998, -3.82353428305, -9.58158534155
887, -6.78720310867, -3.80117314032, -9.53299827158
888, -6.8508129399, -3.88634462762, -9.45505435394
889, -6.94751427775, -3.90257706204, -9.56548859586
890, -6.87988885251, -3.36201229322, -9.3637217747
891, -6.89031456298, -3.40419013079, -9.29266924558
892, -6.82808690331, -3.66535032334, -9.51847258087
893, -6.91965148317, -3.73065751684, -9.52572344239
894, -6.87738039968, -3.7122143284, -9.64559122727
895, -6.88254639556, -3.94465157966, -9.66563898216
896, -7.10306994944, -3.58211450782, -9.32528955595
897, -7.24393768817, -3.52866032065, -9.30194552983
898, -7.18698394141, -3.55096216369, -9.40293609683
899, -7.03502152266, -3.69329099006, -9.31530042352
900, -6.98954704666, -3.62091807793, -9.42404275234
901, -7.11237939293, -3.63287547185, -9.42012206115
902, -7.19174307774, -3.68885124576, -9.35936157418
903, -6.95717149255, -3.63500784518, -9.22466383683
904, -7.13439797851, -3.63058412646, -9.2481076287
905, -8.17077825445, -3.51456933749, -9.63737987627
906, -8.07302784805, -3.46684974732, -9.67064333764
907, -8.07426453972, -3.59778012269, -9.66933517884
908, -8.13423150169, -3.3751178904, -9.6266042874
909, -7.92291584713, -3.50918055235, -9.65523255819
910, -7.86735560074, -3.66490431352, -9.63411614968
911, -7.85698548321, -3.56130062508, -9.53470005206
912, -7.89889955204, -3.57706280075, -9.76329588648
913, -7.88003696357, -3.46982557052, -9.73673102247
914, -7.85379110271, -3.43639336806, -9.59788349667
915, -8.00564970265, -3.41206749131, -9.58404157526
916, -7.63842391582, -3.83477832498, -9.3836414198
917, -7.71491795781, -3.76746551614, -9.3101355371
918, -7.67849261494, -3.79040591855, -9.44800324177
919, -7.68332743912, -3.86789079226, -9.32967982599
920, -7.64906432707, -3.76133596266, -9.26347309229
921, -7.59954560187, -3.8900461486, -9.31867203065
922, -7.56099865573, -3.8048369899, -9.3514743338
923, -7.67316474157, -3.92559742999, -9.38910677219
924, -7.40183674376, -3.36809356924, -9.41262412708
925, -7.56503562093, -3.89123330996, -9.4124254219
926, -6.89633017986, -3.60034337206, -9.443208523
927, -6.89558289329, -3.65983313392, -9.29946486109
928, -6.92852547053, -3.73187271856, -9.3846502513
929, -7.98238147745, -3.43383016821, -9.86797607352
930, -8.01184944177, -3.49477042094, -9.97897058504
931, -8.06652090208, -3.42748245377, -9.93652864059
932, -6.84107496217, -3.75610462525, -9.43336289737
933, -6.96324977741, -3.95240723112, -9.47821744437
934, -7.04591605521, -3.79660503071, -9.45160274669
935, -7.05794446483, -3.92303907707, -9.54756425479
936, -7.00719347333, -3.91204808999, -9.38168136334
937, -7.01227314994, -3.80576043204, -9.33871190644
938, -6.86621458609, -3.85428469339, -9.34548623577
939, -7.18620360404, -3.65715336118, -9.52683760714
940, -7.06339291305, -3.68728111831, -9.48053960776
941, -7.20331257277, -3.78946185637, -9.52509237663
942, -7.25593353307, -3.79654413833, -9.36137615794
943, -7.14954155186, -3.84999689974, -9.46111849957
944, -6.89461158069, -3.73807439029, -9.23961306242
945, -7.01645454397, -3.75567725182, -9.22961680562
946, -6.80805131167, -3.59235417699, -9.60734796823
947, -6.79066086091, -3.70453805355, -9.70148896973
948, -6.92877990018, -3.64878159977, -9.77977721715
949, -6.8614511701, -3.75754226365, -9.71794715101
950, -6.90054424508, -3.57270496138, -9.63588553578
951, -6.95876365491, -3.63480440808, -9.7037988489
952, -6.62709253979, -3.58732316978, -9.23426580805
953, -6.56572003588, -3.62304097823, -9.36466047252
954, -6.60504567142, -3.53513556869, -9.3053660632
955, -6.61122158247, -3.4700981487, -9.16376835657
956, -6.56914545451, -3.60090156527, -9.13735075168
957, -6.54594226746, -3.53671067207, -9.2186704396
958, -6.71512301253, -3.48422147918, -9.19895361158
959, -6.51098373299, -3.57592195437, -9.30567959542
960, -6.53193782267, -3.63043660752, -9.21988003746
961, -6.64955189182, -3.65138585507, -9.14326048917
962, -7.1204227491, -3.83181792579, -9.78888451621
963, -7.17280998302, -3.76167270965, -9.80069466883
964, -7.22622604662, -3.81930793917, -9.81232041183
965, -7.18320606202, -3.91616055387, -9.72949974231
966, -7.0911850461, -3.9159242958, -9.70734785183
967, -7.17711479935, -3.86795857552, -9.62098663015
968, -7.39330131549, -3.85747385178, -9.62985668723
969, -7.34584179797, -3.92242334159, -9.58133087282
970, -7.45057548698, -3.95598007546, -9.62509187921
971, -7.37030844247, -3.98529923869, -9.66638394525
972, -7.31488864279, -3.90238447054, -9.74458248739
973, -7.45064968501, -3.87196280469, -9.68605427857
974, -8.23491112574, -3.49030421743, -10.0238318492
975, -8.18975320634, -3.64017831779, -10.0439485483
976, -8.17908162469, -3.4875369476, -9.97191419305
977, -8.19083443868, -3.56932916656, -9.92389581117
978, -7.45698549482, -3.77612675762, -9.73009344672
979, -7.32362368127, -3.79660975192, -9.71587079029
980, -7.30470093355, -3.84433793085, -9.64773271595
981, -7.18386616804, -3.54819266544, -9.5451689761
982, -7.12588756476, -3.62015587299, -9.61274499186
983, -7.23398841184, -3.65199517609, -9.64337682333
984, -7.17665785717, -3.58909434181, -9.71455954598
985, -7.13048487051, -3.49286364197, -9.60761240677
986, -7.11647812269, -3.49554337996, -9.4576867197
987, -8.37927890643, -3.54808935218, -9.62117185785
988, -8.45000876051, -3.60363773974, -9.53047431785
989, -8.35382953708, -3.59955329182, -9.50299906757
990, -8.32211962442, -3.66078576769, -9.64012328034
991, -8.29043909639, -3.51778336066, -9.56551930286
992, -8.54586963317, -3.48033423679, -9.61541294933
993, -8.15571082369, -3.78087860343, -9.61539470027
994, -8.1659200677, -3.89109905204, -9.5037275867
995, -8.1786446665, -3.75334000371, -9.51533438782
996, -7.99604277691, -3.7706824075, -9.47277977435
997, -8.04244597379, -3.89340625059, -9.50746270942
998, -8.10239227268, -3.94809895759, -9.58617270416
999, -7.95617037736, -3.75909123803, -9.55951619944
1000, -8.04042703566, -3.32936951866, -9.87823849778
1001, -7.98407858424, -3.34517873095, -9.81371371809
1002, -8.12737995238, -3.85534980224, -9.44992140133
1003, -7.92657349103, -3.89281874685, -9.59145437549
1004, -7.97760469804, -3.97180741677, -9.58795471701
1005, -8.00076166237, -3.93195538761, -9.67290834117
1006, -7.43619072505, -3.62903770504, -9.3366595044
1007, -7.19600733565, -3.42457862054, -9.38517352168
1008, -7.30326174344, -3.42363246484, -9.31414055762
1009, -7.3465594964, -3.45288936326, -9.28525075091
1010, -8.21010174252, -3.32156053398, -9.66226373864
1011, -7.53822897275, -3.47899315641, -9.33851273102
1012, -8.34215664776, -3.32675263627, -9.70659814249
1013, -7.51191624218, -3.55924462818, -9.26832567754
1014, -7.64512219457, -3.46602145869, -9.41448147493
1015, -7.67054746386, -3.53315773356, -9.49019924257
1016, -7.66650881591, -3.57179126757, -9.39134264703
1017, -7.58283884094, -3.47888990598, -9.49281804282
1018, -7.90618608961, -3.55243476847, -9.96918161159
1019, -7.83298371083, -3.65882847929, -9.96948706456
1020, -7.90311466451, -3.59864013544, -9.87745429788
1021, -7.93458680299, -3.65120992154, -9.99129865188
1022, -7.8964937287, -3.50573399846, -9.85217072707
1023, -8.01308279962, -3.55946261254, -9.93375020019
1024, -6.37081865577, -3.74456125332, -9.55568524476
1025, -7.91628797341, -3.46657923126, -9.93250672942
1026, -7.81749465106, -3.54473116277, -9.94683714072
1027, -7.22916136782, -3.88448567879, -9.39658769781
1028, -7.20957495145, -3.90861625644, -9.25210017299
1029, -7.33147262208, -3.96419990791, -9.33907763338
1030, -7.80706010234, -3.83128511804, -9.33243749336
1031, -7.19663197403, -3.93815715142, -9.51986347277
1032, -7.24197092648, -4.00755400637, -9.44222156427
1033, -7.31982069703, -3.97332311144, -9.42947773859
1034, -7.59310060869, -3.67230290091, -9.66705224046
1035, -7.55905779432, -3.77706023842, -9.61434215992
1036, -7.45858243249, -3.62974371888, -9.69544096263
1037, -7.8977542869, -3.50442825504, -9.47507463371
1038, -7.95284990974, -3.57595788052, -9.42402719538
1039, -8.01620644743, -3.45151548344, -9.480831632
1040, -8.0034943421, -3.31889308487, -9.70603946067
1041, -8.05310842201, -3.32623214481, -9.62325986505
1042, -7.99139378978, -3.32103793299, -9.58528799837
1043, -8.17365109172, -3.56407362492, -9.44245356748
1044, -7.35344260544, -3.63559910562, -9.72031944128
1045, -7.29108746562, -3.74451562193, -9.82006509452
1046, -7.36434327314, -3.66229620478, -9.84071670597
1047, -7.21325801512, -3.671750407, -9.83422702687
1048, -7.38651109425, -3.73250356987, -9.78612000715
1049, -7.45538327952, -3.67639662798, -9.77384345348
1050, -7.4042581556, -3.53124001825, -9.6643001077
1051, -7.57084079794, -3.91340236231, -9.57687287135
1052, -7.64687356024, -3.8000903968, -9.55280791477
1053, -8.26975125353, -3.28424529765, -9.65908551201
1054, -8.23557092396, -3.26393284214, -9.7117587142
1055, -7.56071351108, -3.87296960022, -9.6530978628
1056, -7.5650906849, -3.82539130449, -9.74051359715
1057, -7.64345237036, -3.77817390838, -9.67764825233
1058, -7.54943342614, -3.72427900153, -9.75704515637
1059, -7.76910752396, -3.58503575967, -9.48788361013
1060, -7.73441997169, -3.50935722948, -9.41891263278
1061, -7.77046247324, -3.45606612994, -9.51260612784
1062, -7.78644299352, -3.66774182332, -9.54041981505
1063, -7.73907245463, -3.67282005831, -9.44977479497
1064, -7.25641070695, -3.89409574929, -9.58948868374
1065, -7.25441185182, -4.01300668923, -9.53283575131
1066, -7.4685364068, -3.64352288326, -9.21869187817
1067, -7.40753584011, -3.71824713925, -9.30631670743
1068, -7.35394309861, -3.70498058376, -9.25213327463
1069, -7.4465112079, -3.45093597515, -9.30836541675
1070, -7.55189590524, -3.77010245994, -9.24335495409
1071, -6.72389679639, -4.04336482709, -9.29888665643
1072, -8.26290919278, -3.69043913834, -9.95043188371
1073, -8.28016415367, -3.57704537173, -9.88190614421
1074, -8.49219178325, -3.60855458926, -9.93938893283
1075, -8.58600037059, -3.6221273297, -9.88001337747
1076, -8.43819987479, -3.63518668677, -10.03297646
1077, -8.41337366086, -3.56667791451, -9.9946463645
1078, -8.50450028111, -3.74070403601, -9.96655353968
1079, -6.66226286059, -3.53300467293, -9.39006875963
1080, -6.71715687899, -3.53960761967, -9.47783248809
1081, -8.25435998873, -3.88486820957, -9.65320943547
1082, -8.23951909489, -3.9243653518, -9.54837289583
1083, -8.24741704, -3.81499158801, -9.49124805866
1084, -8.32610375841, -3.90261034872, -9.55344022271
1085, -6.69472744232, -3.72552496773, -9.2491275765
1086, -6.60154747408, -3.95615203034, -9.47750927438
1087, -6.71800346762, -3.60574394713, -9.51837702984
1088, -7.6984881299, -3.60318231843, -9.56425490874
1089, -8.23844730735, -3.79648960706, -9.79127373315
1090, -8.10326764748, -3.83029336173, -9.81701556637
1091, -8.20392409721, -3.6822610795, -9.86172317493
1092, -8.07052941625, -3.6229075436, -9.79435071624
1093, -8.38194212853, -3.40501577784, -10.0065324274
1094, -8.44412275933, -3.36083082128, -9.91411533116
1095, -8.33598661167, -3.46995658849, -10.0339442948
1096, -8.3300453349, -3.40912385708, -9.99767989958
1097, -8.39640526229, -3.48566612397, -9.95963763354
1098, -8.4049445094, -3.50211031932, -10.0466985419
1099, -8.47857058058, -3.44540093539, -9.8909607192
1100, -8.1267641838, -3.96686660333, -9.7058113876
1101, -8.16998345447, -3.85982960253, -9.73621260521
1102, -8.20270321565, -3.95715981663, -9.77211781687
1103, -8.2175688004, -3.95804588646, -9.62662362135
1104, -8.08413484861, -3.9241505726, -9.8488904805
1105, -8.51786143577, -3.74737698162, -9.55805764253
1106, -8.56549156308, -3.65516254912, -9.67560185366
1107, -7.8569576988, -3.922602829, -9.50119424349
1108, -7.87447091753, -3.8154431254, -9.61796010164
1109, -7.77404417346, -3.86606416379, -9.60507354575
1110, -8.55725752547, -3.79716390349, -9.71056446421
1111, -8.58526812902, -3.75218943893, -9.82906590964
1112, -8.56280109089, -3.86269048508, -9.80390694563
1113, -8.61492101146, -3.73505243698, -9.67820883829
1114, -8.49261474748, -3.90578317538, -9.74237897598
1115, -7.511044328, -3.58900318601, -9.56818279651
1116, -8.08083584621, -3.39538644422, -9.86028789513
1117, -8.12241964372, -3.33394111454, -9.85333501157
1118, -7.4709989376, -3.89725554838, -9.54296538406
1119, -7.66947414426, -3.94134230209, -9.62328366291
1120, -8.30116657166, -3.50402612732, -9.94590996316
1121, -8.29070082744, -3.59012601913, -9.98032620748
1122, -8.32204159007, -3.55300145557, -10.0603280296
1123, -7.67052004231, -3.76725049246, -9.78176892486
1124, -7.65542634738, -3.68749672934, -9.82311208803
1125, -7.71962716867, -3.71369027777, -9.71705943485
1126, -7.3206807088, -3.47669680688, -9.78166892077
1127, -7.36965193289, -3.56283439076, -9.78706709588
1128, -7.79748509576, -3.65846541702, -9.75568909156
1129, -7.73719797986, -3.74013715739, -9.844350437
1130, -7.80351409559, -3.81670174822, -9.78252041043
1131, -7.62658275596, -3.59496113348, -9.77553673207
1132, -7.74478329058, -3.61154026422, -9.66860821967
1133, -7.59829653527, -3.61880659499, -9.31976568454
1134, -7.40493426902, -3.57425826923, -9.25134994116
1135, -7.59338886399, -3.43910930005, -9.63230859275
1136, -7.60758488001, -3.54351773574, -9.56712569096
1137, -6.72429461356, -3.42858706366, -9.29046095144
1138, -6.78969658378, -3.55474383885, -9.14052815728
1139, -6.72310240213, -3.52776386701, -9.12686823702
1140, -6.59859626771, -3.43297633468, -9.23046285234
1141, -6.89933619384, -3.4942361827, -9.40570279131
1142, -6.83841251478, -3.39740765115, -9.44753727364
1143, -6.89255690126, -3.56605022284, -9.34098283595
1144, -8.49065345973, -3.51297402367, -9.95943494899
1145, -6.59448985804, -3.69196625466, -9.26979195655
1146, -6.54720231047, -3.55166661155, -9.40952358402
1147, -6.52704779249, -3.49114866676, -9.30985328075
1148, -6.45294485321, -3.57077757717, -9.37507919629
1149, -6.48253612272, -3.47273318102, -9.38569529549
1150, -8.58700856333, -3.50939624769, -9.84922396361
1151, -8.35271326872, -3.41411407845, -9.87162052301
1152, -8.54583912921, -3.4329417352, -9.79825485564
1153, -8.44549695028, -3.37783502422, -9.81827044994
1154, -8.35251798321, -3.45722151193, -9.67057710687
1155, -6.43181448274, -3.9389128753, -9.37005679439
1156, -6.78399705134, -3.82350175312, -9.66761480193
1157, -7.10541477744, -3.88123588958, -9.34594707539
1158, -7.51225830294, -3.44380046024, -9.68682010816
1159, -7.51314440993, -3.43484542747, -9.79956271303
1160, -7.1168168721, -3.7809466443, -9.36750784317
1161, -7.44776016912, -3.4174953086, -9.75883038545
1162, -7.39991560892, -3.37396513204, -9.66557770833
1163, -6.95260486002, -3.55578719578, -9.53836365326
1164, -6.90182782629, -3.67484035806, -9.12059236117
1165, -6.82257547178, -3.72126896903, -9.09249235634
1166, -7.43378053288, -3.96218083499, -9.36234025444
1167, -7.41406769708, -3.93455766183, -9.26555677833
1168, -6.54036162821, -3.63126493412, -9.49999094343
1169, -6.61756925809, -3.571816137, -9.55038686191
1170, -6.54197643652, -3.65476943129, -9.579872074
1171, -6.44591691824, -3.73405417602, -9.51134821601
1172, -6.46977492657, -3.68813152808, -9.44753808479
1173, -6.49032196213, -3.54051146175, -9.49736076015
1174, -6.8831674587, -3.56290064732, -9.13413433442
1175, -6.84093956151, -3.65074739089, -9.08731852037
1176, -7.58087681776, -3.97169018005, -9.66008617631
1177, -7.48209159587, -3.9838727252, -9.68677836492
1178, -7.50399876023, -4.00657219596, -9.53121338896
1179, -7.61580829685, -4.00396139856, -9.58997953846
1180, -7.71014574131, -3.66238762579, -9.26615369457
1181, -7.57935063573, -3.65470105662, -9.23569032796
1182, -7.66146504165, -3.57555314279, -9.2664876045
1183, -6.90762405891, -3.80048994599, -9.14899040528
1184, -7.69657816608, -3.68070639006, -9.36800796099
1185, -7.56931945642, -3.58958266351, -9.22126178173
1186, -6.98757349978, -3.70097232155, -9.12223485496
1187, -6.97691760906, -3.60963778551, -9.12563885215
1188, -6.63881592513, -3.58160080759, -9.68398528552
1189, -6.74553562669, -3.5831346549, -9.7063464402
1190, -6.67771248238, -3.76694543471, -9.70698488462
1191, -6.63397418583, -3.67467615702, -9.62637672944
1192, -7.78113864295, -3.87647506877, -9.49447886714
1193, -7.80003820706, -3.96368186674, -9.57918688063
1194, -7.7219592745, -3.97765648917, -9.51797477421
1195, -7.74636417562, -3.94414664819, -9.67778694693
1196, -7.75719261986, -3.85184371106, -9.7065606827
1197, -6.99520237175, -3.49736330527, -9.45956566368
1198, -7.03869525236, -3.43882470385, -9.38962312683
1199, -6.83188485631, -3.53973332323, -9.50738934261
1200, -6.93750333323, -3.40590600847, -9.54373988723
1201, -7.06326763154, -3.54208449085, -9.52740675793
1202, -7.05411934675, -3.37202980626, -9.49009155091
1203, -7.00258311061, -3.40821153471, -9.57348117425
1204, -7.85204464932, -3.41464443737, -9.45140056901
1205, -7.8803951976, -3.49143350868, -9.34492943069
1206, -7.93955916094, -3.44073432581, -9.40829202674
1207, -6.93712638656, -3.38849858525, -9.46278431392
1208, -7.12539087587, -3.39263429075, -9.36024161624
1209, -7.21684239304, -3.45699348673, -9.25607212367
1210, -7.43676031819, -3.73840150129, -9.21673822765
1211, -7.41530572647, -3.8393124282, -9.24142179734
1212, -8.15848129812, -3.55055664908, -9.7727896151
1213, -7.66963187535, -3.85738379775, -9.727523995
1214, -7.61510978031, -3.88077416576, -9.83416278611
1215, -7.53097309254, -3.92560983837, -9.72414808681
1216, -8.47154097283, -3.87157432133, -9.84741418104
1217, -7.78424785206, -3.76662589554, -9.52182304385
1218, -7.77100899021, -3.75090922083, -9.63310643973
1219, -6.49335878873, -3.73513140053, -9.35797621426
1220, -6.73216213176, -3.69617789641, -9.14902957958
1221, -6.80171890167, -3.7591136086, -9.21885084608
1222, -8.52724139752, -3.36710772227, -9.74200188131
1223, -8.45481475958, -3.29687851104, -9.69006049029
1224, -8.27589039885, -3.30037020171, -9.78413246175
1225, -8.39761318689, -3.28434740486, -9.78102455372
1226, -8.18708387458, -3.46038779071, -9.84907602571
1227, -6.52307661454, -3.69017872192, -9.68854683392
1228, -6.54119243072, -3.59589642553, -9.65901636262
1229, -7.54317413922, -3.62858072589, -9.78536018929
1230, -7.516178755, -3.52942984084, -9.77403140373
1231, -7.50079454887, -3.88196743216, -9.31993899292
1232, -7.39774314016, -3.88902669051, -9.27217742316
1233, -7.38280242981, -3.8203329026, -9.34125348064
1234, -7.53939414877, -3.53241807577, -9.8752815023
1235, -7.35942576406, -3.63678128138, -9.18808282295
1236, -7.79210881213, -3.33577480282, -9.66616146606
1237, -7.82825013162, -3.34704456108, -9.56389900645
1238, -7.72780240412, -3.34452851127, -9.55169150336
1239, -6.81393557125, -3.46927313857, -9.59550883095
1240, -6.92637598699, -3.42989751561, -9.61868887499
1241, -6.94215455716, -3.92657682468, -9.28763681679
1242, -6.87652202787, -3.96371117167, -9.2177711529
1243, -6.87978693158, -3.97793118852, -9.33847084879
1244, -6.96164737876, -4.03348637338, -9.38624464448
1245, -7.0212120076, -3.98777303259, -9.27999591066
1246, -6.69576147559, -3.54899627457, -9.62575093421
1247, -6.72653575085, -3.6532482777, -9.63170233748
1248, -6.89090346855, -3.83618001658, -9.24417641161
1249, -6.92257910387, -3.88698027512, -9.14521923627
1250, -7.05628785901, -3.88364766128, -9.24719077679
1251, -6.72187806972, -3.80417914901, -9.16770666434
1252, -6.63510276899, -3.75572204904, -9.16211297181
1253, -6.5123813242, -3.77906484425, -9.26828281858
1254, -6.60074842837, -3.85705262139, -9.19530617656
1255, -6.51798846929, -3.71153709865, -9.14603612639
1256, -6.54546019784, -3.79603476984, -9.18576640945
1257, -6.70830959588, -3.84478824996, -9.62603203717
1258, -6.7121270465, -3.73215101355, -9.58160200836
1259, -6.89178429219, -3.56782235453, -9.21876521753
1260, -7.5910284172, -3.96267303401, -9.49011222655
1261, -6.74217264196, -3.96506068544, -9.1628690918
1262, -6.81502159234, -3.88706323189, -9.19408713106
1263, -6.80004932424, -3.95765702782, -9.28146196786
1264, -7.2885479794, -3.9768977862, -9.66105256739
1265, -7.22787252871, -3.9754364212, -9.6057740712
1266, -7.38098520596, -4.00754644658, -9.51797757945
1267, -6.62973874671, -3.53843287619, -9.10519153732
1268, -6.64912225523, -3.60819302344, -9.06147417506
1269, -6.66233341443, -3.69687132882, -9.03885638092
1270, -6.73842368938, -3.64589093386, -9.06757072773
1271, -8.31736192469, -3.89847128372, -9.7345767982
1272, -6.7067059092, -4.04650585596, -9.40451154387
1273, -6.62128552326, -3.9652933967, -9.39171574637
1274, -6.70422037236, -3.95301099361, -9.35807874613
1275, -6.78453371118, -4.02256440789, -9.38150794929
1276, -6.7344972123, -3.90693978404, -9.53521148832
1277, -6.82903785863, -4.03842206567, -9.44471253953
1278, -7.39284361986, -3.90197904293, -9.42259343846
1279, -7.24211500563, -3.98215830146, -9.33344022298
1280, -7.13514367259, -3.98239857117, -9.29981796612
1281, -7.12296597197, -3.96525349103, -9.40838768748
1282, -8.11416101029, -3.44507213132, -9.77959306641
1283, -8.08604028318, -3.54523592945, -9.86233645283
1284, -8.01246718048, -3.51333230482, -9.76457827992
1285, -6.61667391322, -3.49200493627, -9.59932051687
1286, -7.977125302, -3.43243400919, -9.69848463814
1287, -8.07627128373, -3.36867548845, -9.77393814756
1288, -8.19206193733, -3.43898560548, -9.7215804519
1289, -7.76846370924, -3.47896875507, -9.87275147249
1290, -7.86692315312, -3.40076771302, -9.83377999378
1291, -6.66410889107, -3.40858698982, -9.36582886933
1292, -6.56152983245, -3.40014998868, -9.37138350916
1293, -8.25629452612, -3.42061408026, -9.97517905448
1294, -8.25069372864, -3.36389234399, -9.92356196011
1295, -8.32753439628, -3.63867236976, -10.0538655204
1296, -8.52908084629, -3.61914143087, -9.43362149488
1297, -8.54464589098, -3.51132692107, -9.50651181605
1298, -8.46677513912, -3.52250160764, -9.44258658264
1299, -8.26240358, -3.58840299824, -9.47461065993
1300, -8.26392113031, -3.59784221734, -9.3824698122
1301, -8.125851533, -3.56786528354, -9.3609782172
1302, -8.1257751773, -3.64855621046, -9.35806454059
1303, -8.04778208863, -3.46928019079, -9.38768044803
1304, -8.20536639132, -3.66000411581, -9.49296019186
1305, -8.18861746026, -3.44976820418, -9.51788494446
1306, -7.6476143607, -3.34235233148, -9.60922678031
1307, -7.86802352531, -3.31760373915, -9.64084716744
1308, -7.76073625783, -3.36367641122, -9.46017319903
1309, -7.93767549742, -3.3773622167, -9.47140856765
1310, -6.74651078732, -3.43761862459, -9.49113611422
1311, -6.82697637659, -3.42538964224, -9.53158584492
1312, -8.19389594164, -3.78245214904, -9.38297866656
1313, -8.59711240074, -3.5320522585, -9.73989540403
1314, -8.52978055814, -3.86655711758, -9.60565899568
1315, -8.39545210888, -3.77397245315, -9.61145969208
1316, -7.9231130062, -3.77276943424, -9.83761860553
1317, -7.87534628605, -3.76340864214, -9.7320469567
1318, -8.00298596921, -3.6924062623, -9.8241860501
1319, -7.99985049427, -3.76170116525, -9.97147706352
1320, -8.10590961789, -3.75357260828, -9.8708924516
1321, -7.97296833915, -3.88009669527, -9.89293345213
1322, -6.97788714327, -3.37351354373, -9.39009883379
1323, -8.50535392114, -3.71336098707, -9.47167196013
1324, -8.41328422824, -3.77547492021, -9.46041704791
1325, -8.4976545608, -3.83030214361, -9.50812183578
1326, -6.49569848422, -3.65254064001, -9.29848404883
1327, -8.33296972618, -3.69871988006, -9.41322121118
1328, -8.31639197975, -3.77689482624, -9.44696411629
1329, -6.83312053755, -3.50322658038, -9.15647711299
1330, -7.01679794192, -3.67596804334, -9.79348976821
1331, -6.89603674688, -3.84014273814, -9.73909308739
1332, -6.4706810421, -3.9712074509, -9.57624712268
1333, -6.5430651722, -3.93597448593, -9.62730893832
1334, -6.45450242427, -3.90493765092, -9.63059045785
1335, -7.56838118184, -3.34356420581, -9.51825848394
1336, -7.51841785483, -3.48194561159, -9.57630899644
1337, -7.5937286087, -3.40331782093, -9.3783990166
1338, -7.64260109042, -3.37622486104, -9.47166753241
1339, -8.3621343897, -3.69389984972, -9.51177246661
1340, -7.53238019791, -3.5551655983, -9.67613153176
1341, -6.38151708878, -4.00085778681, -9.52921434068
1342, -6.48796044473, -4.01616702833, -9.49961468934
1343, -7.66247667765, -3.60297965673, -9.90455587935
1344, -6.3796906584, -3.92179469181, -9.54205648422
1345, -6.40712987499, -3.89420113398, -9.47147410014
1346, -7.85628026095, -3.89808342216, -9.38614489946
1347, -7.60791508763, -3.79013148955, -9.87659763508
1348, -6.48997686334, -3.87458821038, -9.56978120465
1349, -8.28286796369, -3.77211216475, -9.58631273966
1350, -8.362921468, -3.34160746012, -9.93613655023
1351, -7.90698200481, -3.67251940379, -9.79538035064
1352, -7.43551802164, -3.53380206706, -9.85505330492
1353, -7.15617162805, -3.44674729733, -9.69667452469
1354, -7.26678211656, -3.41842909155, -9.69321640939
1355, -7.76373223944, -3.56906227093, -9.2958544416
1356, -7.71573347294, -3.49182964013, -9.31141908858
1357, -7.07499223964, -3.51359930627, -9.74262101409
1358, -6.82566045644, -3.91157386519, -9.54794356629
1359, -6.49030501782, -3.84134264308, -9.31675548972
1360, -6.52179564883, -3.92584938761, -9.31919128573
1361, -6.52355739128, -3.97976956025, -9.41540981709
1362, -6.4793358979, -3.73764090138, -9.60205700048
1363, -6.66078935079, -3.46671024679, -9.45387772557
1364, -6.74942202711, -3.40265847043, -9.3942633671
1365, -6.59514771348, -3.47996788857, -9.38054951787
1366, -6.55505781706, -3.41668045497, -9.44217968621
1367, -6.58736508644, -3.40622264699, -9.29761371512
1368, -6.42179158246, -3.55116952639, -9.32031481504
1369, -6.43520286482, -3.57106925786, -9.23798796092
1370, -6.45247808203, -3.60756477996, -9.56534260551
1371, -6.52295934986, -3.54642435096, -9.62119584711
1372, -6.42365566564, -3.63517445421, -9.65375926139
1373, -6.64302388046, -3.9215520492, -9.64959583888
1374, -6.98641434296, -3.83417793799, -9.14141551411
1375, -7.08567127916, -3.83949251657, -9.15874637514
1376, -7.16302837421, -3.73231207282, -9.25771432732
1377, -7.10687082941, -3.80724787818, -9.2660663864
1378, -7.90156782451, -3.68416485641, -9.91445565929
1379, -8.0993431899, -3.61874361407, -9.94459561095
1380, -8.07379025605, -3.86999874933, -9.91955460927
1381, -8.01707193009, -3.66686675773, -9.95309781731
1382, -7.80802484097, -3.66819203437, -9.87935937042
1383, -6.54804743998, -4.06589360626, -9.28528009252
1384, -6.54872937905, -4.01688487631, -9.33214858989
1385, -6.64100044264, -4.06013456429, -9.31133564897
1386, -6.64916238934, -4.02973119638, -9.22912063723
1387, -8.61735689013, -3.60432190775, -9.80660962091
1388, -8.10738403709, -3.41157377444, -9.46506411871
1389, -8.06179284723, -3.35306114425, -9.51731972218
1390, -6.63932810712, -3.97759973596, -9.30864936324
1391, -6.65776364947, -3.91762904578, -9.20520077906
1392, -6.74803039793, -3.90705240503, -9.11385893715
1393, -7.78444389283, -3.57754016013, -9.82941210025
1394, -7.82265498788, -3.78223599798, -9.93325607398
1395, -8.12488604776, -3.70366500134, -10.0023717362
1396, -6.71231464379, -3.46170084039, -9.57122987038
1397, -6.44025884035, -3.62545629318, -9.17641659189
1398, -6.45269794581, -3.72095338555, -9.19915432867
1399, -8.42523923358, -3.69676440155, -9.4239124418
1400, -8.37861356001, -3.60455388403, -9.40607663973
1401, -7.47396230864, -3.61011342348, -9.84840273341
1402, -7.87932323034, -3.79045886565, -9.47326905022
1403, -7.86669497834, -3.97496547934, -9.66814858811
1404, -6.50294926582, -3.46035038356, -9.18821296969
1405, -6.41804855121, -3.47086769393, -9.24276245869
1406, -6.50388281895, -3.41407249909, -9.26387265994
1407, -7.53722340959, -3.78941487403, -9.88055948695
1408, -7.49264237896, -3.85985988324, -9.80503871583
1409, -7.41496729931, -3.90148340156, -9.78017057897
1410, -6.52406683735, -3.51167831464, -9.1240245441
1411, -6.45865139949, -3.61280336232, -9.08289277778
1412, -7.44800224649, -3.69345456328, -9.87490749413
1413, -7.41903599277, -3.8192827519, -9.84192053304
1414, -7.41802726006, -3.74992899294, -9.87482790217
1415, -6.42964876473, -3.8296826014, -9.28256051438
1416, -6.44626214145, -3.81817502544, -9.20955549571
1417, -8.21480940629, -3.81114473183, -9.88556304164
1418, -8.16836204108, -3.47648239637, -9.40666044117
1419, -7.9991454756, -3.65840495057, -9.42686816402
1420, -6.65576748738, -3.82686453176, -9.05195648761
1421, -6.66370923447, -3.76929657088, -9.04439494629
1422, -6.58492246177, -3.71524622556, -9.03036263721
1423, -8.06420278707, -3.82818463555, -9.39555089914
1424, -8.13486214499, -3.72101157757, -9.37404561246
1425, -8.01813026117, -3.71490037959, -9.33954198474
1426, -7.74266794238, -3.70760262358, -9.93421586905
1427, -6.50512480909, -3.88362803817, -9.17954852956
1428, -6.55691666763, -3.97208585595, -9.15377548672
1429, -6.54120991686, -3.97479209215, -9.22898776685
1430, -6.46480048735, -4.01208052247, -9.14178880834
1431, -6.41820012971, -4.03208235781, -9.41349140548
1432, -7.33711509786, -3.54023353202, -9.21511912484
1433, -7.25744970712, -3.52300840704, -9.19450357
1434, -7.31400578329, -3.83065921538, -9.81330925589
1435, -7.11809838028, -4.03063467414, -9.47108576212
1436, -8.17139659809, -3.89113727814, -9.86234971338
1437, -8.28771017887, -3.75218717296, -10.0205081058
1438, -8.36579214727, -3.832221973, -9.99421919983
1439, -8.34942536933, -3.71481959615, -10.0626288589
1440, -8.39712652532, -3.78866575308, -10.0361501646
1441, -7.02223825642, -4.02166712622, -9.5450550466
1442, -6.60817266097, -4.06192663489, -9.36333216373
1443, -6.59202260651, -4.05973638504, -9.42072684167
1444, -8.48323874031, -3.4368280786, -9.49893592193
1445, -8.57084244333, -3.62704683638, -9.58522794779
1446, -8.61031033832, -3.57082144624, -9.63767435976
1447, -6.48023540926, -3.82938823993, -9.04025231036
1448, -8.48316213257, -3.40083543962, -9.61221126795
1449, -6.47706578553, -3.90273486469, -9.07843108885
1450, -6.55887344184, -3.85346665998, -9.1092693349
1451, -6.56812067109, -3.93006902355, -9.08207696507
1452, -6.46132573118, -3.76874893172, -9.1249305632
1453, -6.44862169488, -3.94294114264, -9.23468160671
1454, -8.20663387518, -3.71569668973, -9.42353002252
1455, -8.09478733886, -3.75182698465, -9.47665434869
1456, -7.80829378042, -3.71865360892, -9.29369609881
1457, -8.22288908344, -3.83643748208, -9.97136680392
1458, -8.17414731749, -3.77740678608, -10.0045344516
1459, -8.29369440462, -3.90351930312, -9.89604383917
1460, -8.07209270654, -3.77010517537, -9.97736415798
1461, -8.33443047937, -3.9489817207, -9.62781181133
1462, -8.39208721227, -3.93876345406, -9.81372412354
1463, -8.42965465146, -3.92148246038, -9.64440933822
1464, -7.72398694729, -3.41150654789, -9.83974128185
1465, -7.5890383156, -3.95378509394, -9.75800166434
1466, -7.53381043759, -3.96299532481, -9.38797605877
1467, -8.4374764173, -3.95144236179, -9.73825444471
1468, -7.79876639853, -3.44585179485, -9.3676289136
1469, -7.6195694637, -3.44417426139, -9.3302508801
1470, -7.55445369969, -3.69168304278, -9.89863738223
1471, -6.65979931867, -4.01295240686, -9.54425449593
1472, -6.77307850553, -4.02508282105, -9.53559668054
1473, -6.70694509189, -4.0404054086, -9.48491791723
1474, -7.91954538814, -3.78620031398, -9.95229536923
1475, -7.66884250281, -3.52332457953, -9.89811319063
1476, -7.12227425368, -3.66821220532, -9.81244317273
1477, -6.53884154765, -3.44046555543, -9.50881447203
1478, -6.43623854848, -4.04597969812, -9.28817588374
1479, -7.26209618332, -3.7046844142, -9.22007563956
1480, -7.09689195985, -3.60474509433, -9.14747029264
1481, -7.2109131841, -3.59894057111, -9.19892145174
1482, -7.10428219487, -3.69482772072, -9.13419563083
1483, -7.17989603164, -3.75623150379, -9.15868027401
1484, -7.86110118472, -3.95138543316, -9.77749793944
1485, -7.34021705412, -3.35483582558, -9.55908484114
1486, -7.29816244131, -3.59712942213, -9.23080965301
1487, -6.73153441924, -4.01276966864, -9.22713963628
1488, -7.52415766621, -3.34621029408, -9.60388188583
1489, -8.40016956491, -3.61078277466, -10.0908340161
1490, -8.43223602127, -3.8416434103, -9.97843438299
1491, -8.40393153591, -3.89711430993, -9.92497375016
1492, -8.26047159227, -3.91624214247, -9.82948611795
1493, -7.4838839385, -3.36617303162, -9.42050228627
1494, -8.10216505357, -3.53734864026, -10.0101899195
1495, -7.47996191543, -3.95778023411, -9.46445245825
1496, -6.46100608524, -3.54853306504, -9.04123920689
1497, -6.5348970178, -3.63411307777, -9.04181122182
1498, -6.40843126129, -3.7330961082, -9.66089170101
1499, -6.62316363125, -3.83448627598, -9.69251701842
1500, -6.64724272609, -3.41049750161, -9.52198151783
1501, -6.51916014406, -3.77847441465, -9.68824926986
1502, -6.7884362283, -3.96019683811, -9.63049441562
1503, -6.71460639888, -3.95300494839, -9.61722462104
1504, -8.01047769653, -3.64198354463, -9.32680055903
1505, -6.527216659, -3.48520006763, -9.57183120227
1506, -6.42498136475, -3.51122782769, -9.55218816652
1507, -7.21757849322, -3.3745201254, -9.39830157561
1508, -7.78827666319, -3.91346959568, -9.40738238249
1509, -7.90055524361, -3.8754276541, -9.87494230599
1510, -7.22555434876, -3.81651931351, -9.20735248978
1511, -7.93418103445, -3.33455988647, -9.58012506435
1512, -7.64833150398, -3.9083234499, -9.33394937265
1513, -7.32849793754, -3.61994172159, -9.86205446776
1514, -6.4587415875, -3.66562257468, -9.13235280751
1515, -8.1695034435, -3.38125074046, -9.91786099105
1516, -7.68704116308, -3.95716397111, -9.76281985612
1517, -7.75059483749, -3.83201420271, -9.90409056773
1518, -7.77225033117, -3.8924289908, -9.85340891566
1519, -8.36443091921, -3.30782434426, -9.86927458987
1520, -7.42861425285, -3.60703049154, -9.87743631572
1521, -6.51581158477, -3.73797869356, -9.00096895323
1522, -6.46895393422, -3.70943719431, -9.05660323302
1523, -6.47634815504, -3.64591363432, -9.01167342369
1524, -8.39547651493, -3.30097263727, -9.61448790563
1525, -6.40737126167, -3.82915264485, -9.37729224368
1526, -6.399058818, -3.79582992912, -9.45101175797
1527, -6.39258903216, -3.46459367515, -9.37873189964
1528, -7.97661265912, -3.55106377113, -9.3389819844
1529, -6.49719218756, -4.0662636224, -9.3905714216
1530, -6.42528956334, -3.72196872098, -9.27037773752
1531, -6.57493183907, -4.03805484951, -9.4933980503
1532, -6.5353019432, -3.84536535305, -9.66985438183
1533, -8.45071535218, -3.33604135276, -9.57072743524
1534, -6.42940702229, -3.84637820527, -9.63600019847
1535, -6.45473613911, -3.42936947002, -9.46505979141
1536, -6.35363810491, -3.57228081372, -9.58576525929
1537, -6.55612452813, -3.56163268663, -9.06515385506
1538, -6.36682171598, -3.91665765732, -9.61050281344
1539, -6.44069518465, -3.50369470522, -9.13737744699
1540, -6.37884867434, -3.66161329627, -9.51759787275
1541, -8.21878419411, -3.34241735999, -9.83163582701
1542, -6.87619442607, -4.00443407164, -9.51281401081
1543, -6.39296589054, -3.82536151767, -9.52182453412
1544, -6.35540566053, -3.83973149738, -9.64376203539
1545, -7.0703214417, -3.40196783582, -9.61220678721
1546, -7.0346046462, -3.46802390505, -9.65304832776
1547, -7.11924926166, -3.39765988373, -9.52421666979
1548, -6.75382465962, -3.8222785935, -9.07382566721
1549, -6.67122780156, -3.99041525894, -9.17054520733
1550, -6.73384220182, -3.87662986732, -9.69780182083
1551, -6.75224126364, -3.74128318459, -9.05922167374
1552, -6.35780069843, -3.66182930897, -9.60659107785
1553, -8.16205547417, -3.32626986645, -9.75802869987
1554, -8.29317553381, -3.84611099844, -9.95958907616
1555, -6.41452118709, -3.76866768333, -9.31847682086
1556, -7.70232770613, -3.83894813787, -9.82785514665
1557, -7.95001151096, -3.82740387533, -9.37010203396
1558, -6.40415103238, -3.73008199469, -9.4020079591
1559, -7.28514934409, -3.76617676175, -9.16894617377
1560, -7.36826175981, -3.76375788062, -9.18171217225
1561, -6.56554239505, -3.99516956495, -9.56219067436
1562, -6.55267287785, -3.78734265024, -9.03799764627
1563, -7.20182905952, -3.38803474716, -9.62176236981
1564, -7.89592842451, -3.73129873289, -9.36157259807
1565, -6.76938937135, -3.36557905524, -9.42981574993
1566, -6.72967279438, -3.48500765543, -9.65152541019
1567, -6.8385724046, -3.81287542231, -9.11200975629
1568, -6.66101014019, -3.9086689973, -9.09206306647
1569, -7.30288869417, -3.84301595338, -9.25829811827
1570, -7.72195067682, -3.90667977519, -9.78922497228
1571, -7.16709925787, -3.98158302039, -9.64047411531
1572, -7.04185218812, -3.95236768402, -9.64712563171
1573, -6.97913172639, -3.53169743487, -9.69649849242
1574, -7.13766532051, -3.39175204092, -9.44661563563
1575, -7.02882157587, -3.83963314335, -9.76516237028
1576, -7.78062238659, -3.97506805102, -9.75175782958
1577, -6.9285125428, -3.99343404774, -9.60350276755
1578, -6.97631139128, -3.90191847101, -9.68236163959
1579, -7.08676967809, -3.36587031691, -9.35332171686
1580, -8.35501114988, -3.83256178822, -9.51619107623
1581, -8.4710971749, -3.90357376966, -9.5916036236
1582, -8.57388191987, -3.69491474632, -9.50764866829
1583, -8.17575791836, -3.28656246453, -9.77457414917
1584, -7.1529471578, -3.51423668322, -9.19159332628
1585, -7.68712460484, -3.33186762321, -9.47640296846
1586, -8.20740363118, -3.29065737244, -9.62247148929
1587, -7.90870243339, -3.33341624913, -9.68364832553
1588, -7.66132744938, -3.70310608781, -9.92817325232
*Element, type=C3D4
1, 706, 707, 708, 709
2, 710, 711, 712, 713
3, 711, 712, 713, 714
4, 714, 715, 712, 716
5, 714, 717, 715, 716
6, 714, 717, 707, 718
7, 719, 720, 600, 601
8, 721, 722, 723, 724
9, 725, 726, 727, 333
10, 722, 728, 729, 730
11, 722, 724, 731, 732
12, 722, 733, 734, 735
13, 722, 736, 729, 732
14, 714, 709, 737, 738
15, 714, 738, 739, 709
16, 739, 740, 738, 741
17, 709, 708, 742, 740
18, 708, 739, 740, 709
19, 714, 739, 718, 709
20, 739, 718, 709, 708
21, 743, 744, 745, 746
22, 743, 747, 748, 745
23, 743, 749, 747, 744
24, 743, 750, 751, 752
25, 743, 744, 753, 749
26, 743, 754, 755, 756
27, 719, 625, 757, 758
28, 759, 760, 761, 762
29, 756, 744, 755, 743
30, 763, 518, 494, 519
31, 752, 754, 755, 743
32, 764, 765, 766, 767
33, 720, 768, 769, 770
34, 771, 772, 773, 774
35, 774, 765, 772, 764
36, 775, 774, 765, 772
37, 764, 776, 777, 733
38, 764, 774, 736, 777
39, 764, 778, 779, 736
40, 733, 764, 736, 777
41, 764, 767, 780, 779
42, 781, 782, 783, 784
43, 781, 785, 786, 787
44, 781, 784, 783, 788
45, 789, 790, 791, 792
46, 793, 794, 792, 790
47, 795, 234, 233, 209
48, 793, 792, 794, 796
49, 793, 797, 796, 742
50, 793, 797, 742, 791
51, 798, 732, 736, 731
52, 798, 774, 778, 799
53, 798, 774, 777, 736
54, 798, 800, 774, 801
55, 798, 799, 802, 801
56, 729, 803, 736, 804
57, 729, 803, 804, 805
58, 729, 806, 728, 732
59, 729, 803, 807, 806
60, 729, 808, 807, 805
61, 724, 731, 809, 721
62, 722, 810, 728, 730
63, 777, 721, 731, 722
64, 722, 730, 734, 723
65, 722, 734, 733, 811
66, 724, 723, 812, 810
67, 811, 723, 721, 722
68, 813, 93, 101, 103
69, 750, 814, 815, 816
70, 750, 815, 817, 818
71, 750, 819, 814, 820
72, 821, 822, 823, 824
73, 821, 825, 826, 823
74, 821, 827, 828, 829
75, 821, 822, 824, 830
76, 821, 831, 824, 826
77, 821, 831, 832, 824
78, 833, 834, 835, 836
79, 833, 834, 837, 838
80, 839, 114, 840, 120
81, 833, 834, 836, 837
82, 833, 841, 783, 842
83, 781, 833, 835, 843
84, 781, 783, 833, 843
85, 709, 844, 737, 738
86, 709, 845, 708, 706
87, 709, 846, 737, 847
88, 740, 708, 742, 848
89, 849, 850, 302, 277
90, 849, 851, 852, 853
91, 854, 855, 850, 853
92, 768, 769, 770, 856
93, 849, 850, 277, 855
94, 857, 858, 859, 860
95, 855, 853, 861, 849
96, 862, 863, 864, 865
97, 862, 866, 867, 868
98, 862, 869, 870, 864
99, 862, 866, 868, 871
100, 871, 862, 872, 873
101, 874, 875, 876, 877
102, 862, 866, 872, 878
103, 879, 836, 858, 880
104, 879, 881, 882, 859
105, 879, 860, 881, 859
106, 883, 770, 769, 856
107, 879, 884, 836, 880
108, 885, 886, 887, 888
109, 886, 885, 889, 888
110, 890, 891, 277, 854
111, 892, 887, 893, 894
112, 886, 871, 885, 893
113, 893, 886, 887, 885
114, 886, 889, 872, 895
115, 886, 893, 872, 871
116, 896, 897, 898, 801
117, 896, 897, 852, 898
118, 896, 853, 899, 900
119, 896, 901, 899, 902
120, 896, 903, 853, 851
121, 896, 904, 903, 851
122, 782, 905, 906, 907
123, 782, 906, 905, 908
124, 781, 782, 907, 783
125, 909, 786, 910, 911
126, 909, 824, 912, 913
127, 909, 914, 786, 911
128, 909, 786, 915, 906
129, 909, 786, 914, 915
130, 916, 917, 918, 919
131, 916, 920, 921, 922
132, 916, 808, 918, 807
133, 919, 921, 923, 916
134, 402, 401, 924, 377
135, 916, 808, 925, 923
136, 926, 791, 927, 928
137, 929, 532, 930, 931
138, 888, 885, 932, 887
139, 932, 708, 887, 848
140, 932, 928, 926, 893
141, 933, 934, 935, 936
142, 932, 885, 928, 893
143, 885, 937, 928, 934
144, 885, 928, 893, 934
145, 885, 938, 928, 937
146, 885, 871, 889, 933
147, 932, 928, 885, 938
148, 809, 800, 939, 731
149, 809, 939, 800, 901
150, 809, 940, 939, 901
151, 940, 809, 941, 934
152, 809, 721, 941, 724
153, 724, 809, 942, 941
154, 809, 934, 943, 941
155, 809, 942, 941, 943
156, 934, 885, 933, 871
157, 937, 944, 899, 945
158, 928, 937, 944, 899
159, 932, 938, 885, 888
160, 885, 937, 936, 938
161, 937, 928, 944, 938
162, 401, 924, 377, 775
163, 928, 742, 944, 938
164, 886, 894, 872, 893
165, 894, 946, 892, 947
166, 894, 878, 948, 949
167, 894, 872, 866, 878
168, 894, 866, 950, 951
169, 894, 948, 761, 949
170, 928, 893, 934, 940
171, 840, 120, 114, 103
172, 791, 932, 928, 926
173, 846, 708, 938, 742
174, 932, 887, 893, 892
175, 928, 893, 940, 900
176, 887, 885, 932, 893
177, 952, 953, 740, 954
178, 952, 955, 956, 957
179, 797, 792, 958, 952
180, 952, 959, 960, 953
181, 952, 956, 961, 960
182, 952, 957, 959, 954
183, 862, 873, 869, 962
184, 869, 870, 963, 964
185, 869, 963, 962, 964
186, 873, 965, 966, 967
187, 869, 870, 967, 873
188, 962, 965, 966, 873
189, 968, 969, 970, 971
190, 971, 972, 973, 968
191, 974, 975, 976, 977
192, 968, 734, 978, 730
193, 968, 734, 730, 723
194, 968, 979, 734, 980
195, 968, 978, 979, 973
196, 981, 982, 939, 983
197, 984, 981, 983, 982
198, 981, 982, 984, 985
199, 981, 898, 800, 901
200, 981, 898, 773, 800
201, 985, 986, 773, 981
202, 919, 917, 420, 921
203, 987, 820, 748, 988
204, 987, 989, 990, 991
205, 987, 820, 992, 819
206, 987, 990, 817, 991
207, 987, 820, 988, 992
208, 987, 988, 989, 757
209, 987, 819, 750, 820
210, 884, 993, 994, 995
211, 996, 884, 835, 997
212, 997, 884, 835, 879
213, 884, 880, 998, 994
214, 879, 884, 880, 998
215, 879, 997, 999, 835
216, 879, 884, 835, 836
217, 531, 1000, 929, 1001
218, 884, 996, 1002, 997
219, 879, 997, 884, 998
220, 879, 1003, 1004, 1005
221, 798, 1006, 799, 778
222, 774, 898, 773, 1007
223, 772, 774, 1008, 775
224, 798, 731, 777, 800
225, 774, 775, 799, 1009
226, 774, 898, 897, 801
227, 803, 736, 1006, 729
228, 770, 768, 856, 1010
229, 1011, 778, 1006, 803
230, 1012, 769, 768, 856
231, 803, 1011, 1013, 1006
232, 803, 1014, 1015, 1016
233, 803, 1015, 804, 805
234, 803, 1011, 1017, 1014
235, 1018, 1019, 1020, 1021
236, 1018, 1020, 1022, 1023
237, 1024, 104, 90, 100
238, 1018, 1025, 533, 930
239, 1018, 1023, 1025, 930
240, 1018, 1022, 1020, 1026
241, 1027, 1028, 942, 1029
242, 919, 1030, 445, 917
243, 1027, 812, 941, 943
244, 724, 942, 1027, 941
245, 1027, 1031, 812, 943
246, 1027, 812, 1031, 1032
247, 724, 812, 1027, 810
248, 1027, 1033, 812, 1032
249, 734, 1034, 1035, 735
250, 734, 735, 733, 1036
251, 734, 735, 1036, 1034
252, 1035, 730, 973, 978
253, 723, 734, 811, 980
254, 781, 788, 783, 843
255, 1037, 1038, 1039, 786
256, 915, 1040, 1041, 1042
257, 784, 788, 1043, 783
258, 1044, 983, 870, 1045
259, 1044, 1045, 1046, 1047
260, 1044, 983, 777, 811
261, 1044, 1046, 1048, 1049
262, 1044, 1036, 1049, 811
263, 1044, 1036, 733, 1050
264, 1035, 1051, 808, 1052
265, 1053, 1010, 768, 1054
266, 1055, 1035, 730, 973
267, 1035, 1056, 1055, 1057
268, 1035, 805, 735, 1034
269, 1035, 730, 735, 805
270, 734, 1034, 1058, 1035
271, 1059, 1015, 1060, 1016
272, 1059, 1060, 1061, 874
273, 1059, 911, 1062, 876
274, 1059, 876, 1063, 874
275, 939, 809, 941, 940
276, 809, 731, 902, 800
277, 939, 868, 721, 983
278, 721, 1064, 941, 723
279, 979, 870, 811, 980
280, 870, 811, 980, 721
281, 722, 721, 811, 777
282, 722, 735, 734, 730
283, 722, 724, 810, 723
284, 722, 731, 777, 736
285, 941, 940, 868, 939
286, 812, 1065, 1031, 1032
287, 1006, 1066, 1067, 1068
288, 798, 1006, 778, 736
289, 1006, 778, 1069, 799
290, 1044, 776, 983, 726
291, 721, 983, 811, 777
292, 920, 420, 921, 1070
293, 983, 870, 864, 868
294, 939, 721, 731, 777
295, 722, 736, 732, 731
296, 722, 810, 724, 732
297, 798, 778, 774, 736
298, 774, 775, 778, 799
299, 1071, 217, 192, 193
300, 721, 731, 809, 939
301, 939, 983, 982, 868
302, 983, 870, 1045, 864
303, 776, 984, 981, 983
304, 764, 733, 779, 780
305, 800, 777, 774, 773
306, 764, 733, 780, 776
307, 750, 746, 814, 756
308, 750, 814, 819, 815
309, 752, 1072, 754, 1073
310, 820, 750, 745, 746
311, 750, 745, 746, 743
312, 752, 816, 818, 1073
313, 752, 816, 1073, 754
314, 1074, 1075, 675, 677
315, 1074, 754, 756, 755
316, 1074, 1076, 754, 755
317, 1074, 680, 1077, 672
318, 1074, 1075, 677, 1078
319, 740, 1079, 1080, 791
320, 1081, 1082, 1083, 1084
321, 709, 740, 1085, 738
322, 707, 714, 709, 1086
323, 739, 709, 738, 740
324, 739, 741, 738, 715
325, 740, 848, 791, 1087
326, 848, 739, 740, 708
327, 1015, 830, 1088, 1061
328, 803, 1015, 805, 1016
329, 1015, 805, 1063, 1088
330, 1059, 1088, 1015, 1063
331, 834, 836, 1089, 1090
332, 833, 993, 837, 836
333, 834, 1089, 838, 1091
334, 834, 1090, 860, 836
335, 834, 838, 1092, 1091
336, 1093, 1094, 685, 681
337, 70, 1093, 1095, 1096
338, 1093, 71, 1096, 70
339, 1093, 1097, 1098, 1095
340, 1093, 705, 1095, 1098
341, 681, 1099, 683, 1097
342, 1093, 1096, 1097, 1095
343, 880, 1100, 998, 567
344, 1100, 998, 567, 542
345, 813, 93, 103, 110
346, 1100, 540, 1005, 541
347, 1101, 1100, 1102, 858
348, 1100, 880, 1101, 1102
349, 1100, 880, 1102, 1103
350, 1103, 1100, 567, 566
351, 858, 1100, 1102, 1104
352, 1100, 858, 540, 1104
353, 1105, 649, 1106, 745
354, 1107, 1108, 1109, 1003
355, 1110, 658, 1111, 1112
356, 1110, 745, 1111, 1113
357, 1110, 745, 1114, 744
358, 729, 805, 735, 730
359, 729, 735, 804, 736
360, 1078, 674, 666, 662
361, 735, 805, 804, 1115
362, 734, 1036, 811, 978
363, 1035, 1034, 1058, 1057
364, 556, 1116, 1000, 1117
365, 1036, 1034, 1058, 734
366, 1055, 1118, 1051, 970
367, 1055, 1119, 1051, 1052
368, 730, 1055, 1118, 1051
369, 1051, 1035, 730, 1055
370, 1035, 734, 978, 1058
371, 730, 734, 978, 1035
372, 1035, 1055, 1051, 1052
373, 1120, 977, 1073, 1121
374, 1120, 1122, 1077, 1095
375, 1120, 1095, 1097, 1096
376, 1120, 1121, 1122, 974
377, 1123, 1034, 1124, 1125
378, 1126, 776, 1127, 726
379, 1125, 1128, 1129, 1130
380, 1125, 831, 1124, 1128
381, 1125, 1131, 1034, 1124
382, 1125, 831, 1132, 1131
383, 1125, 1129, 1124, 1123
384, 1133, 1013, 806, 803
385, 778, 779, 736, 804
386, 778, 804, 1011, 765
387, 803, 1011, 1133, 1013
388, 1006, 799, 1069, 1134
389, 1017, 1135, 1136, 830
390, 792, 1137, 789, 790
391, 792, 797, 1138, 796
392, 1138, 792, 958, 797
393, 952, 1139, 797, 961
394, 952, 954, 1140, 957
395, 952, 958, 1140, 954
396, 792, 1137, 1079, 789
397, 740, 792, 954, 1079
398, 854, 1141, 1142, 790
399, 854, 1143, 853, 1141
400, 790, 890, 891, 253
401, 854, 1142, 890, 790
402, 854, 790, 1143, 1141
403, 854, 278, 850, 277
404, 1144, 675, 689, 680
405, 854, 850, 855, 277
406, 952, 797, 1139, 958
407, 740, 1085, 738, 1145
408, 1146, 1147, 1148, 1149
409, 1085, 1145, 797, 961
410, 814, 756, 1150, 1144
411, 814, 1151, 815, 816
412, 1152, 1153, 819, 814
413, 750, 815, 819, 1154
414, 750, 814, 816, 756
415, 814, 1150, 756, 746
416, 814, 746, 820, 819
417, 932, 708, 848, 742
418, 1155, 109, 122, 112
419, 886, 894, 887, 1156
420, 894, 947, 887, 1156
421, 885, 934, 936, 937
422, 934, 936, 937, 1157
423, 928, 934, 937, 899
424, 1158, 1159, 825, 827
425, 941, 871, 940, 934
426, 934, 1157, 937, 1160
427, 934, 1160, 937, 899
428, 809, 943, 934, 1160
429, 1158, 1161, 405, 1162
430, 866, 871, 862, 872
431, 862, 866, 951, 867
432, 950, 893, 1163, 866
433, 1164, 1165, 248, 247
434, 886, 889, 871, 872
435, 1166, 369, 1167, 394
436, 894, 878, 866, 951
437, 1168, 1146, 1169, 741
438, 1168, 1170, 1171, 715
439, 1168, 1172, 1146, 953
440, 1172, 1146, 1173, 1168
441, 796, 1174, 1164, 1175
442, 1051, 1176, 1177, 1178
443, 1051, 1179, 1176, 1178
444, 1133, 1180, 1181, 1182
445, 1133, 1180, 920, 1181
446, 1182, 1016, 1011, 1133
447, 944, 1165, 1164, 1183
448, 729, 807, 803, 805
449, 803, 805, 1184, 1016
450, 803, 1133, 1011, 1016
451, 1185, 1013, 1066, 1181
452, 1133, 1181, 1185, 1182
453, 1181, 1013, 1066, 806
454, 248, 1186, 1187, 1164
455, 184, 1188, 208, 795
456, 233, 760, 234, 795
457, 795, 1189, 208, 233
458, 795, 947, 234, 235
459, 210, 235, 1190, 795
460, 1077, 1098, 1095, 1122
461, 1164, 1183, 1165, 247
462, 795, 1191, 1190, 184
463, 1109, 1107, 1192, 1108
464, 1109, 1192, 1193, 1194
465, 1109, 1119, 1195, 1196
466, 1197, 1163, 926, 900
467, 1198, 853, 896, 1197
468, 1197, 1199, 1163, 1200
469, 1201, 1197, 1202, 986
470, 1203, 1197, 1202, 1201
471, 1197, 1163, 1203, 1200
472, 733, 1050, 780, 776
473, 733, 1050, 1115, 779
474, 1044, 811, 733, 1036
475, 735, 733, 1115, 736
476, 722, 777, 733, 736
477, 798, 736, 777, 731
478, 1037, 1204, 1061, 914
479, 1038, 1039, 786, 784
480, 1037, 786, 787, 1038
481, 1037, 786, 911, 787
482, 1037, 1205, 1206, 1038
483, 854, 1141, 1198, 1207
484, 852, 850, 1208, 302
485, 852, 1209, 851, 326
486, 729, 808, 728, 922
487, 722, 729, 735, 730
488, 1210, 806, 1211, 1070
489, 806, 1070, 1210, 1066
490, 1006, 1067, 806, 732
491, 838, 841, 990, 837
492, 838, 1092, 1091, 1212
493, 834, 837, 838, 1089
494, 752, 1091, 838, 1089
495, 750, 990, 838, 817
496, 838, 1212, 1091, 818
497, 750, 752, 816, 818
498, 752, 818, 1091, 1073
499, 808, 1035, 805, 730
500, 1056, 1213, 1214, 1215
501, 142, 14, 15, 98
502, 1035, 1034, 1052, 805
503, 744, 749, 747, 1216
504, 1052, 1192, 1194, 923
505, 1213, 1057, 1196, 1119
506, 1057, 1196, 1119, 1109
507, 1109, 1217, 1052, 1218
508, 1052, 808, 923, 1194
509, 1109, 1057, 1196, 1218
510, 1055, 1051, 1119, 1176
511, 714, 711, 1086, 713
512, 718, 714, 709, 707
513, 714, 739, 738, 715
514, 714, 738, 737, 1219
515, 797, 1220, 796, 1221
516, 1222, 819, 1153, 1223
517, 1012, 1153, 1224, 815
518, 1225, 1012, 1153, 1224
519, 814, 756, 1144, 1097
520, 815, 1226, 816, 1151
521, 1188, 1227, 183, 1228
522, 1154, 815, 1153, 1012
523, 1191, 1190, 184, 1227
524, 934, 1157, 943, 936
525, 893, 871, 934, 940
526, 885, 934, 893, 871
527, 885, 938, 936, 888
528, 871, 934, 935, 933
529, 943, 936, 935, 934
530, 1034, 1136, 832, 1088
531, 1058, 1123, 1034, 1124
532, 1058, 1229, 1124, 1034
533, 1034, 1229, 1036, 1058
534, 1050, 1127, 1036, 1230
535, 1044, 1050, 1127, 1036
536, 1231, 1232, 395, 1167
537, 1231, 1232, 1167, 1166
538, 1231, 921, 922, 925
539, 1231, 1166, 1233, 1232
540, 983, 984, 982, 864
541, 777, 1044, 733, 776
542, 967, 721, 1064, 941
543, 721, 870, 967, 980
544, 1234, 433, 408, 409
545, 964, 870, 1045, 979
546, 1235, 348, 372, 347
547, 870, 965, 979, 964
548, 1045, 1044, 811, 870
549, 870, 980, 979, 965
550, 870, 721, 967, 873
551, 822, 1236, 1237, 1238
552, 1238, 1236, 829, 822
553, 42, 1238, 1236, 829
554, 822, 913, 914, 1236
555, 822, 824, 830, 1061
556, 821, 823, 822, 829
557, 1199, 1239, 950, 1240
558, 1241, 1242, 243, 1243
559, 1244, 1243, 936, 1245
560, 1191, 1188, 1246, 1169
561, 795, 947, 1247, 1189
562, 1241, 1242, 1248, 1249
563, 937, 945, 1250, 1248
564, 937, 1250, 1157, 936
565, 1241, 938, 1248, 1243
566, 1248, 1243, 1242, 1241
567, 844, 1085, 1251, 1252
568, 844, 1253, 738, 1145
569, 844, 737, 1253, 1254
570, 709, 844, 738, 1085
571, 1255, 1145, 1256, 1252
572, 1145, 1256, 1252, 844
573, 717, 1170, 1227, 1191
574, 717, 1257, 718, 1258
575, 1258, 717, 741, 718
576, 717, 1191, 1227, 1190
577, 1141, 791, 790, 1143
578, 795, 184, 1190, 209
579, 793, 791, 1143, 790
580, 1143, 853, 903, 1259
581, 1143, 855, 853, 1259
582, 1143, 926, 900, 1141
583, 1143, 926, 1141, 791
584, 1051, 808, 1194, 1260
585, 729, 808, 805, 730
586, 916, 808, 807, 922
587, 1052, 923, 808, 918
588, 808, 925, 923, 1260
589, 803, 1184, 805, 807
590, 1015, 805, 1088, 1136
591, 1052, 1088, 1057, 1218
592, 729, 735, 805, 804
593, 1034, 1136, 805, 1115
594, 778, 803, 736, 1006
595, 1261, 219, 1262, 1263
596, 968, 969, 1118, 970
597, 1052, 1088, 1034, 1057
598, 1264, 1064, 980, 969
599, 980, 1264, 965, 1064
600, 1264, 339, 1265, 340
601, 1264, 1065, 969, 1266
602, 1264, 1265, 1065, 340
603, 1264, 980, 968, 969
604, 1264, 1266, 969, 971
605, 961, 956, 1267, 1268
606, 961, 1220, 1269, 1270
607, 1101, 1090, 836, 858
608, 1101, 1271, 837, 1089
609, 706, 1272, 1273, 1274
610, 706, 1275, 1272, 1274
611, 1276, 845, 1277, 706
612, 810, 969, 1278, 1118
613, 722, 723, 810, 730
614, 942, 724, 732, 731
615, 1279, 1157, 1280, 1281
616, 810, 1278, 1233, 728
617, 1188, 1246, 207, 1189
618, 1029, 1278, 1233, 942
619, 969, 723, 810, 812
620, 810, 1027, 942, 1278
621, 1282, 1212, 1283, 1284
622, 1285, 182, 1188, 207
623, 1286, 1287, 1284, 906
624, 1282, 906, 908, 1288
625, 506, 1025, 1289, 1290
626, 1282, 906, 1287, 908
627, 1282, 906, 1212, 1284
628, 1120, 754, 816, 1097
629, 1291, 1292, 179, 31
630, 1293, 1151, 1226, 1294
631, 1097, 814, 1151, 1099
632, 856, 769, 883, 602
633, 814, 1153, 815, 1151
634, 750, 817, 815, 1154
635, 750, 751, 752, 838
636, 750, 748, 820, 745
637, 815, 818, 1288, 817
638, 816, 1073, 1226, 818
639, 752, 816, 754, 756
640, 814, 1099, 1152, 1153
641, 756, 1074, 1144, 754
642, 1144, 754, 1097, 756
643, 754, 1295, 1072, 755
644, 754, 1295, 1077, 1121
645, 1296, 1297, 638, 1298
646, 1121, 754, 1295, 1072
647, 1120, 1073, 754, 1121
648, 790, 253, 891, 252
649, 1299, 1043, 719, 1300
650, 1043, 1301, 1302, 788
651, 719, 1300, 758, 1299
652, 784, 1039, 1303, 1038
653, 1043, 1299, 1304, 1300
654, 1043, 1304, 783, 788
655, 1043, 1305, 783, 1299
656, 821, 1135, 827, 1306
657, 1237, 42, 1238, 1236
658, 1237, 1236, 1307, 43
659, 1237, 1204, 1061, 1308
660, 1237, 502, 1204, 1308
661, 1237, 1308, 1238, 478
662, 1237, 1204, 1309, 914
663, 1237, 1061, 1204, 914
664, 1310, 789, 1142, 1311
665, 750, 817, 987, 990
666, 743, 750, 752, 756
667, 1312, 570, 545, 546
668, 820, 745, 748, 1106
669, 820, 1106, 1313, 746
670, 1040, 504, 1001, 529
671, 990, 750, 748, 987
672, 743, 750, 748, 751
673, 1114, 1314, 1315, 745
674, 743, 747, 745, 744
675, 745, 1315, 747, 748
676, 745, 1113, 1106, 1111
677, 745, 1111, 746, 744
678, 743, 746, 756, 744
679, 745, 1315, 748, 1105
680, 745, 1314, 649, 1110
681, 858, 1104, 1090, 860
682, 1316, 1317, 1318, 860
683, 860, 1319, 1318, 1316
684, 834, 860, 1320, 1318
685, 860, 1321, 859, 857
686, 776, 983, 777, 1044
687, 798, 1006, 736, 732
688, 798, 774, 799, 801
689, 854, 1322, 1207, 1198
690, 798, 774, 800, 777
691, 798, 1006, 732, 802
692, 1323, 1105, 1324, 1325
693, 722, 735, 736, 733
694, 735, 736, 1115, 804
695, 738, 1145, 1326, 953
696, 1172, 715, 1219, 953
697, 715, 1219, 953, 738
698, 740, 742, 791, 848
699, 596, 1327, 1328, 1324
700, 844, 738, 1085, 1145
701, 709, 1085, 740, 742
702, 738, 1253, 737, 1219
703, 739, 708, 848, 718
704, 794, 1329, 251, 855
705, 948, 283, 1330, 951
706, 948, 761, 762, 951
707, 948, 1330, 285, 878
708, 894, 761, 948, 951
709, 878, 260, 1331, 285
710, 949, 260, 1331, 878
711, 999, 785, 910, 881
712, 1332, 1333, 1334, 162
713, 1108, 879, 999, 881
714, 879, 999, 881, 835
715, 881, 882, 859, 1317
716, 881, 1317, 785, 910
717, 1017, 1135, 1335, 1336
718, 803, 804, 1017, 1011
719, 1017, 1337, 1335, 1338
720, 1324, 1327, 1328, 1339
721, 1015, 1136, 1017, 804
722, 729, 732, 1006, 806
723, 1017, 765, 804, 1336
724, 1088, 911, 824, 1132
725, 1034, 1132, 832, 1131
726, 1034, 832, 1340, 1131
727, 832, 830, 1088, 1136
728, 1341, 1342, 1332, 138
729, 1035, 978, 1056, 1058
730, 1124, 831, 1131, 1343
731, 1125, 1132, 1034, 1131
732, 1213, 1123, 1196, 1057
733, 1344, 1341, 1345, 1332
734, 493, 1346, 763, 494
735, 1035, 1052, 1034, 1057
736, 1124, 1347, 1123, 1129
737, 748, 989, 988, 1339
738, 1339, 990, 748, 989
739, 1348, 1334, 1332, 1333
740, 990, 1349, 837, 841
741, 750, 817, 838, 818
742, 750, 838, 990, 751
743, 833, 842, 838, 841
744, 447, 1181, 920, 1180
745, 1182, 1181, 423, 1180
746, 1133, 1182, 1184, 1180
747, 1181, 1185, 423, 398
748, 1093, 1151, 1096, 1350
749, 685, 1093, 71, 1350
750, 1097, 1094, 681, 1099
751, 1348, 1345, 1332, 1344
752, 1099, 1094, 681, 686
753, 1097, 1093, 681, 1094
754, 1151, 1094, 1093, 1097
755, 1093, 1350, 1096, 71
756, 881, 999, 785, 835
757, 881, 999, 1108, 910
758, 909, 785, 786, 907
759, 834, 785, 1318, 1092
760, 785, 1318, 1351, 1317
761, 785, 786, 787, 910
762, 781, 835, 785, 999
763, 781, 786, 785, 907
764, 909, 906, 1284, 907
765, 1126, 1161, 382, 1352
766, 726, 1353, 332, 1354
767, 726, 332, 357, 1126
768, 1126, 1354, 776, 726
769, 1126, 780, 1354, 1162
770, 906, 905, 1288, 1212
771, 1126, 1354, 356, 1162
772, 1126, 1161, 381, 382
773, 722, 735, 729, 736
774, 1016, 874, 1060, 1059
775, 1016, 1355, 1063, 1184
776, 1016, 1356, 1355, 1182
777, 1015, 1016, 1014, 1060
778, 852, 1209, 897, 851
779, 1007, 852, 327, 1209
780, 898, 800, 901, 902
781, 774, 800, 898, 801
782, 896, 852, 851, 853
783, 713, 1342, 1332, 1345
784, 981, 773, 898, 986
785, 1051, 1179, 1178, 1260
786, 1086, 709, 1273, 711
787, 1179, 1176, 415, 440
788, 415, 1179, 1178, 1176
789, 1051, 1194, 1179, 1260
790, 417, 1179, 1178, 416
791, 1179, 1176, 440, 1119
792, 981, 776, 773, 985
793, 867, 985, 1357, 982
794, 887, 1156, 1257, 1358
795, 862, 951, 865, 867
796, 862, 982, 865, 864
797, 982, 868, 867, 940
798, 983, 982, 868, 864
799, 982, 984, 985, 1357
800, 737, 714, 1219, 1359
801, 1155, 1360, 710, 1361
802, 1360, 710, 1361, 711
803, 709, 711, 737, 1273
804, 1273, 737, 1360, 711
805, 717, 1362, 716, 1348
806, 711, 1359, 737, 1360
807, 1173, 1148, 840, 1149
808, 711, 1273, 1086, 1361
809, 808, 1118, 730, 728
810, 1015, 1338, 1017, 830
811, 805, 804, 1115, 1136
812, 807, 916, 917, 918
813, 807, 918, 917, 1184
814, 729, 806, 807, 922
815, 805, 1088, 1062, 1063
816, 1184, 918, 805, 807
817, 709, 844, 847, 737
818, 844, 737, 738, 1253
819, 1168, 1146, 741, 953
820, 1310, 230, 1311, 229
821, 1310, 789, 1363, 1364
822, 1365, 1292, 1149, 1366
823, 1137, 789, 790, 1364
824, 1137, 1364, 790, 228
825, 1137, 1291, 228, 203
826, 1137, 958, 1140, 202
827, 203, 1291, 1367, 1137
828, 252, 790, 227, 794
829, 790, 227, 794, 1137
830, 1326, 1368, 839, 1148
831, 1369, 1368, 839, 1326
832, 959, 1369, 960, 1326
833, 959, 1368, 1147, 1369
834, 741, 1079, 1080, 740
835, 1079, 1146, 741, 1169
836, 1079, 1363, 789, 1291
837, 1079, 1146, 1169, 1363
838, 740, 797, 791, 742
839, 1079, 954, 1146, 1365
840, 1188, 1191, 1228, 1169
841, 1191, 1228, 1169, 1170
842, 1170, 1370, 1228, 1371
843, 1168, 715, 1171, 1172
844, 717, 1227, 1170, 1362
845, 1170, 1191, 1228, 1227
846, 1228, 1170, 1227, 1372
847, 1170, 1362, 1372, 1370
848, 717, 707, 1373, 1333
849, 717, 1170, 715, 1362
850, 1170, 715, 1362, 1171
851, 945, 1374, 1375, 1250
852, 945, 1376, 899, 1377
853, 1375, 945, 1186, 1374
854, 945, 944, 1183, 1248
855, 945, 944, 899, 903
856, 945, 1183, 944, 1186
857, 1318, 1351, 1378, 1020
858, 1318, 1092, 1020, 1023
859, 1318, 1379, 1092, 1023
860, 860, 1320, 1380, 1090
861, 1318, 1319, 1320, 1381
862, 1320, 1379, 1092, 1318
863, 1379, 1381, 1318, 1320
864, 834, 1320, 860, 1090
865, 1351, 1128, 1317, 1382
866, 1318, 1378, 1319, 1381
867, 1351, 912, 910, 1128
868, 879, 881, 860, 836
869, 1217, 1218, 910, 1062
870, 1109, 1192, 1217, 1108
871, 876, 1217, 910, 1062
872, 1150, 689, 688, 690
873, 1383, 1384, 1385, 1386
874, 1109, 1196, 1195, 882
875, 1062, 1063, 1217, 1052
876, 1217, 876, 1063, 1062
877, 1063, 805, 1052, 1062
878, 1110, 1111, 745, 744
879, 1113, 1111, 659, 1387
880, 1113, 1111, 1387, 1106
881, 1113, 1111, 660, 659
882, 656, 1106, 657, 1113
883, 797, 742, 1221, 796
884, 782, 1305, 1388, 1389
885, 1287, 1284, 906, 1282
886, 782, 906, 908, 915
887, 906, 908, 915, 1041
888, 1282, 1212, 906, 1288
889, 909, 824, 911, 910
890, 782, 784, 786, 1039
891, 906, 1212, 907, 905
892, 721, 983, 868, 870
893, 812, 1064, 941, 1031
894, 724, 941, 1027, 812
895, 932, 848, 892, 791
896, 1143, 853, 1141, 900
897, 927, 900, 926, 928
898, 886, 1358, 887, 888
899, 926, 1199, 1163, 1197
900, 789, 791, 1141, 1199
901, 791, 1141, 1199, 926
902, 896, 986, 900, 901
903, 896, 898, 902, 801
904, 855, 850, 853, 849
905, 853, 1259, 861, 903
906, 1143, 1259, 794, 855
907, 900, 903, 899, 927
908, 932, 888, 708, 938
909, 892, 1258, 1247, 1087
910, 892, 1247, 1258, 947
911, 892, 848, 1087, 791
912, 894, 892, 946, 950
913, 737, 1273, 1390, 1274
914, 737, 846, 1274, 1391
915, 847, 1262, 1263, 1261
916, 847, 1392, 1262, 1261
917, 847, 1085, 742, 1221
918, 1086, 714, 709, 711
919, 846, 1391, 737, 847
920, 847, 1263, 938, 846
921, 847, 1251, 1262, 1392
922, 844, 1251, 847, 1254
923, 903, 1143, 900, 853
924, 760, 1189, 795, 233
925, 1285, 1169, 1188, 1371
926, 849, 853, 852, 850
927, 1351, 1393, 912, 1128
928, 1382, 1394, 1130, 1316
929, 1129, 1393, 1124, 1343
930, 1351, 1378, 1382, 1316
931, 1382, 1019, 1394, 1378
932, 1379, 1091, 1320, 1092
933, 1379, 1091, 1072, 1395
934, 1285, 1169, 1396, 1246
935, 1381, 1395, 1320, 1379
936, 960, 1397, 1398, 1369
937, 131, 92, 26, 93
938, 988, 1399, 1400, 1296
939, 932, 892, 848, 887
940, 529, 554, 530, 1001
941, 709, 1086, 706, 707
942, 793, 927, 796, 1259
943, 928, 944, 742, 927
944, 740, 952, 792, 797
945, 847, 742, 938, 1221
946, 932, 926, 791, 892
947, 797, 1221, 742, 1085
948, 959, 1147, 1146, 954
949, 1079, 953, 1146, 954
950, 1146, 1365, 1149, 1366
951, 1146, 1149, 1365, 1147
952, 1146, 1148, 953, 1172
953, 780, 1161, 1126, 1050
954, 1034, 1340, 1036, 1229
955, 1036, 1049, 1229, 1401
956, 1050, 1336, 1115, 779
957, 1050, 1036, 1340, 1230
958, 1036, 1049, 1401, 1127
959, 1044, 811, 1049, 1048
960, 1045, 983, 1047, 1044
961, 1003, 763, 1107, 1402
962, 858, 859, 860, 879
963, 1004, 1193, 492, 1403
964, 1107, 1193, 492, 1004
965, 1109, 1003, 1193, 1107
966, 1147, 1404, 1405, 1406
967, 1403, 1003, 1193, 1109
968, 879, 1003, 882, 1108
969, 1003, 1005, 882, 1403
970, 1036, 811, 978, 1049
971, 1036, 1049, 978, 1058
972, 978, 1058, 1407, 1056
973, 978, 973, 1408, 1409
974, 956, 1410, 1411, 1397
975, 1048, 1049, 1412, 978
976, 1413, 1048, 1414, 978
977, 1253, 1359, 1415, 1416
978, 909, 1284, 785, 907
979, 1088, 1061, 824, 911
980, 1088, 830, 824, 1061
981, 821, 822, 830, 829
982, 752, 1073, 1091, 1072
983, 1091, 1417, 753, 1072
984, 1379, 1091, 1092, 1283
985, 1379, 1091, 1395, 1320
986, 784, 1043, 1301, 1418
987, 782, 784, 1305, 783
988, 782, 784, 1388, 1305
989, 784, 1418, 1388, 1305
990, 1043, 1301, 1418, 574
991, 1038, 784, 787, 1419
992, 781, 782, 784, 786
993, 1125, 1057, 1218, 1196
994, 1125, 1088, 1218, 1057
995, 1052, 808, 1035, 805
996, 1052, 1062, 805, 1088
997, 1109, 1218, 1052, 1057
998, 1055, 1215, 1177, 1176
999, 1057, 1123, 1058, 1056
1000, 1221, 938, 944, 742
1001, 938, 888, 845, 1243
1002, 708, 887, 1358, 888
1003, 740, 848, 1087, 741
1004, 742, 932, 928, 791
1005, 888, 938, 845, 708
1006, 932, 887, 708, 888
1007, 708, 887, 1276, 1358
1008, 932, 928, 938, 742
1009, 848, 1258, 718, 887
1010, 958, 226, 794, 1329
1011, 958, 794, 226, 227
1012, 1267, 1139, 955, 952
1013, 961, 1252, 1269, 1220
1014, 1252, 1251, 1420, 1421
1015, 792, 958, 794, 1138
1016, 958, 797, 1139, 1138
1017, 1137, 958, 954, 1140
1018, 1137, 1079, 789, 1291
1019, 1139, 955, 952, 958
1020, 793, 792, 796, 797
1021, 793, 927, 1143, 791
1022, 961, 1252, 1255, 1422
1023, 1269, 197, 172, 173
1024, 1423, 1424, 546, 1425
1025, 1019, 485, 1394, 510
1026, 1019, 1394, 485, 1426
1027, 785, 907, 1284, 1092
1028, 1019, 1021, 1378, 1020
1029, 1019, 510, 1021, 509
1030, 928, 900, 940, 899
1031, 926, 892, 1199, 791
1032, 938, 845, 708, 846
1033, 1427, 1359, 1360, 1254
1034, 1263, 1243, 1242, 1248
1035, 928, 927, 899, 944
1036, 937, 938, 1241, 936
1037, 1358, 1156, 895, 886
1038, 1006, 1013, 806, 1066
1039, 778, 804, 765, 779
1040, 778, 774, 764, 765
1041, 721, 731, 722, 724
1042, 731, 801, 902, 800
1043, 798, 731, 802, 732
1044, 809, 901, 902, 1160
1045, 818, 1212, 1226, 1288
1046, 724, 721, 941, 723
1047, 721, 983, 870, 811
1048, 731, 942, 902, 802
1049, 796, 1221, 1220, 1165
1050, 796, 1165, 944, 1221
1051, 844, 1252, 1145, 1085
1052, 961, 1268, 1139, 1270
1053, 961, 1255, 960, 956
1054, 797, 1138, 796, 1220
1055, 1000, 555, 531, 556
1056, 1255, 1145, 961, 960
1057, 1145, 960, 1255, 1253
1058, 844, 1256, 1254, 1253
1059, 738, 953, 1326, 1219
1060, 709, 1273, 737, 1274
1061, 961, 1145, 1252, 1085
1062, 781, 788, 843, 1419
1063, 909, 914, 824, 913
1064, 781, 835, 999, 996
1065, 787, 999, 876, 996
1066, 1427, 1428, 1429, 1430
1067, 787, 1038, 876, 874
1068, 787, 999, 785, 910
1069, 910, 876, 911, 787
1070, 1062, 910, 876, 911
1071, 740, 1145, 738, 953
1072, 900, 867, 940, 1201
1073, 932, 893, 926, 892
1074, 740, 791, 792, 1079
1075, 792, 1079, 1137, 954
1076, 793, 792, 797, 791
1077, 1130, 1382, 1316, 1317
1078, 87, 17, 1431, 139
1079, 714, 711, 1359, 737
1080, 1137, 789, 1364, 1291
1081, 712, 711, 1359, 714
1082, 1310, 789, 1080, 1363
1083, 789, 1142, 1141, 790
1084, 1310, 1199, 789, 1311
1085, 1125, 1132, 1128, 1218
1086, 1050, 1036, 1115, 1340
1087, 1044, 733, 776, 1050
1088, 1115, 1336, 804, 779
1089, 778, 799, 775, 1069
1090, 734, 735, 1035, 730
1091, 1115, 1136, 804, 1336
1092, 1052, 1088, 1218, 1062
1093, 734, 978, 811, 979
1094, 735, 733, 1036, 1115
1095, 1208, 1007, 852, 327
1096, 897, 1009, 1432, 1433
1097, 1209, 1433, 325, 350
1098, 1009, 1209, 1433, 897
1099, 852, 1209, 1007, 897
1100, 852, 327, 1209, 326
1101, 1209, 1008, 1009, 351
1102, 1045, 361, 964, 1434
1103, 952, 960, 959, 957
1104, 1045, 964, 979, 1434
1105, 1435, 933, 1281, 1244
1106, 811, 1045, 979, 1048
1107, 811, 983, 870, 1044
1108, 837, 1271, 747, 1089
1109, 837, 747, 1271, 1081
1110, 1101, 836, 993, 880
1111, 1101, 1102, 1081, 1271
1112, 1102, 858, 1436, 1101
1113, 1101, 837, 836, 1089
1114, 837, 1349, 747, 1081
1115, 838, 837, 990, 751
1116, 990, 751, 837, 1349
1117, 1075, 1074, 756, 744
1118, 1074, 1078, 755, 744
1119, 743, 755, 753, 744
1120, 752, 1089, 838, 751
1121, 755, 1437, 753, 1438
1122, 755, 1439, 1437, 1440
1123, 755, 1295, 1439, 1076
1124, 743, 752, 753, 755
1125, 1244, 291, 1441, 266
1126, 1273, 1360, 1384, 1361
1127, 998, 568, 994, 880
1128, 1274, 1391, 1390, 737
1129, 1110, 660, 658, 655
1130, 1273, 1361, 1384, 1442
1131, 1273, 1361, 1443, 1086
1132, 1273, 1274, 1272, 1390
1133, 810, 723, 1118, 730
1134, 812, 969, 1278, 810
1135, 812, 1266, 1278, 969
1136, 968, 1118, 730, 973
1137, 812, 723, 1064, 969
1138, 722, 734, 811, 723
1139, 968, 734, 723, 980
1140, 694, 1298, 1444, 53
1141, 1297, 1298, 1444, 694
1142, 636, 635, 1444, 631
1143, 637, 631, 636, 992
1144, 1297, 988, 1296, 1445
1145, 1297, 992, 988, 1445
1146, 697, 1298, 638, 694
1147, 1298, 638, 694, 1297
1148, 1297, 639, 1445, 638
1149, 1297, 1445, 639, 637
1150, 1120, 816, 1226, 1151
1151, 1120, 1121, 974, 977
1152, 755, 752, 753, 1072
1153, 752, 1072, 1091, 753
1154, 1091, 1073, 1212, 977
1155, 1120, 1226, 977, 976
1156, 750, 816, 752, 756
1157, 1073, 818, 1212, 1226
1158, 820, 819, 1446, 992
1159, 1030, 445, 469, 444
1160, 751, 743, 747, 748
1161, 754, 1074, 1144, 1077
1162, 1120, 1077, 754, 1097
1163, 752, 1091, 1089, 753
1164, 1299, 1327, 1400, 989
1165, 1300, 719, 574, 1043
1166, 1244, 1435, 291, 292
1167, 1043, 1302, 1301, 573
1168, 1339, 990, 989, 1299
1169, 783, 905, 841, 991
1170, 1043, 1299, 783, 1304
1171, 599, 1300, 758, 719
1172, 784, 786, 1038, 787
1173, 991, 1305, 719, 1299
1174, 824, 831, 1132, 1128
1175, 1034, 805, 1136, 1088
1176, 832, 1132, 824, 831
1177, 805, 1184, 1016, 1063
1178, 1128, 824, 910, 1132
1179, 822, 824, 1061, 914
1180, 1132, 910, 1128, 1218
1181, 1258, 1156, 947, 1190
1182, 1078, 755, 1076, 1074
1183, 1447, 111, 97, 81
1184, 1111, 660, 659, 658
1185, 1075, 1111, 674, 744
1186, 987, 1154, 757, 991
1187, 1154, 1448, 819, 987
1188, 988, 1400, 1399, 989
1189, 987, 757, 989, 991
1190, 987, 1448, 819, 992
1191, 988, 757, 1444, 1298
1192, 988, 757, 992, 1444
1193, 988, 1298, 1400, 989
1194, 835, 997, 999, 996
1195, 1003, 999, 1402, 1108
1196, 999, 1108, 910, 876
1197, 1243, 1244, 242, 243
1198, 879, 1003, 1005, 882
1199, 1101, 858, 836, 880
1200, 879, 998, 880, 858
1201, 884, 993, 836, 880
1202, 1024, 118, 90, 104
1203, 1101, 837, 1081, 993
1204, 1032, 1065, 316, 341
1205, 1441, 314, 290, 315
1206, 857, 882, 859, 1005
1207, 834, 907, 785, 1092
1208, 1111, 662, 744, 1112
1209, 1075, 1150, 688, 1387
1210, 1075, 744, 674, 1078
1211, 676, 1387, 673, 1075
1212, 1110, 1111, 658, 660
1213, 1113, 1106, 1387, 656
1214, 745, 746, 1111, 1106
1215, 1075, 1111, 746, 1387
1216, 1113, 656, 1387, 659
1217, 674, 662, 744, 1111
1218, 717, 741, 1170, 1191
1219, 1168, 1171, 1170, 1370
1220, 1168, 1170, 1371, 1370
1221, 714, 717, 716, 713
1222, 1157, 1245, 936, 1250
1223, 1170, 1171, 1362, 1370
1224, 1427, 1449, 1450, 1451
1225, 1427, 1452, 1450, 1449
1226, 1427, 105, 1449, 1430
1227, 1427, 1429, 1360, 1453
1228, 1427, 1254, 1429, 1428
1229, 783, 1299, 1305, 991
1230, 781, 833, 785, 835
1231, 781, 996, 787, 1419
1232, 843, 788, 1454, 1455
1233, 1059, 1061, 1015, 1088
1234, 874, 1063, 1016, 1355
1235, 1355, 874, 1060, 1016
1236, 918, 805, 1052, 1063
1237, 1456, 1063, 877, 874
1238, 1244, 1243, 242, 241
1239, 1217, 918, 1063, 877
1240, 1457, 1458, 612, 1437
1241, 1457, 1072, 1458, 1437
1242, 1457, 1459, 1436, 1417
1243, 1457, 1380, 563, 562
1244, 1417, 1458, 1380, 1457
1245, 1380, 1417, 1460, 1458
1246, 1457, 1380, 562, 1458
1247, 1082, 1084, 1461, 593
1248, 1462, 1216, 1114, 747
1249, 837, 747, 751, 1089
1250, 1451, 169, 144, 145
1251, 618, 1463, 1084, 1461
1252, 1271, 749, 1462, 747
1253, 747, 749, 751, 1089
1254, 1464, 828, 823, 825
1255, 823, 825, 826, 1464
1256, 828, 431, 1159, 825
1257, 823, 1464, 455, 828
1258, 828, 431, 825, 456
1259, 821, 829, 828, 823
1260, 821, 825, 828, 827
1261, 1031, 1027, 1281, 943
1262, 1278, 1027, 1033, 812
1263, 810, 1118, 1278, 728
1264, 972, 980, 1264, 965
1265, 1461, 1084, 618, 593
1266, 1064, 980, 967, 965
1267, 1064, 1065, 969, 1265
1268, 812, 1065, 1064, 1031
1269, 939, 940, 982, 1201
1270, 973, 1215, 1177, 1055
1271, 1176, 1465, 414, 439
1272, 1179, 442, 1260, 1194
1273, 1179, 1119, 440, 441
1274, 1051, 808, 1260, 1118
1275, 1176, 414, 1215, 1177
1276, 1051, 1179, 1119, 1176
1277, 907, 842, 1212, 1092
1278, 909, 1284, 906, 1286
1279, 907, 1212, 842, 905
1280, 838, 817, 842, 818
1281, 838, 818, 842, 1212
1282, 833, 834, 907, 785
1283, 783, 841, 843, 1304
1284, 781, 787, 996, 999
1285, 907, 1092, 1212, 1284
1286, 842, 817, 841, 905
1287, 1231, 925, 922, 728
1288, 916, 922, 921, 925
1289, 923, 921, 418, 925
1290, 916, 917, 921, 920
1291, 921, 1070, 922, 920
1292, 921, 925, 1466, 418
1293, 1231, 394, 921, 1466
1294, 1467, 1461, 616, 1271
1295, 1070, 921, 1231, 395
1296, 1356, 474, 1468, 1355
1297, 475, 1356, 474, 1468
1298, 1356, 451, 1469, 1014
1299, 1016, 1356, 1060, 1355
1300, 1356, 1355, 449, 474
1301, 1469, 1182, 424, 1356
1302, 777, 774, 773, 764
1303, 773, 777, 764, 776
1304, 1461, 1463, 1271, 1467
1305, 809, 1160, 934, 940
1306, 935, 871, 873, 943
1307, 1234, 1401, 408, 1352
1308, 980, 721, 1064, 967
1309, 812, 969, 1065, 1266
1310, 934, 1160, 943, 1157
1311, 934, 941, 871, 943
1312, 981, 939, 800, 777
1313, 1045, 864, 1047, 983
1314, 864, 862, 868, 870
1315, 873, 869, 870, 862
1316, 868, 941, 871, 940
1317, 981, 983, 777, 776
1318, 900, 901, 1201, 940
1319, 1159, 828, 827, 430
1320, 900, 1197, 986, 896
1321, 896, 851, 852, 897
1322, 939, 1201, 901, 940
1323, 152, 5, 83, 4
1324, 809, 901, 1160, 940
1325, 901, 902, 1160, 899
1326, 1034, 1115, 1036, 1340
1327, 1058, 1470, 1229, 1412
1328, 1058, 1407, 1056, 1347
1329, 1129, 1343, 1426, 1382
1330, 1124, 1229, 1058, 1470
1331, 1058, 1347, 1056, 1123
1332, 1049, 1401, 1127, 1046
1333, 1017, 1336, 1335, 765
1334, 806, 732, 1067, 1233
1335, 1133, 1013, 1182, 1185
1336, 1161, 1352, 1159, 382
1337, 722, 732, 729, 728
1338, 1274, 845, 706, 1275
1339, 706, 1276, 1471, 1472
1340, 1273, 1086, 1443, 1473
1341, 1159, 1352, 407, 382
1342, 706, 1276, 707, 1471
1343, 1135, 1336, 1340, 1158
1344, 706, 1273, 1473, 1086
1345, 1390, 1273, 737, 1360
1346, 1021, 1319, 1378, 1381
1347, 1021, 1378, 1474, 510
1348, 1018, 509, 1021, 534
1349, 1018, 1021, 1020, 1023
1350, 1018, 509, 1019, 1021
1351, 1021, 1020, 1023, 1381
1352, 1018, 1020, 1019, 1026
1353, 1019, 1378, 1021, 510
1354, 1234, 1475, 825, 432
1355, 764, 779, 765, 767
1356, 1330, 310, 309, 285
1357, 1476, 310, 309, 1330
1358, 873, 878, 962, 862
1359, 862, 863, 869, 864
1360, 869, 863, 963, 864
1361, 863, 310, 963, 1476
1362, 1168, 1169, 1146, 1173
1363, 959, 960, 953, 1326
1364, 740, 1079, 953, 741
1365, 1145, 1326, 953, 960
1366, 1169, 1477, 1285, 1363
1367, 1168, 953, 715, 1172
1368, 1148, 1326, 1219, 839
1369, 953, 1326, 1219, 1148
1370, 959, 1147, 954, 957
1371, 1146, 954, 1147, 1365
1372, 709, 1274, 706, 1273
1373, 1427, 1453, 1360, 1359
1374, 737, 1254, 1391, 1360
1375, 1360, 1478, 1384, 1155
1376, 1234, 1343, 433, 434
1377, 1124, 1343, 1131, 1229
1378, 1125, 1128, 1124, 1129
1379, 1131, 1475, 1234, 1343
1380, 808, 807, 805, 918
1381, 1034, 832, 1132, 1088
1382, 1124, 1347, 1058, 1123
1383, 1124, 1229, 1470, 1343
1384, 821, 832, 830, 824
1385, 130, 27, 101, 93
1386, 945, 1376, 904, 899
1387, 904, 902, 1376, 1479
1388, 896, 903, 904, 899
1389, 904, 1480, 1481, 1482
1390, 1481, 851, 1480, 904
1391, 1180, 448, 1355, 473
1392, 785, 912, 1318, 1092
1393, 1234, 1159, 825, 1230
1394, 833, 834, 785, 835
1395, 824, 913, 914, 822
1396, 1091, 1073, 818, 1212
1397, 834, 836, 881, 835
1398, 833, 834, 838, 842
1399, 1379, 1091, 1283, 977
1400, 834, 842, 907, 1092
1401, 1234, 1401, 1470, 434
1402, 1351, 1393, 1382, 1020
1403, 909, 786, 785, 910
1404, 832, 1230, 1131, 825
1405, 824, 1128, 1393, 831
1406, 909, 907, 786, 906
1407, 909, 910, 785, 912
1408, 1431, 86, 17, 87
1409, 912, 1020, 1022, 1393
1410, 912, 1020, 1284, 1022
1411, 735, 1036, 1034, 1115
1412, 834, 785, 860, 1318
1413, 884, 998, 997, 994
1414, 998, 997, 543, 1004
1415, 1003, 763, 999, 997
1416, 879, 998, 1005, 1004
1417, 879, 881, 1108, 882
1418, 1005, 541, 542, 1100
1419, 1100, 1005, 998, 542
1420, 884, 994, 1002, 995
1421, 544, 1002, 1423, 997
1422, 999, 996, 997, 763
1423, 781, 996, 843, 835
1424, 1003, 1108, 879, 999
1425, 997, 1002, 1423, 996
1426, 997, 544, 994, 543
1427, 997, 763, 518, 1004
1428, 756, 816, 1097, 814
1429, 1074, 756, 744, 755
1430, 743, 751, 749, 753
1431, 1058, 978, 1407, 1412
1432, 1078, 1216, 753, 744
1433, 755, 1078, 1076, 1440
1434, 744, 1112, 662, 1216
1435, 943, 871, 873, 941
1436, 731, 802, 732, 942
1437, 902, 1479, 802, 942
1438, 904, 1479, 1483, 1481
1439, 809, 902, 731, 942
1440, 784, 1303, 1388, 1418
1441, 1388, 1418, 550, 575
1442, 577, 1389, 576, 883
1443, 1484, 857, 515, 1403
1444, 782, 908, 1389, 915
1445, 782, 1389, 1388, 1039
1446, 1305, 1389, 576, 1388
1447, 1388, 1418, 575, 1305
1448, 782, 784, 1039, 1388
1449, 1113, 660, 653, 657
1450, 887, 893, 894, 886
1451, 934, 899, 940, 1160
1452, 1005, 882, 1403, 857
1453, 1163, 900, 867, 866
1454, 885, 888, 933, 889
1455, 862, 873, 878, 872
1456, 866, 868, 871, 940
1457, 871, 935, 889, 933
1458, 886, 889, 885, 871
1459, 941, 943, 967, 873
1460, 802, 942, 1233, 732
1461, 1233, 802, 1068, 942
1462, 809, 943, 1160, 942
1463, 731, 802, 902, 801
1464, 806, 920, 807, 922
1465, 1006, 802, 1067, 732
1466, 799, 1009, 1069, 1134
1467, 764, 1485, 772, 773
1468, 802, 1068, 1486, 1134
1469, 803, 1133, 1016, 1184
1470, 1006, 799, 1134, 802
1471, 793, 742, 796, 927
1472, 709, 846, 708, 845
1473, 847, 1221, 1248, 1262
1474, 1274, 1275, 1263, 845
1475, 1274, 1263, 1275, 1071
1476, 847, 742, 846, 938
1477, 847, 1263, 846, 1391
1478, 1403, 1193, 491, 466
1479, 1487, 1391, 1390, 1274
1480, 739, 848, 741, 718
1481, 785, 1092, 1284, 912
1482, 1092, 1020, 1284, 912
1483, 1317, 1318, 860, 785
1484, 1132, 1218, 1062, 910
1485, 1125, 1128, 1132, 831
1486, 913, 823, 822, 824
1487, 1017, 1335, 1135, 830
1488, 832, 1135, 827, 821
1489, 1135, 1158, 827, 1488
1490, 821, 829, 830, 1306
1491, 714, 713, 1086, 707
1492, 717, 1258, 1191, 1190
1493, 1005, 515, 1403, 516
1494, 718, 887, 1257, 1276
1495, 708, 1276, 706, 845
1496, 1117, 556, 555, 1000
1497, 739, 848, 740, 741
1498, 854, 853, 1143, 855
1499, 1483, 297, 322, 321
1500, 849, 852, 302, 850
1501, 793, 1259, 1143, 927
1502, 854, 855, 1143, 790
1503, 1259, 1174, 1138, 1329
1504, 1174, 903, 861, 1259
1505, 1187, 1174, 903, 861
1506, 796, 1259, 927, 903
1507, 1259, 855, 1174, 1329
1508, 1259, 1174, 855, 861
1509, 1074, 1150, 756, 1144
1510, 1077, 680, 1098, 679
1511, 1077, 1097, 1095, 1098
1512, 1077, 1489, 1295, 1076
1513, 1074, 672, 1077, 1076
1514, 1077, 1489, 1076, 679
1515, 1077, 754, 1097, 1144
1516, 1005, 1403, 1004, 516
1517, 1133, 920, 806, 1181
1518, 1059, 1088, 1062, 911
1519, 1059, 1015, 1061, 1060
1520, 1356, 1469, 425, 424
1521, 1016, 1356, 1014, 1060
1522, 1356, 1468, 451, 1014
1523, 450, 1356, 475, 451
1524, 1016, 1182, 1355, 1184
1525, 1060, 1468, 1014, 1308
1526, 1060, 1061, 1468, 1308
1527, 1490, 65, 64, 702
1528, 755, 1438, 1490, 1440
1529, 1490, 1078, 664, 666
1530, 665, 1491, 64, 1490
1531, 1490, 1078, 666, 1216
1532, 1490, 1078, 1216, 753
1533, 1037, 914, 915, 1309
1534, 1039, 1206, 1309, 526
1535, 1388, 550, 1418, 1303
1536, 879, 998, 1004, 997
1537, 1039, 1206, 526, 1303
1538, 782, 1039, 915, 1389
1539, 642, 3, 1313, 656
1540, 837, 1349, 993, 841
1541, 743, 750, 756, 746
1542, 1112, 658, 1111, 662
1543, 990, 1315, 747, 1349
1544, 990, 1349, 747, 751
1545, 838, 842, 817, 841
1546, 750, 752, 818, 838
1547, 1395, 1379, 975, 1072
1548, 750, 751, 990, 748
1549, 1403, 1003, 1004, 1193
1550, 1033, 367, 1166, 1266
1551, 1135, 830, 1335, 1306
1552, 942, 1278, 1233, 810
1553, 812, 1033, 1278, 1266
1554, 894, 947, 761, 946
1555, 892, 848, 1258, 1087
1556, 866, 900, 867, 940
1557, 887, 1258, 1257, 1156
1558, 886, 888, 889, 1358
1559, 886, 949, 1156, 1331
1560, 1143, 926, 791, 927
1561, 708, 1358, 845, 888
1562, 894, 949, 761, 947
1563, 1003, 1005, 1403, 1004
1564, 1100, 1102, 1104, 565
1565, 1101, 1102, 1492, 1436
1566, 858, 540, 1104, 857
1567, 879, 881, 836, 835
1568, 833, 834, 842, 907
1569, 1104, 858, 1436, 1102
1570, 1403, 882, 1003, 1109
1571, 1015, 1014, 1338, 1061
1572, 1128, 1218, 910, 1317
1573, 832, 1158, 1135, 1340
1574, 832, 1132, 831, 1131
1575, 1218, 910, 1317, 1108
1576, 1123, 1130, 1196, 1125
1577, 1317, 1196, 1125, 1218
1578, 402, 403, 924, 1493
1579, 1283, 976, 1226, 931
1580, 1283, 1226, 976, 977
1581, 1283, 1284, 1023, 929
1582, 1318, 1023, 1020, 1381
1583, 1379, 1494, 1283, 1023
1584, 1494, 931, 1283, 1023
1585, 1070, 1066, 397, 1210
1586, 887, 1276, 1358, 1257
1587, 1243, 1263, 845, 938
1588, 925, 1466, 1260, 1495
1589, 885, 933, 888, 936
1590, 793, 1259, 796, 794
1591, 740, 797, 792, 791
1592, 847, 1221, 938, 1248
1593, 944, 742, 796, 1221
1594, 729, 806, 922, 728
1595, 1125, 1317, 1128, 1130
1596, 1017, 765, 1337, 1011
1597, 1115, 1336, 1340, 1136
1598, 1469, 1016, 1182, 1356
1599, 1058, 734, 978, 1036
1600, 736, 774, 764, 778
1601, 1006, 1066, 806, 1067
1602, 1011, 1182, 424, 1469
1603, 1182, 1185, 424, 423
1604, 1011, 1469, 1016, 1182
1605, 1356, 1469, 450, 425
1606, 1356, 1355, 1182, 449
1607, 808, 922, 925, 728
1608, 1009, 376, 375, 351
1609, 1469, 1011, 1337, 426
1610, 153, 1, 4, 95
1611, 757, 624, 1444, 1298
1612, 757, 625, 1444, 624
1613, 757, 720, 1448, 1444
1614, 1444, 720, 625, 757
1615, 626, 1444, 720, 625
1616, 844, 737, 1254, 847
1617, 1496, 150, 149, 7
1618, 1497, 173, 148, 149
1619, 1469, 1337, 451, 426
1620, 954, 740, 952, 792
1621, 1267, 176, 200, 175
1622, 1498, 135, 134, 90
1623, 1085, 1251, 1252, 1220
1624, 1170, 1191, 741, 1169
1625, 98, 84, 1430, 14
1626, 717, 1499, 1257, 1190
1627, 132, 91, 24, 25
1628, 1069, 778, 1006, 1011
1629, 1441, 289, 264, 265
1630, 717, 715, 716, 1362
1631, 1168, 1370, 1371, 1173
1632, 570, 595, 1312, 1083
1633, 1359, 1453, 1155, 1415
1634, 795, 1188, 1191, 184
1635, 1500, 180, 204, 179
1636, 151, 5, 6, 96
1637, 717, 1362, 1501, 1227
1638, 795, 1247, 1191, 1188
1639, 892, 947, 946, 1247
1640, 793, 791, 742, 927
1641, 1143, 927, 900, 926
1642, 708, 848, 718, 887
1643, 708, 938, 742, 932
1644, 140, 86, 1431, 141
1645, 708, 707, 706, 1276
1646, 789, 1141, 791, 790
1647, 928, 791, 927, 742
1648, 927, 899, 944, 903
1649, 1472, 1277, 1473, 706
1650, 1434, 386, 361, 362
1651, 740, 797, 742, 1085
1652, 1276, 1502, 1257, 1503
1653, 1276, 707, 1471, 1503
1654, 277, 890, 278, 253
1655, 457, 456, 481, 1464
1656, 1455, 1454, 1312, 1424
1657, 1227, 184, 183, 159
1658, 1276, 1472, 1358, 1502
1659, 729, 803, 806, 1006
1660, 1051, 808, 1118, 730
1661, 322, 1483, 1482, 297
1662, 468, 1194, 1192, 443
1663, 1055, 1213, 1057, 1056
1664, 729, 807, 808, 922
1665, 1504, 523, 548, 547
1666, 1036, 1058, 1229, 1049
1667, 1035, 1055, 1052, 1057
1668, 424, 1011, 400, 1013
1669, 1102, 1103, 591, 566
1670, 1371, 156, 1505, 1506
1671, 1335, 452, 1338, 427
1672, 1180, 1456, 472, 473
1673, 734, 979, 811, 980
1674, 808, 728, 925, 1118
1675, 774, 778, 775, 765
1676, 773, 1507, 37, 771
1677, 1133, 807, 920, 1184
1678, 810, 728, 730, 1118
1679, 832, 1088, 824, 1132
1680, 924, 775, 765, 772
1681, 1217, 1192, 877, 1402
1682, 1193, 466, 1194, 467
1683, 1508, 923, 444, 443
1684, 1194, 1193, 1107, 1192
1685, 763, 494, 518, 493
1686, 1425, 546, 521, 522
1687, 1185, 423, 399, 424
1688, 1279, 318, 342, 317
1689, 1508, 1402, 1192, 1107
1690, 1126, 726, 358, 357
1691, 923, 443, 1508, 1192
1692, 1442, 166, 1385, 191
1693, 1509, 488, 512, 487
1694, 1510, 1375, 296, 295
1695, 1237, 1511, 914, 1309
1696, 1192, 1194, 468, 1107
1697, 483, 1289, 1475, 482
1698, 493, 1346, 468, 1107
1699, 513, 488, 512, 1509
1700, 1346, 468, 1107, 1508
1701, 844, 847, 1251, 1085
1702, 1426, 486, 485, 461
1703, 713, 1345, 710, 1342
1704, 1004, 542, 518, 543
1705, 711, 710, 712, 1359
1706, 713, 1348, 716, 1345
1707, 1440, 668, 669, 693
1708, 1028, 320, 345, 344
1709, 1435, 292, 316, 291
1710, 993, 1082, 1083, 1081
1711, 923, 1512, 419, 921
1712, 843, 841, 993, 995
1713, 834, 836, 837, 1089
1714, 847, 1085, 1221, 1251
1715, 1513, 360, 1046, 384
1716, 952, 961, 1145, 960
1717, 960, 1326, 1398, 1253
1718, 1403, 491, 516, 515
1719, 960, 1255, 1398, 1514
1720, 960, 956, 1255, 1514
1721, 960, 1326, 1369, 1398
1722, 1205, 524, 499, 500
1723, 952, 960, 957, 956
1724, 1484, 514, 513, 489
1725, 959, 957, 960, 1369
1726, 1029, 1027, 1033, 1278
1727, 802, 732, 1233, 1067
1728, 1182, 449, 448, 424
1729, 798, 801, 731, 800
1730, 723, 980, 1064, 969
1731, 1030, 445, 470, 469
1732, 964, 963, 335, 1045
1733, 582, 1515, 931, 581
1734, 1516, 464, 439, 440
1735, 1278, 1027, 942, 1029
1736, 1517, 462, 1518, 487
1737, 1153, 819, 814, 815
1738, 1225, 1153, 687, 1519
1739, 1225, 1223, 2, 77
1740, 1225, 48, 1012, 1224
1741, 3, 74, 1387, 688
1742, 48, 604, 1224, 1225
1743, 2, 48, 1223, 1225
1744, 833, 843, 841, 993
1745, 641, 656, 1106, 657
1746, 1271, 590, 591, 615
1747, 1520, 384, 1412, 409
1748, 1439, 67, 610, 611
1749, 1463, 60, 617, 618
1750, 1072, 754, 755, 752
1751, 1316, 1474, 1321, 1319
1752, 818, 1288, 817, 1212
1753, 1489, 1439, 703, 67
1754, 843, 788, 1455, 1419
1755, 1461, 1467, 617, 1463
1756, 747, 1463, 1114, 1467
1757, 488, 1518, 1509, 1484
1758, 750, 820, 814, 746
1759, 1308, 477, 501, 476
1760, 1475, 1464, 457, 482
1761, 1462, 61, 62, 616
1762, 754, 1121, 1073, 1072
1763, 1521, 148, 147, 9
1764, 1522, 119, 79, 111
1765, 1050, 1161, 1126, 1127
1766, 721, 723, 980, 1064
1767, 981, 939, 1201, 901
1768, 1044, 776, 726, 1127
1769, 1048, 1044, 1045, 1046
1770, 733, 780, 1050, 779
1771, 939, 777, 731, 800
1772, 1135, 1336, 1488, 1335
1773, 1131, 1230, 1340, 1229
1774, 779, 733, 764, 736
1775, 1451, 170, 145, 146
1776, 1035, 808, 1051, 730
1777, 733, 1050, 1036, 1115
1778, 1034, 1115, 1340, 1136
1779, 1034, 1131, 1340, 1229
1780, 973, 1055, 1118, 730
1781, 1223, 1222, 819, 1448
1782, 1523, 148, 8, 149
1783, 1154, 1223, 1524, 1012
1784, 1012, 1154, 720, 1524
1785, 1223, 1222, 630, 77
1786, 1223, 1012, 628, 1524
1787, 1223, 48, 49, 628
1788, 1525, 116, 1526, 126
1789, 1523, 78, 8, 79
1790, 2, 48, 49, 1223
1791, 1223, 629, 1524, 49
1792, 820, 745, 1106, 746
1793, 987, 989, 988, 748
1794, 1496, 8, 7, 149
1795, 988, 1323, 1445, 1105
1796, 988, 1339, 1323, 1105
1797, 745, 1105, 1314, 1315
1798, 988, 748, 1105, 1445
1799, 744, 1078, 662, 674
1800, 593, 1082, 568, 592
1801, 1522, 1447, 97, 1521
1802, 1066, 1013, 1185, 399
1803, 990, 748, 747, 1315
1804, 1527, 103, 94, 102
1805, 1463, 747, 1084, 1461
1806, 744, 1075, 746, 756
1807, 1110, 1113, 1111, 660
1808, 145, 1451, 1449, 144
1809, 1112, 662, 1216, 663
1810, 143, 1383, 1478, 142
1811, 654, 1112, 1110, 1114
1812, 1112, 663, 1114, 654
1813, 1301, 524, 1528, 1303
1814, 1529, 166, 165, 141
1815, 1301, 524, 1303, 549
1816, 1514, 124, 107, 119
1817, 902, 801, 802, 1479
1818, 904, 1481, 851, 897
1819, 1217, 1108, 1192, 1402
1820, 1452, 111, 105, 128
1821, 724, 942, 809, 731
1822, 1219, 1326, 1530, 839
1823, 1446, 640, 642, 643
1824, 894, 951, 950, 761
1825, 1219, 1530, 1326, 1253
1826, 139, 17, 18, 87
1827, 1219, 1148, 1172, 953
1828, 839, 121, 120, 115
1829, 738, 1145, 1253, 1326
1830, 797, 961, 1220, 1085
1831, 1292, 31, 30, 154
1832, 848, 741, 1258, 1087
1833, 714, 715, 717, 718
1834, 1421, 172, 1269, 197
1835, 1018, 534, 1021, 1023
1836, 909, 912, 824, 910
1837, 1478, 85, 86, 109
1838, 1318, 1092, 912, 1020
1839, 1021, 1020, 1381, 1378
1840, 781, 785, 833, 907
1841, 1416, 128, 105, 117
1842, 15, 1478, 141, 142
1843, 1020, 1393, 1026, 1022
1844, 1018, 1026, 1025, 1022
1845, 1185, 1013, 424, 399
1846, 1318, 1381, 1020, 1378
1847, 838, 1089, 837, 751
1848, 884, 994, 993, 880
1849, 1342, 164, 163, 139
1850, 1023, 1092, 1284, 1283
1851, 1101, 1436, 1089, 1090
1852, 1206, 1303, 525, 526
1853, 939, 941, 721, 868
1854, 1531, 1529, 1443, 165
1855, 139, 18, 1341, 87
1856, 1109, 1195, 1193, 1403
1857, 1017, 804, 1136, 1336
1858, 1015, 830, 1061, 1338
1859, 803, 1017, 1015, 1014
1860, 1017, 830, 1338, 1335
1861, 1525, 122, 116, 125
1862, 1015, 1014, 1017, 1338
1863, 1478, 112, 85, 109
1864, 832, 1158, 1230, 825
1865, 1034, 1058, 1057, 1123
1866, 1155, 116, 122, 109
1867, 84, 1430, 1453, 98
1868, 1431, 109, 86, 87
1869, 733, 736, 779, 1115
1870, 140, 86, 16, 17
1871, 1015, 1136, 1088, 830
1872, 1478, 112, 98, 85
1873, 1017, 1135, 1336, 1136
1874, 717, 1499, 1532, 1373
1875, 1430, 82, 13, 84
1876, 1158, 1135, 827, 832
1877, 1026, 1289, 482, 507
1878, 1026, 1289, 483, 482
1879, 1382, 1019, 1020, 1026
1880, 15, 141, 1478, 16
1881, 1361, 1342, 1431, 1529
1882, 1227, 160, 185, 184
1883, 1026, 1289, 507, 1025
1884, 1026, 1393, 1475, 1289
1885, 1018, 1023, 1022, 1025
1886, 1431, 109, 87, 106
1887, 1018, 1026, 1019, 509
1888, 1341, 99, 106, 87
1889, 1223, 1533, 629, 632
1890, 1534, 160, 135, 136
1891, 992, 640, 691, 1222
1892, 1204, 501, 1308, 502
1893, 1222, 1448, 632, 691
1894, 1225, 1223, 1153, 1012
1895, 1222, 640, 691, 75
1896, 1222, 76, 1152, 75
1897, 1222, 77, 1153, 76
1898, 402, 1493, 924, 401
1899, 134, 23, 100, 90
1900, 153, 152, 1406, 1405
1901, 1242, 244, 219, 220
1902, 1173, 1505, 1535, 1506
1903, 1493, 1335, 428, 766
1904, 765, 924, 766, 1493
1905, 1493, 765, 1335, 766
1906, 1493, 427, 1335, 1337
1907, 1455, 884, 996, 1002
1908, 1082, 993, 994, 880
1909, 997, 1002, 994, 544
1910, 570, 1002, 569, 1083
1911, 130, 129, 101, 27
1912, 1312, 1083, 1002, 570
1913, 1084, 594, 1082, 1083
1914, 821, 1306, 827, 829
1915, 994, 544, 1002, 569
1916, 1237, 1308, 503, 502
1917, 813, 92, 93, 110
1918, 1505, 180, 155, 156
1919, 1536, 92, 110, 91
1920, 657, 1106, 1445, 649
1921, 1372, 134, 1498, 159
1922, 1368, 102, 120, 103
1923, 1537, 174, 149, 150
1924, 88, 1538, 20, 1341
1925, 1397, 1369, 1539, 108
1926, 1405, 108, 102, 83
1927, 824, 1132, 911, 910
1928, 1341, 18, 138, 19
1929, 131, 25, 26, 92
1930, 29, 94, 28, 1
1931, 130, 26, 27, 93
1932, 1341, 1538, 20, 137
1933, 840, 114, 110, 103
1934, 1341, 1344, 106, 88
1935, 1369, 102, 115, 120
1936, 1538, 1341, 1332, 137
1937, 881, 910, 1108, 1317
1938, 909, 911, 824, 914
1939, 821, 826, 825, 831
1940, 813, 131, 130, 93
1941, 1540, 114, 104, 110
1942, 1217, 910, 1218, 1108
1943, 912, 913, 1393, 1022
1944, 912, 1022, 1284, 913
1945, 1037, 1039, 1038, 1206
1946, 1405, 102, 95, 83
1947, 909, 1284, 1286, 913
1948, 94, 1527, 129, 101
1949, 1410, 175, 150, 151
1950, 997, 996, 519, 763
1951, 1527, 101, 94, 103
1952, 1527, 94, 95, 102
1953, 120, 1148, 103, 840
1954, 990, 1339, 1315, 1349
1955, 29, 95, 94, 1
1956, 783, 1299, 841, 1304
1957, 833, 835, 843, 993
1958, 785, 1317, 1351, 910
1959, 750, 1154, 987, 817
1960, 837, 993, 1349, 1081
1961, 1496, 80, 6, 7
1962, 781, 782, 786, 907
1963, 153, 4, 83, 95
1964, 1369, 102, 108, 115
1965, 822, 914, 1237, 1236
1966, 834, 1320, 1090, 1089
1967, 1397, 108, 107, 115
1968, 969, 1264, 971, 968
1969, 812, 941, 1064, 723
1970, 972, 980, 968, 1264
1971, 1264, 972, 338, 363
1972, 1264, 971, 365, 1266
1973, 1264, 1064, 969, 1265
1974, 107, 124, 1514, 1397
1975, 1404, 1140, 955, 177
1976, 1264, 1266, 365, 1065
1977, 734, 1036, 733, 811
1978, 1521, 10, 79, 9
1979, 1521, 97, 79, 10
1980, 981, 986, 901, 1201
1981, 145, 12, 81, 11
1982, 1478, 16, 85, 15
1983, 896, 904, 851, 897
1984, 1523, 1497, 148, 149
1985, 1452, 1514, 119, 124
1986, 939, 721, 941, 809
1987, 862, 871, 868, 873
1988, 1397, 108, 80, 107
1989, 764, 773, 776, 780
1990, 1332, 162, 137, 138
1991, 764, 766, 765, 772
1992, 606, 1293, 581, 1294
1993, 1532, 161, 185, 160
1994, 1293, 581, 1294, 1515
1995, 1515, 582, 976, 1293
1996, 1341, 19, 88, 99
1997, 1344, 113, 88, 89
1998, 1155, 106, 116, 109
1999, 16, 141, 1478, 86
2000, 1515, 1541, 580, 1294
2001, 1515, 1541, 1117, 580
2002, 1515, 556, 1117, 1116
2003, 1515, 931, 1226, 976
2004, 934, 943, 871, 935
2005, 1281, 943, 936, 935
2006, 1277, 1542, 1472, 240
2007, 1199, 1163, 950, 892
2008, 1543, 1024, 1544, 1534
2009, 708, 1276, 718, 707
2010, 981, 939, 901, 800
2011, 981, 982, 985, 1201
2012, 898, 902, 801, 800
2013, 1175, 249, 248, 224
2014, 900, 901, 940, 899
2015, 900, 901, 986, 1201
2016, 1531, 190, 189, 165
2017, 1197, 900, 986, 1201
2018, 1201, 985, 1545, 1546
2019, 981, 898, 901, 986
2020, 1197, 1202, 986, 1198
2021, 986, 1201, 1547, 1202
2022, 1201, 1163, 867, 1546
2023, 983, 1047, 726, 984
2024, 983, 726, 776, 984
2025, 1353, 727, 726, 332
2026, 548, 1528, 523, 1504
2027, 980, 723, 721, 811
2028, 1496, 1539, 151, 80
2029, 1285, 1477, 1505, 180
2030, 1301, 1302, 548, 573
2031, 152, 96, 83, 5
2032, 1493, 766, 428, 403
2033, 776, 780, 1354, 1126
2034, 358, 1126, 1127, 726
2035, 726, 358, 1513, 1127
2036, 1251, 1420, 1421, 1548
2037, 1431, 1345, 1155, 106
2038, 1449, 82, 105, 81
2039, 250, 1187, 861, 1174
2040, 1237, 1308, 478, 503
2041, 1187, 1174, 250, 249
2042, 1430, 84, 105, 82
2043, 1187, 248, 1164, 249
2044, 273, 248, 1186, 1187
2045, 1482, 1480, 274, 1187
2046, 1482, 1187, 903, 1480
2047, 105, 1430, 1453, 84
2048, 1204, 476, 1308, 501
2049, 1187, 1480, 861, 903
2050, 865, 283, 951, 1330
2051, 862, 865, 951, 878
2052, 310, 878, 1330, 863
2053, 112, 98, 1453, 1478
2054, 1383, 166, 141, 142
2055, 1549, 193, 1487, 1386
2056, 1330, 308, 865, 283
2057, 863, 1330, 1476, 865
2058, 948, 285, 1330, 284
2059, 1539, 96, 108, 83
2060, 1496, 80, 151, 6
2061, 1330, 863, 878, 865
2062, 1330, 308, 1476, 865
2063, 1539, 96, 80, 108
2064, 1244, 1245, 243, 1243
2065, 1244, 1542, 1441, 933
2066, 1530, 115, 127, 121
2067, 1244, 1435, 1441, 291
2068, 1280, 1245, 294, 293
2069, 1142, 253, 33, 890
2070, 1244, 1245, 936, 1281
2071, 1244, 292, 1281, 1435
2072, 266, 1244, 1542, 1441
2073, 1453, 122, 117, 112
2074, 1550, 1373, 1257, 1503
2075, 1550, 1257, 1190, 1156
2076, 1550, 1257, 1156, 1502
2077, 1341, 19, 99, 18
2078, 1341, 99, 88, 106
2079, 1036, 1127, 1401, 1230
2080, 1550, 1156, 237, 1502
2081, 1550, 237, 1156, 236
2082, 1383, 168, 167, 143
2083, 1079, 791, 789, 1080
2084, 1345, 113, 116, 106
2085, 952, 1140, 958, 955
2086, 1137, 958, 227, 794
2087, 1344, 106, 88, 113
2088, 952, 792, 958, 954
2089, 1538, 20, 89, 88
2090, 959, 953, 1146, 1148
2091, 952, 1145, 953, 960
2092, 1079, 1146, 953, 741
2093, 830, 1338, 1335, 1306
2094, 1453, 1427, 1416, 1359
2095, 1506, 156, 131, 132
2096, 1544, 89, 21, 90
2097, 714, 737, 709, 711
2098, 1429, 1360, 1390, 1391
2099, 1109, 1108, 1217, 1218
2100, 1535, 154, 129, 130
2101, 1551, 1220, 1421, 1251
2102, 1220, 1421, 1251, 1252
2103, 1252, 1269, 1220, 1421
2104, 961, 1269, 1252, 1422
2105, 1338, 451, 1014, 1337
2106, 91, 1540, 104, 110
2107, 134, 1498, 90, 100
2108, 1254, 1256, 1252, 1450
2109, 738, 1219, 1326, 1253
2110, 844, 1252, 1254, 1256
2111, 1291, 1364, 228, 32
2112, 739, 715, 718, 741
2113, 854, 1198, 850, 1322
2114, 849, 276, 861, 855
2115, 129, 27, 28, 101
2116, 850, 1322, 303, 278
2117, 849, 855, 277, 276
2118, 1329, 250, 225, 226
2119, 1411, 107, 80, 78
2120, 834, 860, 881, 836
2121, 925, 1466, 418, 1260
2122, 1552, 100, 91, 104
2123, 1284, 913, 1290, 1286
2124, 1284, 1290, 913, 1022
2125, 1528, 1206, 525, 1205
2126, 782, 1039, 786, 915
2127, 906, 905, 908, 1288
2128, 1282, 1553, 1117, 1541
2129, 783, 843, 788, 1304
2130, 753, 1438, 1554, 1491
2131, 1037, 1039, 1309, 915
2132, 1517, 1426, 1129, 461
2133, 1316, 1394, 1130, 1509
2134, 1394, 1130, 1509, 1517
2135, 1484, 1130, 1518, 1509
2136, 1130, 1518, 1509, 1517
2137, 1555, 121, 125, 126
2138, 1536, 1506, 92, 131
2139, 1517, 1556, 1130, 1518
2140, 89, 1543, 113, 118
2141, 1024, 123, 118, 104
2142, 1517, 1394, 1129, 1426
2143, 854, 850, 278, 1322
2144, 1555, 121, 127, 125
2145, 1415, 117, 122, 125
2146, 1394, 1509, 487, 1517
2147, 487, 1394, 512, 1509
2148, 1526, 123, 126, 116
2149, 1333, 187, 162, 163
2150, 1101, 880, 993, 1081
2151, 994, 880, 568, 1082
2152, 784, 787, 1419, 781
2153, 1003, 997, 1004, 763
2154, 1139, 1267, 955, 201
2155, 1548, 197, 221, 196
2156, 124, 115, 1397, 107
2157, 860, 785, 881, 1317
2158, 1101, 1089, 836, 1090
2159, 1530, 127, 1555, 121
2160, 1496, 149, 1523, 8
2161, 1255, 1522, 1514, 1497
2162, 1525, 126, 125, 116
2163, 880, 1081, 1103, 1082
2164, 1400, 597, 1399, 1327
2165, 1498, 160, 159, 135
2166, 1299, 1400, 758, 989
2167, 758, 1300, 599, 1400
2168, 1400, 624, 758, 1298
2169, 1373, 212, 211, 187
2170, 1400, 1399, 597, 622
2171, 1139, 225, 224, 200
2172, 1416, 127, 128, 117
2173, 1268, 175, 199, 174
2174, 988, 1296, 1400, 1298
2175, 1399, 1296, 55, 1400
2176, 146, 11, 97, 10
2177, 1420, 197, 196, 172
2178, 1365, 1147, 1149, 1292
2179, 954, 1365, 1291, 1367
2180, 1365, 1147, 1292, 1367
2181, 954, 1140, 1147, 1367
2182, 1406, 178, 153, 29
2183, 792, 1137, 790, 794
2184, 813, 1527, 101, 130
2185, 1529, 1443, 165, 166
2186, 1535, 155, 130, 131
2187, 790, 791, 792, 793
2188, 724, 810, 1027, 942
2189, 968, 723, 969, 980
2190, 1149, 1368, 1527, 1405
2191, 29, 1527, 129, 94
2192, 755, 1438, 1440, 1437
2193, 763, 1402, 996, 1557
2194, 131, 130, 93, 26
2195, 1404, 177, 176, 152
2196, 1064, 1265, 1031, 1065
2197, 1536, 133, 132, 91
2198, 944, 937, 1248, 945
2199, 132, 25, 131, 92
2200, 1291, 32, 228, 31
2201, 1536, 132, 131, 92
2202, 1482, 904, 903, 945
2203, 945, 1248, 1183, 1374
2204, 1372, 133, 1552, 134
2205, 944, 903, 1186, 1164
2206, 1558, 114, 121, 126
2207, 952, 1145, 740, 953
2208, 133, 23, 24, 100
2209, 792, 796, 1138, 794
2210, 1219, 715, 714, 738
2211, 1362, 1171, 1024, 1370
2212, 1075, 677, 1078, 674
2213, 1024, 1370, 1552, 1362
2214, 1170, 1228, 1370, 1372
2215, 1362, 1370, 1552, 1372
2216, 133, 132, 91, 24
2217, 322, 1479, 1510, 1559
2218, 1479, 1068, 1235, 1486
2219, 1498, 159, 134, 135
2220, 134, 23, 90, 22
2221, 1535, 156, 155, 131
2222, 839, 120, 1369, 115
2223, 1068, 1235, 1560, 1479
2224, 1341, 139, 1342, 138
2225, 1283, 1494, 977, 976
2226, 1558, 123, 114, 126
2227, 134, 133, 100, 23
2228, 1544, 22, 90, 21
2229, 1552, 134, 133, 100
2230, 1544, 118, 89, 90
2231, 904, 801, 1479, 1481
2232, 859, 1509, 1130, 1484
2233, 834, 1092, 1318, 1320
2234, 135, 134, 90, 22
2235, 1538, 89, 20, 21
2236, 882, 859, 1005, 879
2237, 859, 1130, 1316, 1317
2238, 1544, 136, 135, 21
2239, 1544, 1534, 135, 136
2240, 717, 1373, 1257, 1499
2241, 20, 1341, 19, 88
2242, 1334, 161, 136, 137
2243, 1484, 1509, 514, 857
2244, 860, 1316, 859, 1321
2245, 857, 1509, 514, 1321
2246, 1341, 1538, 1344, 88
2247, 1009, 1432, 375, 1134
2248, 1209, 897, 1009, 1008
2249, 755, 1437, 1439, 1295
2250, 1538, 137, 136, 20
2251, 774, 1009, 897, 1008
2252, 1538, 1334, 136, 137
2253, 1282, 1284, 1283, 929
2254, 1478, 15, 85, 98
2255, 1439, 1076, 671, 693
2256, 1439, 1440, 693, 66
2257, 18, 1341, 87, 99
2258, 1342, 164, 139, 140
2259, 1372, 1228, 1371, 157
2260, 1439, 1489, 1295, 67
2261, 1332, 1342, 163, 138
2262, 1291, 31, 179, 32
2263, 1439, 1489, 671, 1076
2264, 755, 1439, 1440, 1076
2265, 713, 1361, 1086, 1342
2266, 1453, 117, 105, 112
2267, 1332, 163, 162, 138
2268, 1561, 188, 163, 164
2269, 1361, 710, 1155, 1342
2270, 860, 1317, 881, 859
2271, 711, 1273, 1361, 1360
2272, 1538, 1344, 1544, 1534
2273, 711, 1360, 710, 1359
2274, 144, 13, 82, 12
2275, 141, 140, 86, 16
2276, 14, 84, 1430, 13
2277, 137, 1341, 19, 20
2278, 1360, 710, 1359, 1155
2279, 1383, 167, 142, 143
2280, 1155, 1342, 1431, 1361
2281, 1476, 310, 334, 309
2282, 1222, 1152, 819, 992
2283, 1223, 1154, 1448, 819
2284, 1443, 190, 165, 166
2285, 1428, 1549, 1386, 168
2286, 1452, 111, 128, 124
2287, 1448, 1223, 1524, 1154
2288, 1223, 1448, 632, 1222
2289, 815, 1012, 1154, 768
2290, 815, 1288, 818, 1226
2291, 143, 14, 142, 98
2292, 1301, 1418, 574, 549
2293, 1487, 219, 218, 194
2294, 1502, 239, 238, 214
2295, 1529, 165, 140, 141
2296, 788, 1419, 1424, 1455
2297, 833, 993, 836, 835
2298, 1540, 1024, 1552, 104
2299, 1449, 105, 111, 81
2300, 145, 144, 82, 12
2301, 1473, 1471, 189, 214
2302, 13, 14, 143, 1430
2303, 1451, 170, 169, 145
2304, 1358, 1472, 1542, 1502
2305, 784, 1388, 1303, 1039
2306, 1043, 1301, 574, 573
2307, 97, 1522, 79, 111
2308, 1497, 174, 1537, 1268
2309, 1538, 1544, 21, 136
2310, 1454, 1300, 1043, 1304
2311, 1304, 1454, 788, 1043
2312, 774, 771, 1507, 773
2313, 752, 751, 753, 1089
2314, 146, 145, 81, 11
2315, 1452, 124, 119, 111
2316, 753, 1437, 1072, 1554
2317, 1398, 124, 128, 127
2318, 755, 1440, 1490, 1078
2319, 147, 10, 146, 97
2320, 1447, 147, 146, 97
2321, 750, 748, 987, 820
2322, 1490, 753, 1491, 1438
2323, 1523, 9, 79, 8
2324, 1149, 30, 29, 129
2325, 1450, 1420, 171, 1562
2326, 904, 902, 1479, 801
2327, 124, 127, 1398, 115
2328, 1111, 1387, 673, 659
2329, 1050, 779, 780, 1336
2330, 777, 981, 773, 800
2331, 1539, 152, 151, 96
2332, 1496, 80, 7, 78
2333, 1291, 1366, 179, 1292
2334, 1404, 176, 151, 152
2335, 205, 230, 206, 1396
2336, 1044, 1050, 776, 1127
2337, 780, 1158, 1162, 1161
2338, 1506, 157, 156, 132
2339, 152, 5, 151, 96
2340, 955, 202, 201, 177
2341, 780, 767, 1485, 1162
2342, 780, 773, 1563, 1485
2343, 1406, 177, 152, 153
2344, 1050, 1336, 780, 1158
2345, 1301, 1528, 1504, 1038
2346, 1504, 1564, 1419, 875
2347, 153, 95, 29, 1
2348, 153, 152, 83, 4
2349, 1419, 1504, 1302, 1425
2350, 840, 813, 1527, 103
2351, 839, 121, 114, 120
2352, 1538, 136, 21, 20
2353, 1477, 179, 154, 155
2354, 1400, 1299, 758, 1300
2355, 1282, 1116, 1283, 1226
2356, 572, 1454, 597, 1300
2357, 1277, 240, 215, 216
2358, 1149, 154, 30, 129
2359, 937, 1241, 938, 1248
2360, 1300, 1302, 573, 572
2361, 1366, 1292, 154, 179
2362, 1535, 155, 154, 130
2363, 1310, 1364, 1565, 1142
2364, 1282, 929, 1116, 1287
2365, 597, 1454, 1327, 1300
2366, 1043, 1454, 788, 1302
2367, 1371, 181, 156, 157
2368, 1566, 759, 231, 232
2369, 1318, 1351, 1020, 912
2370, 1477, 180, 179, 155
2371, 1228, 182, 157, 158
2372, 1369, 108, 1405, 1539
2373, 1301, 1038, 1303, 1528
2374, 1165, 223, 248, 247
2375, 1504, 875, 1038, 1528
2376, 1504, 1528, 498, 875
2377, 1419, 1564, 996, 876
2378, 1037, 1309, 1039, 1206
2379, 1227, 184, 159, 160
2380, 712, 710, 1525, 1359
2381, 1301, 1504, 1302, 1419
2382, 1372, 158, 133, 134
2383, 787, 1038, 1419, 876
2384, 1372, 157, 132, 133
2385, 1540, 104, 114, 123
2386, 1567, 222, 246, 221
2387, 790, 252, 228, 253
2388, 1302, 1425, 1424, 1419
2389, 788, 1424, 1419, 1302
2390, 1204, 1205, 500, 1206
2391, 1037, 1206, 1205, 1204
2392, 1205, 1038, 1528, 1206
2393, 1372, 158, 157, 133
2394, 130, 1527, 101, 129
2395, 1205, 1038, 875, 1528
2396, 1205, 1468, 475, 474
2397, 1147, 1367, 1406, 1292
2398, 1372, 159, 158, 134
2399, 1188, 207, 182, 183
2400, 1498, 1552, 100, 134
2401, 1227, 183, 158, 159
2402, 1205, 1528, 524, 525
2403, 1205, 1468, 500, 475
2404, 1205, 1528, 499, 524
2405, 1410, 1411, 1496, 1537
2406, 1534, 1334, 161, 136
2407, 1543, 118, 123, 113
2408, 1538, 1544, 136, 1534
2409, 707, 1561, 1471, 1503
2410, 1534, 161, 160, 136
2411, 875, 1419, 876, 1564
2412, 909, 906, 915, 1286
2413, 843, 1455, 835, 996
2414, 1428, 168, 143, 144
2415, 1526, 116, 113, 123
2416, 1239, 1240, 255, 256
2417, 1205, 875, 1038, 874
2418, 1561, 189, 188, 164
2419, 1037, 1205, 1038, 874
2420, 1109, 1119, 1052, 1194
2421, 1334, 162, 161, 137
2422, 1165, 223, 247, 222
2423, 1333, 162, 186, 161
2424, 1342, 140, 1529, 165
2425, 204, 33, 1565, 32
2426, 1496, 1523, 1497, 1411
2427, 468, 1508, 1192, 1107
2428, 1188, 208, 207, 183
2429, 956, 1497, 1411, 1537
2430, 491, 492, 1403, 516
2431, 1109, 1052, 1119, 1057
2432, 1052, 1063, 1217, 918
2433, 1394, 1474, 511, 512
2434, 1568, 194, 169, 170
2435, 1382, 1020, 1019, 1378
2436, 1382, 1128, 1317, 1130
2437, 1496, 150, 7, 6
2438, 1496, 78, 1411, 80
2439, 1415, 127, 117, 125
2440, 1473, 214, 189, 190
2441, 1496, 8, 1523, 78
2442, 484, 1382, 1426, 1343
2443, 1394, 1378, 1474, 1316
2444, 1383, 167, 166, 142
2445, 1531, 165, 189, 164
2446, 1382, 1394, 1019, 1426
2447, 1019, 1394, 1378, 510
2448, 1394, 1474, 510, 511
2449, 975, 1395, 560, 1379
2450, 1071, 216, 191, 192
2451, 975, 1458, 586, 1395
2452, 1395, 1458, 586, 561
2453, 1361, 1529, 1431, 1384
2454, 1363, 1364, 1291, 204
2455, 1496, 7, 8, 78
2456, 1386, 1384, 1385, 1390
2457, 1395, 1460, 561, 560
2458, 1522, 1452, 1514, 119
2459, 1381, 1379, 559, 560
2460, 1052, 1034, 1088, 805
2461, 1179, 417, 1260, 442
2462, 1428, 169, 168, 144
2463, 1521, 1523, 79, 1522
2464, 1420, 172, 196, 171
2465, 1052, 1217, 1192, 918
2466, 925, 1118, 1260, 808
2467, 1451, 171, 170, 146
2468, 1449, 146, 145, 81
2469, 1119, 1516, 465, 1195
2470, 1235, 1560, 1479, 347
2471, 794, 251, 226, 227
2472, 1560, 372, 1210, 371
2473, 1560, 371, 1210, 1211
2474, 1560, 1559, 346, 1569
2475, 1479, 1569, 1560, 1068
2476, 1268, 198, 173, 174
2477, 1197, 926, 1141, 900
2478, 1562, 172, 171, 147
2479, 898, 986, 773, 1007
2480, 1523, 1522, 1497, 1411
2481, 1392, 196, 220, 195
2482, 852, 850, 1198, 1208
2483, 901, 940, 899, 1160
2484, 1566, 231, 230, 206
2485, 172, 1422, 173, 148
2486, 1410, 1404, 955, 176
2487, 1523, 78, 1522, 1411
2488, 1410, 1404, 176, 151
2489, 1270, 224, 223, 199
2490, 944, 1183, 1221, 1165
2491, 1200, 1141, 1197, 1199
2492, 1199, 1141, 1197, 926
2493, 1521, 79, 1523, 9
2494, 1497, 174, 173, 149
2495, 1537, 175, 174, 150
2496, 1163, 1203, 1200, 1240
2497, 1197, 1198, 853, 1141
2498, 1270, 199, 223, 198
2499, 854, 790, 891, 855
2500, 1143, 790, 855, 794
2501, 1428, 144, 1451, 169
2502, 852, 1208, 327, 302
2503, 1221, 1251, 1165, 1567
2504, 1410, 176, 175, 151
2505, 1139, 225, 200, 201
2506, 1109, 1119, 1194, 1195
2507, 1123, 1196, 1057, 1125
2508, 1406, 178, 177, 153
2509, 1196, 1123, 1213, 1556
2510, 1285, 206, 182, 207
2511, 1521, 172, 147, 148
2512, 1196, 1570, 1130, 1556
2513, 1196, 1130, 882, 1317
2514, 1274, 1272, 1390, 1071
2515, 813, 130, 101, 93
2516, 1088, 1132, 1218, 1062
2517, 955, 177, 201, 176
2518, 1406, 30, 178, 29
2519, 1149, 1366, 1292, 154
2520, 1140, 202, 177, 178
2521, 1109, 1052, 1217, 1192
2522, 314, 1571, 935, 1572
2523, 1571, 1572, 313, 966
2524, 1523, 79, 1522, 78
2525, 1265, 338, 1571, 339
2526, 1292, 179, 31, 154
2527, 722, 728, 810, 732
2528, 1047, 334, 358, 333
2529, 1571, 313, 965, 966
2530, 1064, 1265, 1264, 965
2531, 717, 1190, 1501, 1499
2532, 965, 1265, 1264, 338
2533, 1571, 967, 966, 965
2534, 1521, 148, 1523, 1497
2535, 1236, 823, 822, 913
2536, 1505, 181, 180, 156
2537, 1282, 1287, 1284, 929
2538, 1373, 212, 187, 188
2539, 1282, 1226, 1283, 1212
2540, 1285, 181, 206, 205
2541, 1371, 182, 181, 157
2542, 1037, 787, 874, 1038
2543, 824, 912, 913, 1393
2544, 1500, 205, 204, 180
2545, 1285, 1371, 182, 181
2546, 913, 826, 1022, 1290
2547, 1291, 31, 228, 203
2548, 824, 826, 913, 823
2549, 1228, 183, 182, 158
2550, 843, 996, 1419, 1455
2551, 1285, 180, 1505, 181
2552, 978, 979, 1409, 1413
2553, 717, 713, 1348, 716
2554, 1006, 1013, 1134, 1069
2555, 776, 1353, 1563, 985
2556, 774, 1009, 1008, 775
2557, 1384, 1429, 1386, 1383
2558, 967, 965, 1571, 1265
2559, 1200, 255, 280, 279
2560, 1532, 185, 161, 186
2561, 1525, 1555, 125, 126
2562, 1045, 1414, 386, 1413
2563, 1047, 1513, 1046, 726
2564, 1131, 1343, 1234, 1229
2565, 864, 870, 1045, 963
2566, 1040, 529, 1001, 554
2567, 1360, 1361, 1155, 1384
2568, 1290, 506, 929, 1001
2569, 1415, 1530, 1253, 1416
2570, 1333, 187, 186, 162
2571, 1472, 239, 214, 215
2572, 1094, 1099, 1153, 686
2573, 1222, 1153, 1152, 76
2574, 1471, 213, 188, 189
2575, 1370, 1371, 1173, 1506
2576, 1170, 1227, 1372, 1362
2577, 1152, 1313, 1150, 746
2578, 1333, 188, 187, 163
2579, 274, 1482, 273, 298
2580, 814, 746, 1152, 1150
2581, 1262, 1261, 1392, 220
2582, 1152, 1150, 75, 690
2583, 1099, 1150, 1152, 690
2584, 1567, 222, 247, 246
2585, 1001, 1287, 1040, 554
2586, 1287, 1117, 554, 1001
2587, 1152, 1153, 692, 76
2588, 1206, 1204, 1309, 501
2589, 1205, 1206, 525, 500
2590, 1037, 915, 786, 1039
2591, 833, 842, 783, 907
2592, 1443, 191, 190, 166
2593, 526, 1039, 1389, 1309
2594, 1360, 1429, 1384, 1478
2595, 1487, 218, 193, 194
2596, 834, 1092, 838, 842
2597, 929, 931, 531, 532
2598, 1206, 501, 1309, 526
2599, 1473, 215, 214, 190
2600, 1278, 969, 1266, 1118
2601, 315, 1571, 1265, 935
2602, 111, 1447, 97, 1522
2603, 1394, 1316, 1474, 1509
2604, 117, 1416, 1453, 105
2605, 1031, 1435, 1065, 315
2606, 812, 1033, 1266, 1065
2607, 1447, 81, 1449, 111
2608, 943, 935, 1031, 967
2609, 1568, 171, 195, 170
2610, 1386, 193, 192, 168
2611, 1031, 935, 1281, 1435
2612, 847, 1391, 1254, 1251
2613, 1551, 198, 222, 197
2614, 1190, 211, 236, 235
2615, 1275, 242, 241, 217
2616, 1450, 1449, 146, 1451
2617, 1163, 950, 867, 1573
2618, 1549, 194, 193, 169
2619, 1201, 1163, 1546, 1203
2620, 950, 892, 946, 1199
2621, 1447, 1562, 146, 147
2622, 1521, 1562, 1447, 147
2623, 1447, 1522, 111, 1452
2624, 1258, 1190, 1257, 1156
2625, 810, 942, 724, 732
2626, 1568, 195, 194, 170
2627, 1311, 1141, 789, 1142
2628, 927, 1143, 900, 903
2629, 932, 791, 742, 848
2630, 1568, 196, 195, 171
2631, 1197, 1202, 1207, 1200
2632, 1397, 124, 1514, 1398
2633, 747, 1089, 1271, 749
2634, 1479, 1481, 323, 1483
2635, 1479, 1559, 1569, 1510
2636, 998, 997, 994, 543
2637, 1269, 198, 197, 173
2638, 715, 1219, 712, 1172
2639, 1346, 470, 494, 469
2640, 1411, 78, 119, 107
2641, 1275, 241, 216, 217
2642, 1479, 1376, 1483, 1510
2643, 1559, 1510, 321, 346
2644, 1559, 1510, 322, 321
2645, 1268, 199, 198, 174
2646, 803, 1133, 807, 806
2647, 916, 925, 921, 923
2648, 1373, 211, 186, 187
2649, 1233, 1569, 1068, 1211
2650, 1278, 1029, 1166, 1033
2651, 978, 811, 979, 1048
2652, 1278, 1495, 728, 1118
2653, 1268, 200, 199, 175
2654, 728, 1495, 925, 1118
2655, 1263, 1243, 845, 1275
2656, 1262, 219, 1261, 220
2657, 1267, 201, 200, 176
2658, 1367, 30, 203, 178
2659, 1231, 728, 1166, 1466
2660, 1383, 1529, 1384, 1478
2661, 806, 1211, 1231, 1233
2662, 1013, 1133, 1181, 1185
2663, 1243, 242, 217, 218
2664, 1311, 254, 229, 230
2665, 1181, 398, 1066, 1185
2666, 1360, 1453, 1429, 1478
2667, 959, 1148, 1146, 1147
2668, 1242, 243, 218, 219
2669, 1066, 397, 1181, 1070
2670, 1181, 1070, 422, 920
2671, 1140, 203, 202, 178
2672, 1070, 920, 421, 422
2673, 1532, 1333, 1373, 186
2674, 706, 1472, 1471, 1473
2675, 1137, 227, 202, 203
2676, 958, 226, 201, 202
2677, 1329, 250, 226, 251
2678, 1360, 1390, 1384, 1429
2679, 1121, 1122, 974, 975
2680, 1507, 1008, 352, 771
2681, 1291, 204, 32, 179
2682, 328, 1208, 1507, 1574
2683, 1353, 332, 331, 307
2684, 1267, 176, 955, 201
2685, 1208, 1507, 1574, 1007
2686, 1532, 160, 1501, 1534
2687, 1285, 181, 205, 180
2688, 847, 1392, 1391, 1251
2689, 1341, 1344, 1345, 106
2690, 1007, 1208, 1507, 327
2691, 1565, 1142, 1364, 253
2692, 1310, 229, 205, 230
2693, 774, 898, 800, 773
2694, 896, 904, 801, 902
2695, 773, 1574, 1507, 1007
2696, 852, 986, 1007, 1208
2697, 875, 1456, 877, 874
2698, 1457, 1436, 1380, 1417
2699, 1559, 346, 1569, 1510
2700, 1272, 191, 215, 190
2701, 1569, 1029, 344, 1232
2702, 1569, 1510, 346, 345
2703, 1233, 1569, 1232, 1029
2704, 795, 209, 208, 184
2705, 1532, 1334, 1333, 161
2706, 245, 1249, 220, 244
2707, 1190, 210, 209, 185
2708, 1241, 936, 938, 1243
2709, 1250, 1249, 269, 1245
2710, 1348, 1334, 1532, 1534
2711, 1532, 1501, 160, 185
2712, 1242, 1262, 1263, 1248
2713, 1242, 1262, 1249, 220
2714, 1241, 1243, 243, 1245
2715, 1499, 211, 210, 186
2716, 1245, 1249, 269, 244
2717, 213, 212, 1503, 188
2718, 942, 1028, 1569, 1029
2719, 1499, 1532, 185, 1501
2720, 949, 235, 1156, 236
2721, 942, 1233, 1029, 1569
2722, 1246, 1188, 1247, 1189
2723, 942, 1376, 1479, 1510
2724, 962, 337, 336, 312
2725, 1346, 495, 494, 470
2726, 1471, 214, 213, 189
2727, 1483, 322, 1479, 1510
2728, 1508, 1030, 877, 1346
2729, 1376, 1160, 899, 1377
2730, 1321, 859, 857, 1509
2731, 1227, 158, 1372, 159
2732, 1379, 1395, 560, 1381
2733, 1494, 930, 931, 1023
2734, 1190, 1227, 1501, 185
2735, 809, 901, 800, 902
2736, 937, 1160, 1157, 1377
2737, 1272, 216, 215, 191
2738, 1227, 1191, 1188, 184
2739, 945, 1376, 1377, 1483
2740, 1227, 1501, 185, 160
2741, 1030, 446, 471, 470
2742, 1346, 493, 469, 494
2743, 942, 1376, 1377, 1160
2744, 791, 740, 1087, 1080
2745, 1071, 217, 216, 192
2746, 1227, 1501, 160, 1498
2747, 1079, 954, 1365, 1291
2748, 1228, 1371, 157, 182
2749, 1227, 1228, 158, 183
2750, 740, 1145, 797, 1085
2751, 1483, 945, 1482, 1375
2752, 790, 252, 855, 794
2753, 873, 1575, 966, 962
2754, 1243, 243, 242, 218
2755, 1071, 218, 217, 193
2756, 896, 852, 1198, 986
2757, 1228, 1191, 1188, 1227
2758, 792, 958, 1137, 794
2759, 1551, 198, 223, 222
2760, 894, 951, 948, 878
2761, 894, 878, 949, 872
2762, 761, 949, 259, 947
2763, 886, 949, 894, 1156
2764, 1261, 195, 219, 194
2765, 1377, 942, 1027, 1028
2766, 1231, 1466, 921, 925
2767, 1261, 220, 219, 195
2768, 802, 1486, 1479, 801
2769, 1027, 943, 1157, 1281
2770, 945, 904, 903, 899
2771, 1174, 249, 224, 225
2772, 1281, 1027, 1279, 1157
2773, 937, 1241, 1248, 1250
2774, 1392, 221, 220, 196
2775, 1346, 1557, 763, 494
2776, 1431, 1478, 109, 1155
2777, 1249, 245, 220, 221
2778, 1415, 1416, 117, 127
2779, 1252, 1255, 1145, 961
2780, 1548, 222, 221, 197
2781, 952, 961, 956, 1267
2782, 956, 955, 1410, 957
2783, 956, 1410, 955, 1267
2784, 183, 184, 1188, 208
2785, 795, 233, 208, 209
2786, 956, 1422, 1497, 1268
2787, 1139, 200, 224, 199
2788, 1004, 517, 493, 518
2789, 1386, 192, 167, 168
2790, 1283, 929, 931, 1116
2791, 1428, 1430, 1451, 144
2792, 1515, 1116, 1226, 931
2793, 1431, 1384, 1155, 1361
2794, 1517, 1394, 1130, 1129
2795, 1130, 1556, 1129, 1123
2796, 859, 1130, 882, 1484
2797, 1484, 882, 1576, 1130
2798, 1130, 1570, 1518, 1556
2799, 1345, 1342, 1431, 1155
2800, 1139, 226, 225, 201
2801, 1506, 840, 1370, 1536
2802, 1341, 1342, 1431, 1345
2803, 1174, 225, 250, 249
2804, 832, 1136, 1135, 830
2805, 1536, 133, 1372, 132
2806, 1341, 18, 139, 138
2807, 1050, 1340, 1336, 1158
2808, 958, 227, 226, 202
2809, 1245, 268, 267, 243
2810, 780, 767, 1336, 779
2811, 780, 1162, 1158, 767
2812, 1341, 1345, 1332, 1342
2813, 230, 206, 1396, 1566
2814, 1566, 1239, 230, 231
2815, 1135, 1158, 1488, 1336
2816, 1158, 1161, 1159, 405
2817, 1410, 151, 1496, 1539
2818, 1550, 212, 236, 211
2819, 1410, 1537, 150, 175
2820, 1371, 1506, 157, 156
2821, 1410, 1411, 1397, 1539
2822, 1410, 1537, 175, 1267
2823, 956, 1410, 1397, 957
2824, 1431, 1342, 139, 140
2825, 1341, 87, 1431, 139
2826, 865, 1357, 1573, 283
2827, 1410, 1496, 1411, 1539
2828, 1283, 1023, 1092, 1379
2829, 1189, 232, 207, 208
2830, 1189, 208, 233, 232
2831, 1431, 106, 1155, 109
2832, 1502, 237, 212, 213
2833, 963, 964, 870, 1045
2834, 956, 1537, 1410, 1267
2835, 1221, 1262, 1567, 1248
2836, 954, 1365, 1367, 1147
2837, 1274, 1263, 1071, 1487
2838, 1374, 271, 246, 247
2839, 1221, 1220, 1165, 1251
2840, 1168, 1170, 715, 741
2841, 889, 935, 872, 1572
2842, 1249, 269, 244, 245
2843, 253, 891, 277, 890
2844, 1500, 1366, 1477, 179
2845, 706, 1473, 1273, 1272
2846, 958, 794, 1138, 1329
2847, 1187, 1174, 1164, 903
2848, 1484, 514, 490, 515
2849, 1174, 1329, 225, 1138
2850, 1274, 1071, 1275, 1272
2851, 1311, 254, 230, 255
2852, 1276, 1472, 1503, 1471
2853, 1175, 248, 223, 224
2854, 763, 493, 1004, 1107
2855, 1259, 794, 1329, 1138
2856, 1103, 1081, 591, 1461
2857, 1566, 231, 206, 207
2858, 382, 383, 1126, 1352
2859, 796, 1174, 1175, 1138
2860, 759, 232, 256, 231
2861, 1285, 1396, 1169, 1363
2862, 1220, 1270, 1138, 1175
2863, 797, 1221, 1085, 1220
2864, 1285, 181, 182, 206
2865, 999, 876, 996, 1402
2866, 1566, 232, 231, 207
2867, 25, 132, 91, 92
2868, 132, 91, 92, 1536
2869, 1346, 493, 468, 469
2870, 1079, 1291, 1365, 1363
2871, 1477, 1146, 1366, 1363
2872, 1370, 1552, 1536, 1540
2873, 795, 209, 210, 234
2874, 1190, 235, 210, 211
2875, 1403, 515, 1484, 490
2876, 1536, 840, 1370, 1540
2877, 1222, 75, 691, 76
2878, 1536, 91, 1552, 133
2879, 1079, 1146, 1363, 1365
2880, 1453, 98, 1429, 1478
2881, 789, 1142, 790, 1364
2882, 793, 1143, 1259, 794
2883, 760, 1189, 233, 232
2884, 1080, 740, 1087, 741
2885, 791, 1199, 1080, 1087
2886, 796, 1138, 1259, 1174
2887, 795, 235, 234, 210
2888, 1540, 1536, 91, 1552
2889, 1107, 468, 492, 467
2890, 848, 741, 718, 1258
2891, 1550, 1257, 1502, 1503
2892, 1577, 288, 264, 289
2893, 1550, 236, 212, 237
2894, 1257, 1156, 1502, 1358
2895, 1203, 1200, 279, 1202
2896, 1380, 1321, 537, 1319
2897, 1550, 1257, 1499, 1190
2898, 1502, 214, 238, 213
2899, 863, 310, 878, 962
2900, 1083, 1312, 995, 1454
2901, 1550, 1503, 212, 1373
2902, 718, 707, 1276, 1257
2903, 1258, 1190, 947, 1247
2904, 110, 1536, 1506, 92
2905, 1099, 1144, 689, 683
2906, 1552, 1540, 104, 91
2907, 1277, 216, 241, 240
2908, 1472, 239, 215, 240
2909, 1156, 895, 1331, 237
2910, 1190, 1550, 236, 211
2911, 1139, 1270, 1268, 199
2912, 956, 1411, 1497, 1514
2913, 948, 760, 259, 258
2914, 1272, 1442, 1385, 191
2915, 1249, 1567, 246, 221
2916, 958, 1139, 226, 1138
2917, 1145, 797, 961, 952
2918, 961, 1139, 1268, 1267
2919, 797, 961, 1139, 1220
2920, 1331, 260, 261, 285
2921, 944, 1221, 1183, 1248
2922, 1503, 213, 1471, 214
2923, 1542, 241, 266, 265
2924, 219, 1262, 1263, 1242
2925, 1248, 1262, 1567, 1249
2926, 1567, 1248, 1183, 1221
2927, 1221, 1567, 1262, 1251
2928, 1262, 1567, 1249, 220
2929, 1243, 938, 1248, 1263
2930, 1285, 1500, 205, 1396
2931, 1249, 1248, 1183, 1567
2932, 1323, 1324, 57, 1325
2933, 1575, 310, 286, 311
2934, 1285, 180, 1500, 1477
2935, 1446, 641, 639, 643
2936, 1285, 1500, 180, 205
2937, 1285, 1363, 1500, 1396
2938, 1242, 244, 243, 219
2939, 243, 1244, 242, 267
2940, 1578, 262, 263, 287
2941, 1285, 1169, 1371, 1505
2942, 854, 1322, 278, 890
2943, 1277, 1472, 215, 240
2944, 1249, 246, 270, 245
2945, 1249, 1567, 221, 220
2946, 896, 852, 986, 898
2947, 302, 1208, 1579, 850
2948, 1310, 1142, 229, 1311
2949, 850, 1198, 1579, 1322
2950, 1315, 1084, 1580, 1581
2951, 1249, 221, 246, 245
2952, 1104, 1380, 1321, 538
2953, 945, 1377, 1250, 1375
2954, 1187, 249, 273, 248
2955, 1542, 265, 240, 241
2956, 1322, 35, 1207, 1202
2957, 1322, 1207, 34, 890
2958, 1100, 1005, 858, 998
2959, 1549, 169, 193, 168
2960, 466, 1195, 1193, 1194
2961, 843, 1454, 788, 1304
2962, 784, 1301, 1043, 788
2963, 843, 1304, 995, 1454
2964, 1241, 1249, 1248, 1250
2965, 1374, 247, 272, 271
2966, 1374, 270, 1249, 246
2967, 1312, 1455, 995, 1454
2968, 1455, 1312, 1423, 1424
2969, 1480, 299, 323, 298
2970, 1249, 1250, 269, 270
2971, 1455, 1425, 1424, 1423
2972, 275, 274, 861, 250
2973, 244, 1241, 1245, 1249
2974, 1107, 1193, 467, 492
2975, 1455, 1002, 996, 1423
2976, 407, 1352, 1159, 1234
2977, 1234, 434, 1470, 1343
2978, 758, 600, 719, 625
2979, 1482, 297, 272, 273
2980, 1134, 375, 399, 374
2981, 1234, 1401, 434, 409
2982, 1234, 1229, 1470, 1401
2983, 1234, 1352, 1230, 1401
2984, 1234, 1401, 409, 408
2985, 1142, 229, 33, 1565
2986, 1403, 515, 490, 491
2987, 1063, 1184, 877, 918
2988, 1059, 876, 874, 911
2989, 1299, 989, 1339, 1327
2990, 1015, 1063, 805, 1016
2991, 1173, 1371, 1505, 1506
2992, 1132, 910, 1062, 911
2993, 1565, 1142, 253, 33
2994, 1430, 1453, 98, 1429
2995, 792, 1137, 958, 954
2996, 1125, 1131, 1124, 831
2997, 1217, 1402, 876, 1108
2998, 1114, 1467, 650, 701
2999, 1382, 1394, 1316, 1378
3000, 251, 855, 861, 276
3001, 1182, 1180, 1355, 1184
3002, 1180, 473, 1355, 1456
3003, 1180, 1456, 447, 472
3004, 1180, 917, 1184, 920
3005, 1244, 266, 267, 291
3006, 1180, 1184, 917, 1456
3007, 849, 301, 277, 302
3008, 98, 84, 112, 1453
3009, 1240, 256, 280, 255
3010, 1356, 475, 451, 1468
3011, 1550, 211, 1373, 212
3012, 1323, 1105, 648, 1582
3013, 1182, 1355, 1180, 448
3014, 1431, 109, 1478, 86
3015, 1205, 1468, 1355, 874
3016, 1060, 1355, 1468, 874
3017, 1563, 1545, 304, 1547
3018, 1563, 1485, 773, 329
3019, 760, 233, 258, 257
3020, 1478, 1383, 141, 142
3021, 760, 257, 232, 233
3022, 1452, 1416, 1398, 128
3023, 1563, 1545, 305, 304
3024, 776, 1354, 1563, 1353
3025, 1563, 1353, 305, 1545
3026, 1563, 985, 1547, 773
3027, 1468, 1204, 500, 501
3028, 257, 1240, 256, 281
3029, 1468, 476, 1204, 501
3030, 1205, 1355, 1468, 474
3031, 1468, 451, 1308, 476
3032, 1030, 495, 470, 471
3033, 998, 567, 542, 543
3034, 760, 259, 258, 234
3035, 1205, 1037, 1204, 874
3036, 1105, 648, 1582, 649
3037, 1060, 1468, 1061, 874
3038, 762, 258, 283, 282
3039, 1331, 237, 261, 236
3040, 874, 1037, 1204, 1061
3041, 895, 262, 237, 238
3042, 1101, 837, 993, 836
3043, 1004, 541, 542, 1005
3044, 1374, 271, 1375, 270
3045, 858, 1090, 1104, 1436
3046, 966, 288, 313, 312
3047, 1445, 639, 1446, 641
3048, 1244, 1281, 292, 1245
3049, 1102, 1492, 589, 590
3050, 1102, 590, 1271, 1492
3051, 1102, 1081, 1271, 591
3052, 1102, 1081, 591, 1103
3053, 895, 262, 238, 263
3054, 965, 337, 313, 338
3055, 392, 1166, 1466, 393
3056, 880, 1081, 1102, 1103
3057, 1546, 1357, 281, 1573
3058, 1578, 263, 288, 287
3059, 141, 86, 1431, 1478
3060, 1374, 270, 246, 271
3061, 1419, 1425, 1424, 1455
3062, 749, 1417, 1492, 1459
3063, 841, 905, 817, 991
3064, 788, 1424, 1302, 1454
3065, 240, 1542, 1577, 265
3066, 567, 1103, 568, 880
3067, 1478, 109, 1155, 112
3068, 1101, 1102, 1271, 1492
3069, 884, 993, 995, 1455
3070, 1441, 314, 289, 290
3071, 993, 995, 1349, 1083
3072, 884, 997, 1002, 994
3073, 747, 1315, 1084, 1349
3074, 1425, 521, 496, 497
3075, 1577, 289, 1572, 288
3076, 1545, 305, 304, 280
3077, 747, 1081, 1349, 1084
3078, 1081, 1082, 1084, 1461
3079, 1484, 1509, 513, 514
3080, 1113, 1106, 657, 649
3081, 1187, 249, 250, 274
3082, 700, 59, 652, 1314
3083, 773, 37, 1507, 1574
3084, 327, 1008, 352, 1507
3085, 1113, 1110, 745, 649
3086, 1105, 745, 1314, 649
3087, 1028, 1375, 1250, 1377
3088, 1114, 1314, 1581, 1315
3089, 1004, 493, 517, 492
3090, 1245, 269, 268, 244
3091, 1572, 313, 288, 289
3092, 1102, 591, 1271, 590
3093, 1004, 516, 492, 517
3094, 1110, 1113, 660, 653
3095, 1110, 654, 1314, 653
3096, 1314, 1325, 1315, 1105
3097, 1314, 647, 1105, 649
3098, 1375, 1250, 270, 295
3099, 1360, 1254, 1391, 1429
3100, 1390, 1386, 1391, 1487
3101, 1440, 612, 66, 1439
3102, 1390, 1391, 1386, 1429
3103, 1186, 247, 248, 272
3104, 1273, 1384, 1390, 1442
3105, 1390, 1384, 1385, 1442
3106, 1263, 1391, 1274, 846
3107, 709, 706, 1274, 845
3108, 1073, 1072, 1121, 977
3109, 1517, 1129, 1130, 1556
3110, 1091, 1212, 1092, 1283
3111, 1214, 463, 1516, 1570
3112, 857, 882, 1403, 1484
3113, 771, 772, 774, 1008
3114, 754, 1295, 755, 1076
3115, 753, 1554, 1438, 1437
3116, 1207, 254, 279, 35
3117, 1072, 1121, 977, 975
3118, 861, 275, 300, 299
3119, 1072, 1121, 975, 1295
3120, 1072, 1554, 1457, 1417
3121, 1271, 615, 1492, 590
3122, 1150, 1144, 675, 689
3123, 861, 300, 276, 301
3124, 997, 543, 518, 519
3125, 1099, 1150, 689, 1144
3126, 1271, 1492, 615, 1462
3127, 890, 253, 33, 278
3128, 1025, 506, 507, 531
3129, 1322, 35, 303, 34
3130, 1544, 1024, 1543, 118
3131, 1583, 579, 47, 554
3132, 762, 282, 257, 258
3133, 74, 1387, 688, 1150
3134, 1202, 36, 1547, 1574
3135, 298, 1480, 274, 1482
3136, 1152, 746, 819, 1313
3137, 1075, 746, 1150, 1387
3138, 1150, 74, 1313, 75
3139, 849, 301, 276, 277
3140, 1522, 1411, 78, 119
3141, 1400, 758, 989, 1298
3142, 1299, 1300, 1400, 1327
3143, 988, 1323, 1339, 1399
3144, 1299, 989, 758, 991
3145, 1250, 295, 294, 270
3146, 992, 757, 987, 1448
3147, 1503, 188, 1471, 213
3148, 1021, 1378, 1319, 1474
3149, 1029, 368, 1033, 343
3150, 1484, 514, 489, 490
3151, 1375, 1482, 1483, 297
3152, 1545, 279, 280, 304
3153, 1331, 1575, 286, 287
3154, 1163, 1199, 950, 1240
3155, 396, 395, 1070, 1211
3156, 1354, 355, 330, 331
3157, 1445, 1297, 638, 1296
3158, 56, 1399, 1324, 1323
3159, 617, 1467, 1461, 616
3160, 1547, 37, 36, 304
3161, 1323, 55, 1296, 698
3162, 1323, 1324, 1105, 1339
3163, 1323, 55, 1399, 1296
3164, 1310, 789, 1199, 1080
3165, 1323, 1445, 1105, 1582
3166, 1018, 533, 508, 509
3167, 743, 748, 750, 745
3168, 1315, 1114, 747, 1463
3169, 990, 747, 748, 751
3170, 833, 837, 993, 841
3171, 990, 991, 841, 817
3172, 1457, 562, 563, 587
3173, 1357, 282, 306, 281
3174, 748, 1106, 1105, 1445
3175, 1522, 111, 1452, 119
3176, 948, 1330, 878, 951
3177, 747, 1216, 1114, 744
3178, 1275, 1277, 241, 1243
3179, 1243, 1277, 241, 1244
3180, 215, 1277, 1275, 1473
3181, 948, 260, 285, 284
3182, 1357, 307, 306, 282
3183, 1275, 215, 1272, 216
3184, 1186, 248, 273, 272
3185, 1522, 1411, 1514, 1497
3186, 1357, 307, 282, 283
3187, 1277, 1276, 1472, 1358
3188, 1439, 66, 703, 67
3189, 706, 1276, 1472, 1277
3190, 1100, 566, 1102, 565
3191, 1277, 1275, 241, 216
3192, 947, 761, 1189, 760
3193, 1142, 1310, 229, 1565
3194, 795, 947, 1190, 1247
3195, 277, 252, 855, 891
3196, 259, 947, 760, 761
3197, 235, 1190, 795, 947
3198, 854, 890, 278, 277
3199, 892, 1087, 1247, 946
3200, 709, 847, 844, 1085
3201, 887, 947, 1258, 1156
3202, 947, 887, 892, 894
3203, 1448, 696, 1444, 1533
3204, 1448, 691, 992, 633
3205, 1331, 286, 261, 262
3206, 1102, 589, 1436, 564
3207, 1441, 266, 290, 265
3208, 1476, 335, 334, 310
3209, 1211, 371, 395, 370
3210, 1533, 1448, 1223, 1524
3211, 1575, 311, 287, 312
3212, 1448, 992, 631, 633
3213, 1448, 1533, 632, 696
3214, 1409, 363, 388, 387
3215, 1362, 1227, 1372, 1498
3216, 1485, 780, 1354, 1563
3217, 1047, 359, 334, 335
3218, 1487, 1263, 1391, 1274
3219, 1370, 1536, 1552, 1372
3220, 1162, 355, 380, 379
3221, 1168, 1173, 1371, 1169
3222, 1021, 1381, 535, 1319
3223, 1517, 487, 1518, 1509
3224, 1382, 1026, 1020, 1393
3225, 1510, 1377, 1483, 1375
3226, 1331, 287, 286, 262
3227, 314, 315, 1571, 339
3228, 1318, 1319, 1378, 1316
3229, 1249, 245, 270, 269
3230, 1382, 1426, 1019, 484
3231, 1074, 1144, 680, 675
3232, 1438, 1440, 1437, 612
3233, 1440, 1490, 668, 65
3234, 1245, 268, 292, 267
3235, 1438, 1554, 613, 612
3236, 664, 669, 670, 1078
3237, 444, 1512, 419, 923
3238, 1563, 330, 329, 305
3239, 1438, 1491, 613, 1554
3240, 1579, 850, 303, 302
3241, 849, 852, 851, 301
3242, 1032, 341, 317, 342
3243, 1209, 1584, 851, 326
3244, 896, 898, 901, 902
3245, 320, 345, 1510, 1028
3246, 904, 903, 851, 1480
3247, 853, 851, 903, 861
3248, 896, 1198, 852, 853
3249, 847, 1261, 1391, 1392
3250, 1497, 1521, 148, 1422
3251, 1254, 1391, 1429, 1428
3252, 1375, 295, 270, 271
3253, 1390, 1429, 1386, 1384
3254, 1262, 1263, 1248, 847
3255, 1254, 1450, 1420, 1568
3256, 1482, 1186, 273, 272
3257, 1006, 1011, 1013, 1069
3258, 1461, 747, 1084, 1081
3259, 1338, 1337, 427, 452
3260, 1028, 1280, 294, 319
3261, 1197, 1141, 1200, 1207
3262, 1375, 295, 271, 296
3263, 1419, 1425, 996, 1564
3264, 892, 1199, 1087, 946
3265, 1466, 417, 392, 393
3266, 861, 299, 274, 275
3267, 1143, 927, 1259, 903
3268, 1521, 1497, 1523, 1522
3269, 1480, 298, 274, 299
3270, 725, 1353, 727, 726
3271, 323, 1483, 1482, 322
3272, 893, 866, 872, 871
3273, 1559, 322, 347, 346
3274, 1481, 324, 348, 323
3275, 712, 710, 1526, 1525
3276, 850, 302, 277, 278
3277, 1202, 35, 279, 36
3278, 712, 1172, 1558, 1171
3279, 1258, 1087, 1191, 1247
3280, 713, 1333, 717, 1348
3281, 712, 1219, 715, 714
3282, 715, 1172, 712, 1171
3283, 403, 378, 924, 766
3284, 713, 1342, 1086, 1561
3285, 852, 302, 326, 301
3286, 806, 1181, 1070, 1066
3287, 939, 983, 721, 777
3288, 276, 277, 252, 855
3289, 1255, 1522, 1452, 1514
3290, 968, 973, 971, 970
3291, 747, 1315, 1463, 1084
3292, 902, 1376, 942, 1160
3293, 303, 1579, 1202, 1322
3294, 303, 327, 1579, 302
3295, 941, 1031, 1064, 967
3296, 1322, 34, 303, 278
3297, 1006, 1068, 802, 1134
3298, 1067, 1210, 1068, 1066
3299, 799, 1486, 1432, 1134
3300, 1432, 1134, 1235, 374
3301, 762, 281, 257, 282
3302, 1432, 1134, 374, 375
3303, 1330, 309, 308, 284
3304, 1449, 1451, 145, 146
3305, 1330, 284, 285, 309
3306, 966, 287, 288, 312
3307, 1125, 1057, 1034, 1088
3308, 1571, 339, 338, 314
3309, 1575, 310, 285, 286
3310, 146, 97, 81, 1447
3311, 36, 328, 1574, 1202
3312, 747, 1271, 1461, 1463
3313, 1579, 1322, 303, 850
3314, 1432, 897, 1433, 1486
3315, 1432, 1134, 1486, 1235
3316, 1432, 349, 1433, 350
3317, 1375, 1483, 296, 297
3318, 747, 1271, 1463, 1467
3319, 1076, 1078, 672, 670
3320, 281, 1546, 1545, 306
3321, 1545, 1203, 1546, 281
3322, 1163, 867, 1546, 1573
3323, 1485, 37, 329, 38
3324, 744, 1078, 1216, 662
3325, 1547, 37, 304, 329
3326, 1065, 315, 316, 340
3327, 1447, 1449, 1452, 111
3328, 1110, 745, 1314, 1114
3329, 1427, 1452, 105, 1416
3330, 711, 713, 710, 1361
3331, 1244, 1441, 1435, 933
3332, 889, 933, 1441, 1577
3333, 744, 753, 749, 1216
3334, 1510, 296, 1483, 321
3335, 1078, 1216, 662, 666
3336, 1280, 294, 318, 293
3337, 1074, 672, 1078, 677
3338, 1440, 1078, 1076, 693
3339, 942, 1479, 1068, 1569
3340, 241, 1243, 242, 1275
3341, 962, 336, 311, 312
3342, 267, 1245, 243, 1244
3343, 1215, 1465, 1176, 1213
3344, 1357, 308, 307, 283
3345, 982, 940, 867, 1201
3346, 1449, 1452, 111, 105
3347, 1330, 283, 284, 308
3348, 1575, 311, 286, 287
3349, 1441, 1572, 1577, 289
3350, 319, 1028, 295, 294
3351, 781, 1419, 843, 996
3352, 1358, 895, 1502, 1577
3353, 1349, 1083, 1328, 1580
3354, 1449, 1430, 105, 82
3355, 1328, 1349, 1304, 1083
3356, 1288, 1541, 815, 768
3357, 285, 310, 878, 1330
3358, 720, 627, 769, 1524
3359, 1120, 1293, 974, 1095
3360, 1407, 412, 436, 411
3361, 1223, 1153, 1222, 77
3362, 1153, 1154, 1223, 819
3363, 1441, 1542, 265, 1577
3364, 815, 1154, 817, 1288
3365, 1507, 328, 1574, 36
3366, 1054, 1053, 1012, 768
3367, 768, 1553, 1054, 1010
3368, 768, 1541, 1224, 1553
3369, 1208, 302, 1579, 327
3370, 1308, 1338, 1238, 1585
3371, 328, 1208, 1574, 1579
3372, 1065, 340, 341, 365
3373, 1179, 416, 441, 440
3374, 1041, 46, 1040, 1287
3375, 1572, 314, 313, 289
3376, 964, 336, 360, 335
3377, 782, 1389, 908, 1305
3378, 1576, 1130, 1570, 1518
3379, 908, 883, 1586, 1010
3380, 782, 1305, 908, 905
3381, 1515, 1226, 1294, 1293
3382, 782, 906, 786, 907
3383, 908, 1553, 1288, 1010
3384, 976, 1293, 582, 974
3385, 1542, 239, 1502, 1472
3386, 1445, 1105, 649, 1106
3387, 1582, 1105, 649, 1445
3388, 1445, 657, 646, 641
3389, 1111, 1106, 746, 1387
3390, 772, 377, 378, 924
3391, 1106, 746, 1387, 1313
3392, 1152, 992, 640, 1313
3393, 1120, 1293, 976, 974
3394, 814, 1099, 1144, 1150
3395, 971, 389, 364, 365
3396, 1276, 1502, 1503, 1472
3397, 748, 1315, 1339, 1105
3398, 743, 753, 752, 751
3399, 1106, 656, 1446, 1313
3400, 1435, 291, 316, 315
3401, 1099, 690, 1152, 692
3402, 1075, 1111, 744, 746
3403, 1569, 1028, 345, 344
3404, 1301, 1504, 548, 1302
3405, 1304, 1349, 995, 1083
3406, 781, 786, 784, 787
3407, 784, 783, 1043, 1305
3408, 1302, 1424, 547, 572
3409, 1424, 1302, 1454, 572
3410, 1504, 1419, 1038, 875
3411, 1280, 294, 319, 318
3412, 1301, 1418, 549, 1303
3413, 784, 1038, 1301, 1419
3414, 1008, 351, 1209, 327
3415, 1496, 1411, 1497, 1537
3416, 1027, 1377, 1157, 1160
3417, 1280, 317, 293, 318
3418, 795, 760, 234, 947
3419, 1038, 1528, 1206, 1303
3420, 1483, 321, 296, 297
3421, 783, 1299, 991, 841
3422, 1510, 346, 345, 321
3423, 1560, 371, 346, 347
3424, 1156, 237, 1502, 895
3425, 307, 1357, 332, 308
3426, 1433, 325, 350, 349
3427, 1038, 875, 1419, 876
3428, 1065, 341, 340, 316
3429, 1510, 321, 320, 296
3430, 1301, 788, 1419, 1302
3431, 1528, 1303, 524, 525
3432, 1584, 301, 326, 325
3433, 1410, 150, 1496, 151
3434, 1510, 321, 345, 320
3435, 1303, 1528, 1206, 525
3436, 1299, 1305, 719, 1043
3437, 956, 1411, 1410, 1537
3438, 547, 1425, 1424, 1302
3439, 1411, 1397, 80, 107
3440, 299, 1584, 861, 1480
3441, 810, 732, 728, 1233
3442, 1504, 1302, 547, 548
3443, 1480, 324, 323, 299
3444, 1528, 498, 875, 499
3445, 1504, 498, 1528, 523
3446, 1479, 323, 347, 322
3447, 853, 903, 899, 900
3448, 1206, 526, 525, 501
3449, 1256, 1450, 1562, 1252
3450, 1449, 1430, 1451, 1427
3451, 852, 302, 327, 326
3452, 1496, 1537, 149, 150
3453, 1450, 1452, 1256, 1562
3454, 803, 1133, 1184, 807
3455, 1584, 301, 325, 300
3456, 1006, 1066, 1134, 1013
3457, 1427, 1256, 1450, 1452
3458, 1450, 1447, 146, 1449
3459, 1421, 1252, 1422, 1562
3460, 1450, 1451, 146, 171
3461, 1191, 741, 1169, 1087
3462, 1284, 1290, 1001, 1286
3463, 1584, 300, 325, 324
3464, 1560, 371, 347, 372
3465, 1286, 1290, 1001, 1587
3466, 969, 1266, 1118, 970
3467, 1550, 1502, 212, 1503
3468, 328, 327, 1579, 303
3469, 307, 1353, 332, 1357
3470, 1577, 263, 238, 239
3471, 1040, 915, 906, 1286
3472, 1284, 1022, 929, 1290
3473, 1284, 1287, 1286, 1001
3474, 922, 1070, 921, 1231
3475, 1190, 1499, 211, 210
3476, 1008, 327, 352, 351
3477, 1028, 344, 319, 320
3478, 828, 825, 1464, 456
3479, 821, 824, 823, 826
3480, 480, 1464, 455, 823
3481, 1510, 320, 295, 296
3482, 1563, 329, 304, 305
3483, 821, 832, 1135, 830
3484, 1433, 349, 324, 325
3485, 1559, 346, 321, 322
3486, 913, 1290, 1286, 1587
3487, 826, 823, 480, 1290
3488, 913, 826, 1290, 823
3489, 1353, 330, 305, 306
3490, 781, 784, 788, 1419
3491, 964, 361, 336, 337
3492, 1162, 354, 355, 379
3493, 781, 999, 785, 787
3494, 1353, 307, 331, 306
3495, 1039, 915, 1389, 1309
3496, 1126, 1161, 1352, 1127
3497, 906, 908, 1041, 1287
3498, 947, 1190, 1156, 235
3499, 577, 1389, 883, 578
3500, 761, 760, 259, 948
3501, 908, 770, 905, 1305
3502, 1389, 883, 578, 908
3503, 833, 841, 838, 837
3504, 1309, 1042, 915, 1389
3505, 356, 331, 1354, 332
3506, 883, 1305, 1389, 576
3507, 786, 911, 787, 910
3508, 1485, 354, 38, 329
3509, 1126, 357, 381, 356
3510, 335, 963, 962, 310
3511, 551, 526, 1039, 1389
3512, 452, 428, 1335, 453
3513, 1389, 1309, 527, 526
3514, 828, 455, 456, 1464
3515, 336, 963, 962, 335
3516, 782, 907, 783, 905
3517, 1388, 1389, 576, 551
3518, 1037, 786, 914, 911
3519, 826, 480, 1464, 481
3520, 1029, 1279, 343, 1033
3521, 956, 1397, 1411, 1514
3522, 764, 780, 1485, 773
3523, 1569, 344, 1029, 1028
3524, 1496, 1523, 1411, 78
3525, 1569, 1232, 344, 345
3526, 1152, 819, 992, 1313
3527, 965, 337, 312, 313
3528, 972, 362, 337, 338
3529, 802, 1479, 1486, 1068
3530, 1151, 1519, 1294, 1350
3531, 720, 1012, 769, 768
3532, 902, 1479, 942, 1376
3533, 1479, 323, 348, 347
3534, 978, 1409, 1408, 1413
3535, 1414, 410, 385, 386
3536, 812, 810, 1278, 1027
3537, 1563, 329, 330, 354
3538, 842, 905, 1212, 817
3539, 1417, 1395, 1072, 1091
3540, 404, 1158, 405, 1162
3541, 1264, 340, 364, 339
3542, 1520, 1127, 1352, 1401
3543, 1158, 1336, 767, 1488
3544, 1158, 1161, 1230, 1159
3545, 1266, 367, 366, 342
3546, 827, 832, 825, 1158
3547, 736, 1115, 804, 779
3548, 1377, 1510, 1028, 1375
3549, 931, 532, 556, 531
3550, 1050, 1340, 1115, 1336
3551, 821, 825, 832, 831
3552, 1159, 382, 407, 406
3553, 1092, 1283, 1212, 1284
3554, 1265, 315, 340, 339
3555, 1125, 1034, 1132, 1088
3556, 1036, 1340, 1230, 1229
3557, 768, 720, 1154, 770
3558, 1176, 1516, 1119, 1213
3559, 1033, 367, 342, 343
3560, 1215, 1465, 413, 414
3561, 1354, 331, 356, 355
3562, 1049, 1401, 1046, 1412
3563, 1056, 1215, 1408, 973
3564, 1055, 970, 973, 1118
3565, 1032, 341, 316, 317
3566, 1209, 351, 350, 326
3567, 1215, 1409, 973, 1177
3568, 1470, 1588, 435, 1347
3569, 1372, 1228, 157, 158
3570, 1227, 159, 1372, 1498
3571, 1168, 1370, 1172, 1171
3572, 1372, 134, 1552, 1498
3573, 1279, 318, 343, 342
3574, 1147, 1406, 1367, 1140
3575, 1560, 1235, 372, 347
3576, 1435, 935, 315, 1031
3577, 348, 1235, 1479, 347
3578, 1260, 442, 418, 443
3579, 418, 921, 394, 1466
3580, 1479, 1560, 1569, 1559
3581, 1560, 1068, 1569, 1211
3582, 580, 1117, 579, 1541
3583, 1028, 1510, 1377, 942
3584, 420, 1070, 421, 396
3585, 1166, 368, 392, 367
3586, 1479, 1481, 801, 1486
3587, 729, 736, 1006, 732
3588, 776, 985, 984, 1353
3589, 1280, 292, 293, 317
3590, 1563, 985, 1353, 1545
3591, 1279, 343, 319, 344
3592, 1404, 955, 176, 177
3593, 602, 856, 1586, 883
3594, 986, 1007, 1208, 1574
3595, 1201, 985, 1547, 1545
3596, 985, 1357, 1353, 1546
3597, 870, 1045, 979, 811
3598, 982, 1357, 865, 984
3599, 981, 776, 985, 984
3600, 1481, 349, 348, 324
3601, 945, 1482, 904, 1483
3602, 709, 742, 708, 846
3603, 1448, 1444, 720, 1533
3604, 1569, 1232, 345, 1211
3605, 945, 904, 1376, 1483
3606, 152, 1406, 1405, 1404
3607, 937, 1241, 1250, 936
3608, 1400, 599, 758, 624
3609, 1032, 1033, 1279, 1027
3610, 1409, 387, 362, 363
3611, 792, 789, 1079, 791
3612, 1404, 177, 1406, 1140
3613, 1343, 459, 458, 434
3614, 1431, 1529, 1342, 140
3615, 1361, 1086, 1342, 1531
3616, 1235, 348, 373, 372
3617, 1209, 326, 350, 325
3618, 1556, 1123, 1214, 1347
3619, 893, 940, 866, 871
3620, 1341, 139, 1431, 1342
3621, 1196, 1130, 1570, 1576
3622, 1103, 568, 880, 1082
3623, 1495, 925, 1118, 1260
3624, 1213, 1055, 1215, 1056
3625, 1493, 1335, 765, 1337
3626, 1507, 771, 353, 37
3627, 1544, 21, 135, 22
3628, 1008, 351, 352, 376
3629, 1058, 1407, 1470, 1412
3630, 1056, 1215, 1214, 1408
3631, 1056, 1407, 1408, 1214
3632, 1058, 1347, 1470, 1407
3633, 435, 1347, 1407, 1470
3634, 771, 353, 37, 378
3635, 1008, 376, 352, 377
3636, 1234, 1343, 1470, 1229
3637, 334, 1476, 333, 1047
3638, 1470, 1343, 434, 1588
3639, 138, 137, 1341, 19
3640, 1538, 1534, 1334, 1344
3641, 1144, 1098, 682, 1097
3642, 1524, 1533, 50, 629
3643, 1543, 1544, 89, 1344
3644, 1054, 1586, 1053, 1010
3645, 971, 390, 1266, 970
3646, 1485, 354, 39, 38
3647, 1544, 135, 1534, 1498
3648, 1074, 1077, 754, 1076
3649, 1077, 1144, 1098, 680
3650, 1074, 1144, 1077, 680
3651, 862, 962, 869, 863
3652, 920, 917, 921, 420
3653, 118, 1544, 89, 1543
3654, 904, 1376, 902, 899
3655, 1200, 254, 255, 279
3656, 1516, 1214, 1213, 1465
3657, 1099, 1153, 686, 692
3658, 1162, 356, 380, 355
3659, 1075, 1387, 688, 676
3660, 1109, 1196, 882, 1108
3661, 726, 727, 333, 332
3662, 1134, 375, 400, 399
3663, 1199, 1200, 1311, 1240
3664, 973, 972, 971, 1409
3665, 1126, 357, 358, 382
3666, 973, 971, 970, 1177
3667, 978, 979, 973, 1409
3668, 356, 1354, 1126, 332
3669, 1362, 1024, 1534, 1498
3670, 807, 917, 916, 920
3671, 601, 769, 1305, 720
3672, 978, 730, 973, 968
3673, 889, 1441, 933, 935
3674, 1414, 411, 1413, 1407
3675, 1162, 356, 381, 380
3676, 1211, 346, 370, 345
3677, 39, 766, 38, 403
3678, 936, 885, 933, 934
3679, 886, 1156, 895, 1331
3680, 1024, 1534, 1498, 1544
3681, 888, 933, 1542, 1243
3682, 1047, 360, 359, 335
3683, 964, 336, 361, 360
3684, 889, 872, 895, 1578
3685, 889, 933, 1542, 1358
3686, 1266, 366, 390, 365
3687, 964, 337, 362, 361
3688, 889, 933, 1577, 1542
3689, 1538, 21, 1544, 89
3690, 972, 338, 363, 362
3691, 960, 1255, 1253, 1398
3692, 886, 889, 895, 1358
3693, 1475, 432, 433, 457
3694, 1397, 1398, 1369, 115
3695, 1485, 767, 39, 379
3696, 1485, 1162, 767, 379
3697, 1485, 772, 773, 771
3698, 1410, 1397, 957, 1539
3699, 766, 1485, 764, 767
3700, 766, 1485, 39, 38
3701, 1264, 364, 363, 339
3702, 815, 818, 816, 1226
3703, 776, 981, 773, 777
3704, 1352, 382, 383, 407
3705, 1177, 413, 388, 389
3706, 1524, 769, 1012, 856
3707, 971, 1409, 972, 363
3708, 1264, 365, 364, 340
3709, 1266, 391, 390, 366
3710, 920, 917, 446, 447
3711, 1179, 440, 415, 416
3712, 1177, 414, 389, 390
3713, 971, 1409, 363, 388
3714, 1266, 366, 341, 342
3715, 971, 1177, 390, 970
3716, 1046, 384, 360, 385
3717, 971, 388, 1177, 1409
3718, 1356, 425, 450, 449
3719, 973, 971, 1177, 1409
3720, 1397, 115, 1369, 108
3721, 1411, 1514, 1397, 107
3722, 1029, 344, 369, 368
3723, 950, 946, 759, 1239
3724, 1397, 1539, 80, 108
3725, 1199, 946, 950, 1239
3726, 950, 762, 761, 951
3727, 363, 971, 1264, 972
3728, 950, 759, 761, 762
3729, 1411, 1514, 107, 119
3730, 866, 867, 950, 951
3731, 1232, 1211, 370, 345
3732, 956, 1497, 1255, 1514
3733, 1178, 392, 417, 416
3734, 894, 950, 946, 761
3735, 281, 762, 1240, 1573
3736, 726, 1513, 1046, 1127
3737, 1127, 726, 1044, 1046
3738, 1047, 864, 963, 1476
3739, 1167, 394, 369, 370
3740, 1055, 1176, 1119, 1213
3741, 1052, 808, 805, 918
3742, 1482, 323, 1481, 1483
3743, 1209, 1584, 325, 1433
3744, 1310, 204, 1363, 1500
3745, 419, 418, 921, 394
3746, 1432, 374, 349, 350
3747, 1209, 1584, 326, 325
3748, 1210, 372, 397, 396
3749, 1235, 349, 373, 348
3750, 1209, 1481, 851, 1584
3751, 896, 801, 904, 897
3752, 1027, 943, 941, 942
3753, 1493, 924, 401, 775
3754, 956, 1537, 1267, 1268
3755, 982, 1201, 867, 985
3756, 1007, 897, 774, 898
3757, 1356, 474, 449, 450
3758, 852, 1198, 986, 1208
3759, 1413, 411, 386, 387
3760, 1009, 351, 375, 350
3761, 1521, 1422, 1522, 1562
3762, 986, 1198, 1202, 1574
3763, 897, 1486, 801, 1481
3764, 1422, 1521, 148, 172
3765, 1466, 1260, 417, 418
3766, 1045, 385, 360, 361
3767, 1066, 399, 398, 374
3768, 852, 898, 1007, 986
3769, 771, 352, 353, 377
3770, 873, 1572, 967, 966
3771, 1209, 327, 1007, 1008
3772, 967, 869, 873, 965
3773, 869, 870, 864, 963
3774, 1117, 554, 555, 579
3775, 1001, 506, 531, 530
3776, 384, 359, 1513, 360
3777, 775, 401, 376, 377
3778, 870, 862, 868, 873
3779, 1560, 1068, 1211, 1210
3780, 873, 1575, 872, 1578
3781, 873, 943, 967, 935
3782, 771, 378, 37, 38
3783, 1575, 873, 878, 962
3784, 772, 38, 766, 378
3785, 1248, 1374, 1249, 1183
3786, 1263, 845, 938, 846
3787, 378, 402, 924, 377
3788, 1159, 407, 431, 406
3789, 1335, 40, 41, 453
3790, 1117, 579, 555, 580
3791, 1563, 355, 354, 330
3792, 581, 1515, 931, 556
3793, 1307, 914, 1237, 1511
3794, 937, 945, 1377, 1250
3795, 1441, 1577, 264, 289
3796, 1287, 46, 1040, 554
3797, 1466, 394, 418, 393
3798, 1485, 354, 379, 39
3799, 1441, 1577, 265, 264
3800, 295, 1375, 1250, 1028
3801, 1033, 1166, 367, 368
3802, 315, 1571, 935, 314
3803, 1441, 1572, 289, 314
3804, 933, 1441, 1435, 935
3805, 1177, 970, 1178, 390
3806, 1441, 935, 315, 1435
3807, 1495, 925, 1466, 728
3808, 863, 865, 1476, 864
3809, 1441, 1577, 933, 1542
3810, 1100, 567, 566, 542
3811, 1054, 46, 1586, 1010
3812, 453, 452, 1338, 1335
3813, 1116, 929, 931, 1000
3814, 1260, 417, 1178, 1495
3815, 1231, 1466, 1166, 394
3816, 963, 864, 1047, 1045
3817, 1126, 382, 381, 357
3818, 1226, 1288, 1541, 815
3819, 1117, 579, 1541, 1583
3820, 776, 1563, 773, 985
3821, 1178, 1051, 970, 1177
3822, 1231, 1166, 1167, 394
3823, 968, 973, 970, 1118
3824, 965, 1064, 1265, 967
3825, 923, 1260, 443, 1194
3826, 1157, 1028, 1280, 1250
3827, 902, 1376, 1160, 899
3828, 1029, 343, 1279, 344
3829, 1162, 767, 379, 1488
3830, 1337, 1493, 401, 775
3831, 871, 935, 873, 872
3832, 1571, 967, 935, 1572
3833, 417, 1466, 1495, 1260
3834, 1513, 384, 383, 359
3835, 1495, 1266, 367, 1178
3836, 1557, 495, 496, 520
3837, 935, 1571, 1265, 967
3838, 1434, 387, 386, 362
3839, 1264, 363, 338, 339
3840, 1157, 1280, 1245, 1250
3841, 1335, 1488, 41, 40
3842, 1045, 361, 386, 385
3843, 873, 935, 967, 1572
3844, 1520, 1352, 383, 408
3845, 1045, 1434, 1413, 386
3846, 869, 967, 870, 965
3847, 1178, 390, 391, 415
3848, 1234, 432, 407, 408
3849, 806, 1231, 1070, 922
3850, 1573, 865, 283, 951
3851, 878, 865, 951, 1330
3852, 1055, 1176, 1177, 1051
3853, 949, 878, 1331, 872
3854, 862, 863, 878, 962
3855, 1407, 435, 410, 411
3856, 971, 364, 388, 363
3857, 893, 900, 926, 1163
3858, 928, 926, 893, 900
3859, 1259, 1329, 794, 855
3860, 1178, 1266, 390, 970
3861, 1428, 1386, 1391, 1429
3862, 1032, 316, 1435, 317
3863, 1435, 1065, 315, 316
3864, 1416, 1453, 105, 1427
3865, 1231, 1232, 1233, 1211
3866, 1428, 1429, 1430, 143
3867, 971, 389, 388, 364
3868, 1451, 1391, 1568, 1254
3869, 1391, 1428, 1451, 1549
3870, 1428, 169, 1451, 1549
3871, 888, 933, 889, 1358
3872, 1204, 874, 1468, 1205
3873, 874, 1355, 1456, 1063
3874, 911, 1037, 787, 874
3875, 971, 365, 390, 389
3876, 1119, 465, 440, 441
3877, 1176, 439, 414, 415
3878, 1037, 1309, 1204, 914
3879, 1266, 391, 366, 367
3880, 1204, 502, 1309, 501
3881, 1255, 1252, 1562, 1422
3882, 961, 1085, 1252, 1220
3883, 1232, 1167, 370, 395
3884, 1421, 1562, 1420, 1252
3885, 765, 775, 1337, 1011
3886, 1157, 1377, 1028, 1250
3887, 1280, 1245, 292, 1281
3888, 1256, 1255, 1252, 1562
3889, 1145, 1256, 1253, 1255
3890, 1363, 204, 1291, 179
3891, 1413, 1407, 411, 412
3892, 1395, 1320, 1417, 1460
3893, 1310, 1364, 1363, 204
3894, 1310, 205, 1500, 1396
3895, 1351, 1020, 912, 1393
3896, 1245, 1250, 294, 269
3897, 1292, 1291, 1366, 1365
3898, 1505, 1477, 1285, 1169
3899, 1260, 442, 417, 418
3900, 1137, 954, 1079, 1291
3901, 1458, 1417, 1395, 1072
3902, 1363, 1291, 1366, 179
3903, 1166, 394, 393, 369
3904, 921, 1512, 419, 420
3905, 1480, 323, 1481, 1482
3906, 1211, 396, 395, 371
3907, 1363, 1146, 1169, 1477
3908, 1080, 1169, 1087, 1396
3909, 1158, 405, 1159, 827
3910, 1381, 535, 1319, 560
3911, 562, 1460, 561, 1458
3912, 1489, 667, 679, 704
3913, 381, 1161, 406, 382
3914, 780, 1158, 1336, 767
3915, 1050, 1230, 1340, 1158
3916, 1381, 1319, 1460, 560
3917, 1126, 1050, 776, 780
3918, 1050, 1158, 1161, 1230
3919, 1576, 489, 464, 465
3920, 1161, 1127, 1230, 1352
3921, 1395, 975, 560, 585
3922, 202, 1137, 203, 1140
3923, 1070, 397, 422, 421
3924, 1066, 374, 398, 373
3925, 1174, 861, 250, 855
3926, 1380, 562, 1460, 1319
3927, 1259, 855, 853, 861
3928, 790, 1364, 253, 228
3929, 1021, 510, 1474, 535
3930, 1142, 1364, 253, 790
3931, 794, 855, 251, 252
3932, 1174, 225, 1329, 250
3933, 1329, 1138, 226, 225
3934, 1182, 448, 423, 424
3935, 928, 927, 900, 899
3936, 1069, 376, 400, 375
3937, 920, 421, 446, 445
3938, 796, 1259, 1138, 794
3939, 1199, 1311, 1141, 789
3940, 766, 428, 403, 39
3941, 1146, 1173, 1149, 1148
3942, 1069, 376, 401, 400
3943, 425, 424, 1011, 400
3944, 789, 1291, 1363, 1364
3945, 1087, 1199, 1396, 1246
3946, 894, 1156, 949, 947
3947, 1191, 1247, 1246, 1188
3948, 844, 1253, 1145, 1256
3949, 709, 742, 847, 1085
3950, 1094, 1350, 685, 684
3951, 1162, 379, 380, 404
3952, 827, 429, 405, 430
3953, 1337, 426, 401, 402
3954, 894, 893, 866, 872
3955, 403, 402, 924, 378
3956, 1087, 1246, 1247, 946
3957, 301, 861, 851, 849
3958, 852, 853, 1198, 850
3959, 1042, 44, 553, 528
3960, 1174, 1175, 1138, 224
3961, 954, 1147, 1140, 957
3962, 1535, 1477, 155, 1505
3963, 1070, 397, 421, 396
3964, 861, 1480, 274, 299
3965, 1307, 528, 43, 44
3966, 1584, 1481, 851, 1480
3967, 1309, 527, 526, 502
3968, 849, 301, 861, 276
3969, 1535, 131, 813, 1506
3970, 1307, 1587, 44, 479
3971, 1162, 404, 380, 405
3972, 276, 251, 275, 861
3973, 1512, 919, 921, 923
3974, 300, 299, 1584, 861
3975, 994, 1082, 568, 569
3976, 960, 1369, 957, 1397
3977, 968, 723, 730, 1118
3978, 1149, 1535, 154, 129
3979, 1326, 839, 1369, 115
3980, 1326, 1530, 839, 115
3981, 1219, 1172, 839, 1558
3982, 1219, 712, 1525, 1359
3983, 827, 429, 404, 405
3984, 553, 44, 1042, 45
3985, 959, 1369, 1147, 957
3986, 1535, 1477, 154, 155
3987, 1173, 840, 1506, 813
3988, 1148, 959, 1326, 1368
3989, 959, 954, 1146, 953
3990, 1219, 1253, 1555, 1530
3991, 1188, 1247, 1189, 795
3992, 260, 1331, 236, 949
3993, 1104, 857, 539, 1321
3994, 1276, 708, 1358, 845
3995, 1414, 386, 411, 410
3996, 862, 982, 867, 865
3997, 258, 762, 948, 760
3998, 986, 1574, 1202, 1547
3999, 1362, 1534, 1348, 1532
4000, 1017, 1011, 804, 765
4001, 129, 1535, 130, 1527
4002, 1413, 387, 412, 411
4003, 717, 1362, 1532, 1501
4004, 850, 302, 278, 303
4005, 1470, 410, 434, 409
4006, 1527, 1535, 130, 813
4007, 714, 713, 716, 712
4008, 795, 1191, 1247, 1190
4009, 1516, 463, 438, 439
4010, 950, 762, 1240, 759
4011, 430, 406, 1159, 431
4012, 1064, 967, 1031, 1265
4013, 1560, 1211, 346, 371
4014, 946, 947, 1189, 1247
4015, 1141, 1311, 1207, 1142
4016, 1240, 762, 257, 759
4017, 1141, 1200, 1207, 1311
4018, 1207, 1202, 35, 279
4019, 1235, 1560, 1210, 1068
4020, 1180, 1181, 423, 447
4021, 1322, 1207, 1198, 1202
4022, 1278, 1495, 1118, 1266
4023, 1214, 413, 438, 437
4024, 1493, 403, 427, 402
4025, 1119, 441, 466, 465
4026, 1201, 986, 1547, 985
4027, 1207, 1200, 1202, 279
4028, 1177, 414, 413, 389
4029, 464, 1518, 463, 488
4030, 1322, 34, 1207, 35
4031, 1200, 1207, 1311, 254
4032, 737, 1254, 1359, 1253
4033, 1177, 415, 414, 390
4034, 796, 944, 1164, 903
4035, 847, 1391, 1261, 1263
4036, 1178, 416, 391, 392
4037, 1479, 1486, 1235, 348
4038, 938, 936, 888, 1243
4039, 1019, 1426, 485, 484
4040, 796, 1165, 1220, 1175
4041, 1210, 1211, 371, 396
4042, 737, 847, 1391, 1254
4043, 1262, 1251, 1567, 1392
4044, 1273, 1442, 1390, 1272
4045, 1361, 1443, 1442, 1273
4046, 1179, 442, 441, 417
4047, 1361, 1529, 1443, 1531
4048, 304, 1545, 279, 1547
4049, 709, 845, 1274, 846
4050, 711, 713, 1361, 1086
4051, 1466, 393, 418, 417
4052, 1333, 713, 1332, 1348
4053, 1100, 858, 1005, 540
4054, 419, 923, 443, 444
4055, 1104, 563, 1436, 1380
4056, 921, 394, 395, 419
4057, 1070, 1210, 396, 1211
4058, 1104, 1380, 538, 563
4059, 1153, 692, 687, 686
4060, 1104, 860, 857, 1321
4061, 1104, 857, 540, 539
4062, 755, 1490, 1438, 753
4063, 1120, 754, 1077, 1121
4064, 395, 1070, 420, 396
4065, 1412, 409, 384, 385
4066, 1134, 1013, 399, 400
4067, 1489, 1076, 679, 671
4068, 704, 1122, 1098, 1489
4069, 1520, 408, 383, 384
4070, 799, 1134, 802, 1486
4071, 772, 924, 766, 765
4072, 1181, 423, 447, 422
4073, 759, 1240, 256, 257
4074, 1185, 399, 423, 398
4075, 1489, 1295, 67, 68
4076, 1489, 1295, 68, 1122
4077, 1141, 1311, 1199, 1200
4078, 1126, 382, 358, 383
4079, 1055, 1052, 1057, 1119
4080, 821, 832, 825, 827
4081, 1520, 408, 384, 409
4082, 1488, 404, 40, 379
4083, 1411, 80, 1397, 1539
4084, 830, 1061, 1338, 1238
4085, 1588, 435, 459, 434
4086, 1337, 426, 402, 427
4087, 822, 830, 1238, 1061
4088, 804, 779, 1336, 765
4089, 388, 1409, 413, 1177
4090, 762, 760, 258, 257
4091, 1469, 426, 450, 425
4092, 1337, 426, 427, 451
4093, 1516, 1570, 1576, 1195
4094, 1011, 426, 425, 401
4095, 1516, 1570, 463, 464
4096, 1303, 550, 525, 526
4097, 46, 1553, 1010, 1054
4098, 828, 455, 430, 431
4099, 1516, 1576, 465, 1195
4100, 990, 1349, 841, 1339
4101, 1496, 1411, 1539, 80
4102, 1488, 429, 41, 404
4103, 257, 760, 759, 762
4104, 1119, 465, 1516, 440
4105, 753, 1216, 1491, 749
4106, 1438, 612, 1437, 1554
4107, 670, 669, 693, 1078
4108, 766, 428, 39, 40
4109, 1074, 1075, 1078, 744
4110, 427, 428, 1335, 452
4111, 1356, 425, 449, 424
4112, 603, 1053, 1586, 856
4113, 1474, 511, 536, 535
4114, 383, 1127, 1520, 1513
4115, 383, 1126, 1352, 1127
4116, 385, 1414, 1045, 1046
4117, 1047, 1045, 360, 335
4118, 1588, 436, 460, 435
4119, 1513, 1520, 383, 384
4120, 1537, 1268, 174, 175
4121, 1513, 1520, 384, 1046
4122, 1353, 1545, 306, 305
4123, 1013, 424, 399, 400
4124, 1127, 1050, 776, 1126
4125, 985, 984, 1353, 1357
4126, 1563, 780, 1354, 776
4127, 405, 406, 1159, 430
4128, 1338, 452, 453, 1585
4129, 920, 422, 447, 446
4130, 1353, 306, 1546, 1357
4131, 1353, 306, 1357, 307
4132, 1189, 759, 760, 761
4133, 1015, 804, 805, 1136
4134, 1063, 1355, 1456, 1184
4135, 1497, 1268, 173, 174
4136, 454, 827, 1306, 829
4137, 952, 1267, 956, 955
4138, 1205, 875, 474, 499
4139, 1205, 874, 1355, 875
4140, 1133, 1011, 1182, 1013
4141, 1159, 432, 431, 407
4142, 1355, 875, 874, 1456
4143, 782, 905, 783, 1305
4144, 1214, 437, 412, 413
4145, 916, 808, 922, 925
4146, 784, 1418, 1301, 1303
4147, 1299, 990, 989, 991
4148, 828, 456, 455, 431
4149, 923, 1260, 418, 443
4150, 1210, 396, 371, 372
4151, 1508, 469, 1030, 1346
4152, 1497, 149, 1537, 174
4153, 757, 758, 989, 991
4154, 1403, 490, 465, 466
4155, 461, 436, 460, 1588
4156, 923, 919, 877, 1508
4157, 1508, 1192, 1402, 877
4158, 1470, 435, 434, 410
4159, 1346, 1030, 877, 1557
4160, 1407, 412, 437, 436
4161, 1052, 1192, 923, 918
4162, 919, 444, 1030, 1508
4163, 1427, 1430, 1429, 1453
4164, 1427, 1256, 1416, 1253
4165, 1426, 460, 484, 459
4166, 1083, 993, 994, 1082
4167, 594, 569, 1082, 1083
4168, 1117, 1282, 1116, 1287
4169, 1347, 462, 461, 437
4170, 1083, 1580, 595, 1328
4171, 993, 1083, 994, 995
4172, 1496, 1537, 1497, 149
4173, 1108, 1402, 876, 999
4174, 879, 1003, 997, 1004
4175, 1465, 438, 413, 414
4176, 1557, 996, 1423, 1425
4177, 1214, 438, 463, 462
4178, 537, 1321, 513, 512
4179, 1398, 1255, 1253, 1416
4180, 1465, 439, 438, 414
4181, 520, 1423, 521, 1557
4182, 930, 558, 533, 534
4183, 1104, 538, 1321, 539
4184, 993, 995, 841, 1349
4185, 1193, 491, 467, 492
4186, 1002, 1455, 1312, 1423
4187, 1176, 440, 439, 415
4188, 1403, 466, 491, 490
4189, 1359, 1415, 1525, 1555
4190, 1423, 1312, 546, 1424
4191, 1315, 1114, 1463, 1581
4192, 996, 997, 519, 1423
4193, 519, 544, 520, 1423
4194, 1179, 417, 441, 416
4195, 1525, 1558, 1555, 126
4196, 1178, 416, 415, 391
4197, 1030, 917, 446, 445
4198, 1423, 521, 1425, 546
4199, 1423, 521, 1557, 1425
4200, 1120, 977, 974, 976
4201, 837, 751, 747, 1349
4202, 1395, 1072, 975, 1458
4203, 921, 420, 419, 395
4204, 1120, 1073, 977, 1226
4205, 1120, 1121, 1077, 1122
4206, 1121, 977, 975, 974
4207, 1120, 1095, 1077, 1097
4208, 1493, 427, 403, 428
4209, 1299, 1304, 1300, 1327
4210, 598, 1300, 1400, 599
4211, 1304, 1083, 1454, 1328
4212, 988, 757, 1298, 989
4213, 1436, 1492, 1459, 589
4214, 820, 988, 992, 1445
4215, 1380, 1321, 860, 1104
4216, 1320, 1380, 1460, 1319
4217, 757, 758, 991, 719
4218, 1022, 1290, 1025, 929
4219, 1355, 473, 448, 449
4220, 1460, 1319, 562, 561
4221, 1461, 618, 1463, 617
4222, 825, 1464, 456, 457
4223, 1525, 126, 1526, 1558
4224, 1555, 1415, 1530, 1253
4225, 719, 1299, 758, 991
4226, 1119, 1195, 465, 466
4227, 988, 1323, 1296, 1445
4228, 597, 572, 596, 1454
4229, 1002, 1312, 1455, 995
4230, 988, 1323, 1399, 1296
4231, 1083, 995, 1312, 1002
4232, 1454, 1424, 572, 1312
4233, 1336, 779, 767, 765
4234, 1423, 1312, 1002, 545
4235, 1102, 1492, 1436, 589
4236, 1236, 42, 829, 454
4237, 1180, 448, 473, 472
4238, 1180, 1355, 1184, 1456
4239, 1312, 547, 1424, 572
4240, 1423, 546, 1312, 545
4241, 1306, 42, 41, 429
4242, 1054, 1583, 579, 47
4243, 1516, 464, 440, 465
4244, 546, 547, 1424, 1312
4245, 1456, 472, 497, 496
4246, 1314, 1325, 1105, 647
4247, 817, 1288, 1154, 770
4248, 1337, 451, 427, 452
4249, 991, 770, 817, 1154
4250, 1244, 933, 936, 1243
4251, 1356, 450, 475, 474
4252, 1243, 936, 1245, 1241
4253, 888, 845, 1277, 1358
4254, 241, 1244, 1542, 266
4255, 1469, 426, 451, 450
4256, 1107, 493, 492, 468
4257, 1555, 126, 1558, 121
4258, 889, 1572, 872, 1578
4259, 888, 936, 933, 1243
4260, 1308, 476, 451, 452
4261, 871, 889, 935, 872
4262, 1191, 1258, 717, 741
4263, 949, 947, 1156, 235
4264, 1335, 428, 40, 453
4265, 795, 1190, 210, 209
4266, 1124, 1470, 1588, 1343
4267, 1214, 462, 437, 438
4268, 1475, 433, 458, 457
4269, 41, 1338, 453, 1585
4270, 234, 947, 259, 235
4271, 947, 259, 235, 949
4272, 823, 479, 454, 455
4273, 453, 477, 1585, 452
4274, 455, 829, 827, 454
4275, 1156, 1190, 236, 235
4276, 825, 456, 431, 432
4277, 1237, 1236, 43, 42
4278, 1099, 690, 692, 686
4279, 1289, 506, 482, 507
4280, 886, 894, 949, 872
4281, 1234, 433, 432, 408
4282, 1237, 503, 43, 1307
4283, 886, 1156, 887, 1358
4284, 1580, 1324, 1325, 620
4285, 1343, 483, 458, 459
4286, 1234, 1352, 408, 407
4287, 988, 1444, 1297, 1298
4288, 1222, 992, 1448, 691
4289, 1104, 564, 539, 540
4290, 1222, 1448, 992, 819
4291, 814, 1099, 1097, 1144
4292, 1343, 458, 433, 434
4293, 751, 749, 753, 1089
4294, 1167, 370, 395, 394
4295, 816, 1097, 814, 1151
4296, 1464, 826, 823, 480
4297, 754, 756, 816, 1097
4298, 820, 1445, 992, 1446
4299, 820, 1106, 1445, 1446
4300, 992, 988, 1444, 1297
4301, 1234, 409, 434, 433
4302, 1012, 628, 1524, 856
4303, 1152, 75, 1150, 1313
4304, 1120, 1096, 1097, 1151
4305, 814, 1152, 746, 819
4306, 1407, 411, 436, 435
4307, 1180, 472, 447, 448
4308, 1152, 1313, 640, 75
4309, 1321, 513, 514, 538
4310, 1181, 422, 397, 398
4311, 755, 744, 1078, 753
4312, 3, 1313, 656, 1387
4313, 1555, 1415, 125, 127
4314, 1019, 509, 484, 485
4315, 1216, 661, 1462, 701
4316, 1490, 1216, 666, 665
4317, 1588, 460, 459, 435
4318, 1439, 1440, 1076, 693
4319, 1112, 1216, 1114, 663
4320, 1347, 461, 436, 437
4321, 1581, 619, 1325, 58
4322, 1216, 701, 1114, 663
4323, 1490, 1438, 65, 1440
4324, 825, 828, 823, 821
4325, 920, 446, 421, 422
4326, 1216, 661, 1491, 1462
4327, 699, 1325, 648, 1323
4328, 1325, 648, 1323, 1105
4329, 447, 1180, 448, 423
4330, 1580, 1325, 1581, 619
4331, 913, 1022, 826, 1393
4332, 909, 913, 1286, 914
4333, 1508, 444, 469, 468
4334, 1382, 1343, 1026, 1393
4335, 1518, 487, 462, 463
4336, 1025, 508, 533, 532
4337, 1026, 508, 1025, 507
4338, 1382, 484, 1019, 1026
4339, 1581, 58, 1325, 700
4340, 1021, 534, 1381, 1023
4341, 888, 1277, 1542, 1358
4342, 1402, 1557, 763, 1346
4343, 1026, 508, 483, 484
4344, 940, 893, 866, 900
4345, 891, 790, 252, 855
4346, 1343, 1393, 831, 1475
4347, 1518, 463, 488, 487
4348, 467, 1193, 1107, 1194
4349, 950, 946, 761, 759
4350, 1516, 464, 463, 439
4351, 866, 1163, 950, 867
4352, 1087, 1396, 1169, 1246
4353, 1394, 511, 510, 486
4354, 1348, 1534, 716, 1543
4355, 1530, 1555, 1558, 121
4356, 713, 1332, 1348, 1345
4357, 1473, 1275, 1272, 706
4358, 1194, 442, 466, 441
4359, 1314, 1325, 647, 700
4360, 713, 1361, 1342, 710
4361, 1117, 1001, 1287, 1116
4362, 713, 1561, 1086, 707
4363, 1306, 42, 429, 454
4364, 717, 1362, 1348, 1532
4365, 1362, 1348, 1534, 716
4366, 717, 1257, 1373, 707
4367, 1508, 877, 1030, 919
4368, 1166, 393, 368, 369
4369, 478, 1238, 1306, 1585
4370, 1066, 373, 398, 397
4371, 877, 1557, 1030, 1564
4372, 1193, 467, 491, 466
4373, 412, 1409, 1413, 1408
4374, 877, 1402, 1557, 1564
4375, 880, 1103, 1100, 567
4376, 877, 918, 917, 919
4377, 391, 1178, 392, 367
4378, 1180, 920, 447, 917
4379, 877, 917, 1184, 1456
4380, 877, 875, 876, 1564
4381, 1194, 467, 443, 468
4382, 1470, 1229, 1412, 1401
4383, 1030, 917, 1456, 471
4384, 1030, 470, 445, 446
4385, 1557, 496, 1030, 1564
4386, 1417, 1072, 1458, 1457
4387, 978, 1056, 1408, 973
4388, 1470, 409, 1401, 1412
4389, 1360, 1155, 1359, 1453
4390, 1234, 1343, 1475, 433
4391, 1343, 1475, 433, 458
4392, 1081, 591, 1461, 1271
4393, 1124, 1128, 831, 1393
4394, 1219, 1525, 1558, 1555
4395, 1456, 447, 472, 471
4396, 1229, 1124, 1034, 1131
4397, 1124, 1588, 1470, 1347
4398, 1131, 825, 1475, 831
4399, 832, 1088, 830, 824
4400, 1528, 524, 523, 499
4401, 708, 718, 1276, 887
4402, 875, 473, 497, 472
4403, 914, 1587, 1307, 1236
4404, 1168, 1370, 1173, 1172
4405, 1258, 1191, 1087, 741
4406, 1378, 1316, 1319, 1474
4407, 1468, 501, 500, 476
4408, 1025, 929, 930, 1023
4409, 1391, 1360, 1390, 737
4410, 717, 718, 1257, 707
4411, 1026, 507, 482, 483
4412, 735, 1034, 805, 1115
4413, 1358, 845, 1277, 1276
4414, 1282, 1541, 1117, 1226
4415, 717, 1348, 1333, 1532
4416, 900, 893, 866, 1163
4417, 713, 1561, 707, 1333
4418, 228, 32, 1364, 253
4419, 1576, 1518, 488, 1484
4420, 1270, 198, 1268, 199
4421, 1355, 474, 473, 449
4422, 1364, 204, 1565, 32
4423, 1236, 454, 479, 43
4424, 882, 1576, 1130, 1196
4425, 1576, 1195, 882, 1403
4426, 1518, 1576, 464, 1570
4427, 1576, 1195, 1403, 465
4428, 1477, 1169, 1173, 1146
4429, 1205, 475, 500, 499
4430, 1516, 465, 1576, 464
4431, 772, 773, 774, 764
4432, 1530, 1415, 127, 1416
4433, 775, 1069, 376, 401
4434, 781, 833, 783, 907
4435, 446, 917, 471, 447
4436, 478, 477, 1585, 453
4437, 765, 775, 1011, 778
4438, 1456, 496, 471, 472
4439, 1009, 775, 1069, 376
4440, 505, 1290, 480, 504
4441, 1512, 444, 419, 420
4442, 839, 1148, 1172, 1219
4443, 1370, 1173, 1172, 840
4444, 1194, 467, 442, 443
4445, 1308, 477, 478, 502
4446, 1308, 501, 477, 502
4447, 1351, 1020, 1382, 1378
4448, 1470, 1412, 1407, 410
4449, 1030, 1456, 496, 471
4450, 1370, 840, 1172, 1540
4451, 1168, 1170, 741, 1169
4452, 959, 953, 1148, 1326
4453, 455, 1464, 480, 456
4454, 1199, 946, 1246, 1087
4455, 715, 1171, 712, 716
4456, 1213, 1516, 1195, 1570
4457, 1312, 1002, 545, 570
4458, 115, 1326, 1398, 1369
4459, 1237, 503, 42, 43
4460, 1051, 1179, 1194, 1119
4461, 480, 1464, 481, 456
4462, 1044, 1049, 1127, 1046
4463, 978, 1048, 1414, 1412
4464, 1057, 1056, 1213, 1123
4465, 1285, 1188, 1169, 1246
4466, 1303, 550, 549, 525
4467, 1290, 481, 505, 480
4468, 1049, 1412, 1229, 1401
4469, 1048, 1414, 1412, 1046
4470, 1045, 1046, 360, 385
4471, 53, 694, 635, 1444
4472, 1444, 626, 1533, 51
4473, 839, 115, 1530, 121
4474, 1426, 485, 460, 461
4475, 413, 1408, 1409, 412
4476, 1394, 510, 485, 486
4477, 839, 1558, 114, 121
4478, 1566, 1239, 1246, 1396
4479, 1239, 231, 256, 255
4480, 757, 624, 758, 625
4481, 757, 719, 991, 720
4482, 1484, 857, 514, 515
4483, 1426, 485, 484, 460
4484, 625, 600, 719, 720
4485, 1444, 720, 1533, 626
4486, 1026, 509, 508, 484
4487, 1566, 232, 1189, 759
4488, 1078, 677, 672, 670
4489, 820, 988, 1445, 748
4490, 1100, 566, 541, 542
4491, 989, 990, 748, 987
4492, 1517, 486, 461, 462
4493, 974, 583, 976, 584
4494, 1381, 559, 534, 535
4495, 1494, 559, 975, 584
4496, 1517, 462, 487, 486
4497, 839, 840, 114, 1558
4498, 1161, 405, 381, 406
4499, 1104, 564, 563, 539
4500, 1379, 1494, 1023, 559
4501, 1468, 475, 451, 476
4502, 1146, 1477, 1149, 1173
4503, 1450, 1447, 1562, 146
4504, 1494, 976, 582, 583
4505, 975, 976, 977, 1494
4506, 987, 1154, 991, 817
4507, 1043, 719, 1418, 1305
4508, 1043, 574, 1300, 573
4509, 784, 1419, 1301, 788
4510, 1430, 144, 82, 1449
4511, 712, 1171, 1526, 716
4512, 1427, 1254, 1450, 1256
4513, 854, 1198, 853, 850
4514, 1209, 897, 851, 1481
4515, 1568, 1450, 171, 1451
4516, 1576, 489, 488, 464
4517, 1375, 1510, 1028, 295
4518, 1351, 1128, 910, 1317
4519, 1476, 333, 1047, 725
4520, 1435, 292, 317, 316
4521, 1245, 269, 294, 293
4522, 869, 965, 964, 962
4523, 1241, 244, 1245, 243
4524, 1197, 853, 896, 900
4525, 937, 1377, 1157, 1250
4526, 1245, 269, 293, 268
4527, 854, 1142, 1141, 1207
4528, 948, 762, 258, 283
4529, 1183, 246, 1249, 1567
4530, 760, 762, 948, 761
4531, 854, 1207, 890, 1142
4532, 1331, 286, 285, 261
4533, 1244, 267, 292, 291
4534, 1441, 290, 289, 265
4535, 1001, 530, 531, 1000
4536, 1331, 237, 895, 262
4537, 1137, 1291, 1367, 954
4538, 1174, 1329, 855, 250
4539, 1435, 315, 290, 291
4540, 861, 251, 275, 250
4541, 854, 277, 855, 891
4542, 1186, 1482, 1187, 903
4543, 1257, 1373, 707, 1503
4544, 765, 778, 779, 764
4545, 981, 1201, 985, 986
4546, 37, 1547, 1574, 773
4547, 806, 732, 1233, 728
4548, 250, 855, 861, 251
4549, 297, 322, 298, 1482
4550, 1205, 499, 474, 475
4551, 939, 982, 940, 868
4552, 1566, 207, 1189, 232
4553, 986, 773, 1007, 1574
4554, 1388, 1305, 575, 576
4555, 1303, 1388, 551, 1039
4556, 875, 474, 498, 473
4557, 782, 786, 906, 915
4558, 1418, 719, 1043, 574
4559, 1418, 575, 1305, 719
4560, 1564, 1456, 877, 875
4561, 1388, 1039, 1389, 551
4562, 1418, 1303, 550, 549
4563, 1353, 306, 331, 330
4564, 1021, 510, 534, 509
4565, 1511, 527, 1042, 1309
4566, 909, 913, 912, 1284
4567, 1039, 551, 1303, 526
4568, 116, 1525, 1345, 1155
4569, 1389, 1041, 553, 1042
4570, 1040, 1511, 1042, 915
4571, 1025, 508, 532, 507
4572, 1042, 45, 1040, 1041
4573, 787, 911, 874, 876
4574, 1375, 271, 272, 296
4575, 908, 578, 1389, 1041
4576, 1375, 272, 1482, 297
4577, 610, 1439, 1437, 1295
4578, 1504, 1425, 522, 547
4579, 823, 1587, 504, 1290
4580, 1439, 1489, 1076, 1295
4581, 1511, 503, 1307, 528
4582, 820, 746, 1313, 819
4583, 875, 499, 498, 474
4584, 1094, 1099, 1151, 1153
4585, 828, 455, 823, 829
4586, 913, 1587, 914, 1236
4587, 1389, 577, 553, 578
4588, 1425, 497, 522, 521
4589, 1511, 44, 528, 1307
4590, 1144, 683, 1099, 1097
4591, 1237, 478, 42, 503
4592, 1476, 333, 309, 334
4593, 1480, 1482, 904, 903
4594, 1110, 653, 1314, 649
4595, 745, 744, 747, 1114
4596, 1077, 679, 1076, 672
4597, 1110, 649, 1113, 653
4598, 358, 333, 357, 726
4599, 1077, 1121, 1295, 1122
4600, 1236, 43, 42, 454
4601, 1077, 1144, 1097, 1098
4602, 865, 1476, 725, 308
4603, 840, 1149, 813, 1173
4604, 1474, 511, 535, 510
4605, 1173, 1535, 1505, 1477
4606, 1173, 1169, 1505, 1371
4607, 725, 333, 727, 308
4608, 1504, 875, 497, 1564
4609, 826, 1289, 1022, 1290
4610, 823, 479, 480, 504
4611, 1000, 530, 555, 554
4612, 1197, 1200, 1203, 1202
4613, 727, 332, 308, 333
4614, 931, 532, 557, 556
4615, 826, 825, 831, 1289
4616, 1511, 527, 502, 503
4617, 1370, 157, 1371, 1506
4618, 1004, 518, 542, 517
4619, 823, 1236, 479, 1587
4620, 826, 1290, 481, 1289
4621, 479, 1587, 504, 823
4622, 1290, 506, 505, 481
4623, 1280, 1245, 1250, 294
4624, 1380, 562, 538, 563
4625, 488, 1484, 1509, 513
4626, 824, 826, 831, 1393
4627, 913, 1587, 823, 1290
4628, 1025, 531, 929, 506
4629, 1289, 506, 481, 482
4630, 1374, 1183, 246, 1249
4631, 1022, 1025, 1023, 929
4632, 1026, 1022, 1393, 1289
4633, 914, 915, 1511, 1286
4634, 1117, 554, 1000, 555
4635, 487, 488, 1518, 1509
4636, 1025, 506, 929, 1290
4637, 377, 1008, 376, 775
4638, 1432, 349, 1235, 1486
4639, 1006, 1068, 1134, 1066
4640, 799, 897, 1486, 801
4641, 184, 1227, 183, 1188
4642, 1019, 510, 509, 485
4643, 1068, 1210, 1235, 1066
4644, 1237, 1309, 1204, 502
4645, 930, 557, 532, 533
4646, 930, 559, 558, 534
4647, 1110, 1112, 655, 658
4648, 1563, 330, 1354, 355
4649, 1394, 511, 486, 487
4650, 527, 1042, 1309, 1389
4651, 1394, 487, 512, 511
4652, 908, 1305, 883, 770
4653, 1040, 1587, 504, 44
4654, 1511, 1309, 1042, 915
4655, 1163, 1199, 1240, 1200
4656, 1563, 1547, 304, 329
4657, 1150, 75, 690, 74
4658, 865, 863, 878, 862
4659, 1162, 1161, 1126, 780
4660, 799, 1009, 1134, 1432
4661, 538, 514, 1321, 539
4662, 1484, 489, 513, 488
4663, 1048, 1413, 1045, 979
4664, 1425, 522, 547, 546
4665, 968, 972, 973, 979
4666, 1374, 272, 1375, 271
4667, 1044, 1049, 1036, 1127
4668, 1282, 1541, 1288, 1553
4669, 861, 300, 275, 276
4670, 948, 283, 258, 259
4671, 1541, 1151, 1294, 1226
4672, 1541, 1117, 1583, 1553
4673, 1321, 1474, 512, 537
4674, 1375, 296, 272, 297
4675, 1541, 1224, 1583, 579
4676, 1519, 1541, 604, 1224
4677, 921, 923, 418, 419
4678, 923, 418, 419, 443
4679, 857, 514, 515, 539
4680, 1563, 1485, 354, 1354
4681, 1134, 400, 1069, 1013
4682, 917, 919, 420, 445
4683, 1546, 281, 1240, 1573
4684, 1070, 420, 921, 395
4685, 920, 445, 420, 421
4686, 1432, 374, 1235, 349
4687, 1068, 1134, 1235, 1486
4688, 1068, 1134, 1066, 1235
4689, 373, 372, 1066, 1235
4690, 1005, 541, 540, 516
4691, 444, 1030, 445, 919
4692, 1235, 348, 1486, 349
4693, 1380, 1321, 538, 537
4694, 1302, 572, 547, 548
4695, 1176, 1516, 439, 440
4696, 1196, 1195, 1576, 1570
4697, 1130, 1317, 1196, 1125
4698, 1195, 1119, 1194, 466
4699, 860, 1380, 1319, 1321
4700, 1516, 464, 1576, 1570
4701, 1423, 997, 519, 544
4702, 794, 227, 252, 251
4703, 33, 32, 253, 1565
4704, 1563, 1354, 354, 355
4705, 1517, 487, 1394, 486
4706, 965, 966, 312, 962
4707, 441, 466, 1194, 1119
4708, 1504, 498, 522, 497
4709, 1423, 546, 545, 521
4710, 1380, 537, 538, 562
4711, 1576, 1484, 1403, 882
4712, 1528, 499, 523, 498
4713, 1195, 1403, 466, 1193
4714, 598, 1300, 597, 1400
4715, 775, 1011, 778, 1069
4716, 599, 1300, 719, 574
4717, 1002, 569, 544, 545
4718, 1129, 1588, 1347, 461
4719, 1082, 593, 568, 569
4720, 1493, 765, 775, 1337
4721, 965, 869, 873, 962
4722, 1015, 1017, 1136, 830
4723, 1546, 1357, 306, 281
4724, 1485, 771, 38, 772
4725, 1587, 44, 479, 504
4726, 840, 813, 103, 110
4727, 1336, 1335, 767, 1488
4728, 1135, 1340, 1336, 1136
4729, 1206, 525, 500, 501
4730, 1135, 1306, 1335, 1488
4731, 978, 1408, 1056, 1407
4732, 1495, 392, 1166, 1466
4733, 1565, 1310, 229, 204
4734, 1587, 1236, 479, 1307
4735, 806, 922, 1070, 920
4736, 916, 923, 919, 918
4737, 1466, 393, 1166, 394
4738, 1146, 1366, 1363, 1365
4739, 1148, 1368, 103, 1527
4740, 1389, 551, 526, 527
4741, 908, 770, 883, 1010
4742, 1231, 395, 921, 394
4743, 716, 1543, 1526, 1345
4744, 1332, 1333, 163, 1561
4745, 1511, 503, 528, 527
4746, 1348, 1543, 1344, 1534
4747, 1125, 1128, 1317, 1218
4748, 954, 1137, 1140, 1367
4749, 1540, 110, 1536, 840
4750, 1026, 483, 1289, 1475
4751, 1290, 1022, 1025, 1289
4752, 528, 552, 1042, 527
4753, 1025, 929, 531, 532
4754, 1001, 505, 529, 504
4755, 1001, 506, 530, 505
4756, 1083, 595, 594, 570
4757, 1137, 790, 227, 228
4758, 1020, 1023, 1284, 1022
4759, 1343, 1124, 1129, 1588
4760, 787, 999, 910, 876
4761, 32, 1364, 253, 1565
4762, 1001, 1290, 505, 504
4763, 1150, 746, 1313, 1387
4764, 753, 749, 1459, 1417
4765, 834, 860, 785, 881
4766, 1565, 33, 204, 229
4767, 1026, 508, 507, 483
4768, 1040, 45, 504, 529
4769, 1309, 526, 501, 502
4770, 682, 1144, 683, 680
4771, 1078, 669, 693, 1440
4772, 755, 1078, 1490, 753
4773, 1099, 692, 1152, 1153
4774, 1120, 816, 754, 1073
4775, 1094, 1153, 687, 686
4776, 378, 38, 766, 403
4777, 1291, 1364, 32, 204
4778, 1479, 322, 1483, 323
4779, 842, 818, 817, 1212
4780, 402, 1337, 1493, 401
4781, 1206, 1204, 501, 500
4782, 815, 1541, 1151, 1224
4783, 1173, 1149, 813, 1535
4784, 1151, 1153, 1224, 1519
4785, 1120, 1096, 1293, 1095
4786, 1094, 1153, 1151, 1519
4787, 1000, 531, 555, 530
4788, 1542, 1243, 1277, 888
4789, 1160, 942, 1027, 1377
4790, 866, 868, 940, 867
4791, 1312, 571, 570, 546
4792, 1389, 552, 551, 527
4793, 873, 1575, 878, 872
4794, 1410, 1404, 957, 955
4795, 1265, 935, 1031, 315
4796, 873, 872, 935, 1572
4797, 994, 544, 568, 543
4798, 1474, 536, 1319, 535
4799, 1018, 534, 533, 509
4800, 403, 924, 1493, 766
4801, 852, 326, 851, 301
4802, 930, 533, 558, 557
4803, 1404, 1405, 152, 1539
4804, 896, 899, 853, 903
4805, 1021, 535, 534, 510
4806, 896, 1197, 986, 1198
4807, 1584, 324, 1433, 1481
4808, 1480, 1584, 324, 299
4809, 1367, 1137, 1140, 203
4810, 1002, 570, 569, 545
4811, 1104, 539, 563, 538
4812, 1404, 152, 1406, 177
4813, 1370, 1173, 840, 1506
4814, 1474, 512, 537, 536
4815, 1250, 1280, 294, 1028
4816, 1474, 512, 536, 511
4817, 1507, 328, 36, 353
4818, 1406, 1140, 177, 178
4819, 1157, 1027, 1279, 1028
4820, 1507, 37, 353, 36
4821, 1301, 573, 549, 574
4822, 293, 1280, 1245, 292
4823, 1319, 560, 535, 536
4824, 1280, 317, 1281, 292
4825, 1460, 1458, 562, 1380
4826, 1280, 1279, 319, 1028
4827, 1279, 1280, 317, 1281
4828, 1404, 1539, 1369, 1405
4829, 1502, 1358, 1156, 895
4830, 893, 894, 950, 892
4831, 416, 415, 1179, 1178
4832, 1004, 541, 517, 542
4833, 872, 1331, 1578, 1575
4834, 1507, 774, 1007, 1008
4835, 873, 966, 1578, 1572
4836, 1507, 353, 352, 328
4837, 1504, 1301, 548, 1528
4838, 809, 902, 942, 1160
4839, 928, 934, 899, 940
4840, 892, 1199, 791, 1087
4841, 862, 982, 868, 867
4842, 1515, 581, 1117, 556
4843, 841, 1349, 1304, 1339
4844, 913, 1236, 823, 1587
4845, 1521, 1562, 147, 172
4846, 1406, 1367, 30, 1292
4847, 1521, 147, 1447, 97
4848, 1020, 1023, 1092, 1284
4849, 1521, 10, 147, 97
4850, 1388, 576, 575, 551
4851, 582, 1494, 931, 976
4852, 1515, 581, 1294, 580
4853, 554, 1553, 1287, 46
4854, 1054, 603, 46, 47
4855, 1521, 1447, 1562, 1522
4856, 1147, 1405, 1404, 1369
4857, 905, 770, 991, 1305
4858, 603, 856, 1586, 602
4859, 1104, 565, 564, 540
4860, 1319, 561, 536, 537
4861, 1066, 1210, 372, 397
4862, 372, 1066, 1235, 1210
4863, 1017, 1337, 765, 1335
4864, 1100, 540, 541, 565
4865, 1100, 565, 541, 566
4866, 1054, 1224, 579, 1583
4867, 1134, 1013, 1066, 399
4868, 799, 1486, 802, 801
4869, 1134, 1235, 374, 373
4870, 1117, 554, 1583, 1553
4871, 1290, 1587, 504, 1001
4872, 1004, 516, 517, 541
4873, 488, 1576, 464, 1518
4874, 1576, 489, 1484, 488
4875, 1347, 1517, 462, 1556
4876, 1140, 178, 1367, 203
4877, 997, 519, 544, 543
4878, 545, 1002, 1423, 544
4879, 1406, 1367, 178, 30
4880, 1570, 1518, 463, 464
4881, 1517, 1518, 462, 1556
4882, 1518, 1556, 463, 462
4883, 985, 1546, 1353, 1545
4884, 892, 893, 1163, 950
4885, 1405, 29, 95, 1527
4886, 153, 29, 95, 1405
4887, 1406, 1367, 1140, 178
4888, 1201, 1203, 1545, 1547
4889, 1163, 1546, 1203, 1240
4890, 560, 1379, 559, 975
4891, 1545, 281, 305, 280
4892, 1504, 523, 547, 522
4893, 1353, 1545, 1546, 306
4894, 1368, 959, 1326, 1369
4895, 524, 1528, 523, 548
4896, 1529, 166, 1383, 1442
4897, 572, 571, 1312, 547
4898, 1017, 1338, 1014, 1337
4899, 1553, 1117, 554, 1287
4900, 1147, 1369, 1368, 1405
4901, 1312, 595, 570, 571
4902, 1240, 280, 281, 1203
4903, 1150, 688, 74, 690
4904, 709, 737, 846, 1274
4905, 893, 926, 892, 1163
4906, 1258, 947, 887, 892
4907, 1301, 549, 548, 524
4908, 960, 1397, 1514, 1398
4909, 795, 1188, 208, 1189
4910, 1277, 1542, 1358, 1472
4911, 1418, 549, 550, 574
4912, 1290, 1001, 505, 506
4913, 1358, 1542, 1577, 1502
4914, 1219, 712, 1558, 1525
4915, 1040, 529, 554, 46
4916, 883, 577, 601, 576
4917, 866, 894, 950, 893
4918, 957, 1404, 1539, 1369
4919, 1545, 279, 1547, 1203
4920, 1201, 1546, 1545, 1203
4921, 1303, 550, 526, 551
4922, 1442, 166, 1383, 1385
4923, 306, 281, 305, 1545
4924, 1203, 280, 1545, 279
4925, 908, 1010, 46, 1553
4926, 514, 1321, 539, 857
4927, 1389, 551, 552, 576
4928, 1203, 280, 281, 1545
4929, 553, 552, 1042, 528
4930, 1389, 576, 552, 577
4931, 1389, 552, 553, 577
4932, 255, 1200, 280, 1240
4933, 547, 571, 1312, 546
4934, 1200, 280, 1240, 1203
4935, 1528, 1301, 548, 524
4936, 998, 568, 567, 543
4937, 1547, 985, 986, 773
4938, 1124, 1343, 1393, 831
4939, 873, 872, 1572, 1578
4940, 1024, 1526, 1540, 1171
4941, 554, 530, 1001, 1000
4942, 1157, 936, 1245, 1281
4943, 856, 628, 627, 603
4944, 1223, 1524, 628, 49
4945, 1117, 1583, 554, 579
4946, 815, 1224, 1151, 1153
4947, 1000, 929, 931, 531
4948, 401, 1069, 1011, 775
4949, 799, 1009, 1432, 897
4950, 309, 1330, 308, 1476
4951, 1390, 1071, 1272, 1385
4952, 1422, 172, 1269, 1421
4953, 46, 1586, 603, 1054
4954, 948, 284, 1330, 283
4955, 908, 1389, 915, 1041
4956, 1117, 556, 580, 555
4957, 1293, 582, 606, 581
4958, 682, 1093, 681, 1097
4959, 982, 867, 865, 1357
4960, 865, 1573, 867, 951
4961, 865, 984, 1476, 864
4962, 1301, 573, 548, 549
4963, 865, 308, 725, 1357
4964, 1104, 1436, 1090, 1380
4965, 1390, 1272, 1442, 1385
4966, 1578, 1572, 966, 288
4967, 1509, 859, 857, 1484
4968, 717, 715, 741, 718
4969, 1380, 562, 1319, 537
4970, 1120, 974, 1122, 1095
4971, 933, 935, 1281, 936
4972, 1540, 123, 1024, 104
4973, 558, 559, 930, 1494
4974, 757, 1444, 1448, 992
4975, 862, 866, 878, 951
4976, 1494, 559, 583, 558
4977, 1494, 584, 583, 559
4978, 1442, 191, 1443, 166
4979, 1099, 686, 689, 690
4980, 1578, 1331, 895, 262
4981, 1319, 536, 561, 560
4982, 1044, 726, 983, 1047
4983, 341, 1032, 1033, 342
4984, 1381, 560, 559, 535
4985, 976, 931, 1283, 1494
4986, 1110, 744, 1114, 1112
4987, 720, 601, 719, 1305
4988, 1032, 1435, 316, 1065
4989, 1032, 1279, 317, 1281
4990, 1032, 1031, 1027, 1281
4991, 1319, 537, 562, 561
4992, 1031, 1032, 1435, 1281
4993, 1400, 1296, 55, 623
4994, 1032, 1279, 1033, 342
4995, 705, 70, 1093, 1095
4996, 1558, 840, 114, 1540
4997, 110, 1536, 91, 1540
4998, 1033, 1279, 1027, 1029
4999, 1506, 110, 813, 840
5000, 822, 1238, 1237, 1061
5001, 1137, 958, 202, 227
5002, 1172, 1171, 1540, 1558
5003, 1037, 786, 915, 914
5004, 913, 1587, 1286, 914
5005, 1034, 1340, 832, 1136
5006, 1362, 1498, 1372, 1552
5007, 763, 1346, 1107, 1402
5008, 957, 1397, 1369, 1539
5009, 1312, 1328, 1454, 1083
5010, 909, 1286, 915, 914
5011, 824, 1393, 913, 826
5012, 1511, 1286, 1587, 914
5013, 1518, 1556, 1570, 463
5014, 1196, 1556, 1213, 1570
5015, 992, 1313, 1446, 640
5016, 1556, 1570, 463, 1214
5017, 1102, 589, 564, 565
5018, 564, 1102, 1104, 1436
5019, 1291, 1367, 1292, 31
5020, 991, 841, 1299, 990
5021, 1213, 1570, 1556, 1214
5022, 958, 1140, 202, 955
5023, 592, 591, 1461, 1103
5024, 1296, 634, 55, 54
5025, 1140, 955, 177, 202
5026, 437, 462, 1214, 1347
5027, 604, 579, 48, 1224
5028, 1305, 601, 719, 576
5029, 998, 543, 994, 568
5030, 720, 625, 757, 719
5031, 1517, 461, 1129, 1347
5032, 1103, 591, 566, 567
5033, 1367, 1292, 31, 30
5034, 1366, 1146, 1477, 1149
5035, 1147, 1149, 1292, 1406
5036, 1082, 594, 1084, 593
5037, 1310, 1199, 1311, 1239
5038, 1291, 1366, 1365, 1363
5039, 1079, 1080, 789, 1363
5040, 1149, 1292, 1406, 30
5041, 952, 959, 953, 954
5042, 994, 569, 568, 544
5043, 952, 955, 957, 1140
5044, 1423, 996, 1455, 1425
5045, 1021, 1381, 534, 535
5046, 709, 847, 742, 846
5047, 952, 740, 1145, 797
5048, 1079, 1080, 1363, 1169
5049, 990, 748, 1315, 1339
5050, 1566, 1239, 1396, 230
5051, 1324, 620, 595, 596
5052, 719, 600, 575, 576
5053, 1302, 548, 573, 572
5054, 1312, 572, 596, 571
5055, 1566, 1246, 1239, 759
5056, 1300, 598, 573, 574
5057, 1566, 1246, 1189, 207
5058, 572, 596, 1454, 1312
5059, 1339, 1328, 1349, 1304
5060, 1566, 1246, 207, 206
5061, 1566, 1246, 759, 1189
5062, 1410, 957, 1404, 1539
5063, 719, 601, 600, 576
5064, 1418, 550, 575, 574
5065, 883, 601, 577, 602
5066, 1220, 1270, 1165, 1551
5067, 961, 1268, 1270, 1269
5068, 1252, 1421, 1422, 1269
5069, 1302, 1454, 572, 1300
5070, 1145, 1326, 960, 1253
5071, 952, 1139, 961, 1267
5072, 1374, 1250, 1249, 270
5073, 961, 1139, 1220, 1270
5074, 1254, 1420, 1252, 1251
5075, 1254, 1252, 1420, 1450
5076, 851, 1480, 861, 1584
5077, 935, 933, 1281, 1435
5078, 1300, 599, 598, 574
5079, 1112, 658, 662, 655
5080, 1586, 1053, 1010, 856
5081, 1246, 1199, 1396, 1239
5082, 960, 957, 956, 1397
5083, 956, 1255, 1497, 1422
5084, 1187, 274, 861, 1480
5085, 1256, 1416, 1255, 1452
5086, 1041, 45, 46, 578
5087, 1255, 1422, 1562, 1522
5088, 1018, 1026, 508, 1025
5089, 1255, 1497, 1422, 1522
5090, 796, 903, 927, 944
5091, 574, 719, 599, 575
5092, 1173, 1535, 813, 1506
5093, 908, 46, 1287, 1553
5094, 577, 578, 883, 602
5095, 1300, 597, 572, 573
5096, 1173, 1477, 1149, 1535
5097, 1149, 1148, 840, 1527
5098, 1207, 1311, 254, 1142
5099, 883, 769, 601, 602
5100, 720, 627, 1533, 626
5101, 596, 1328, 1454, 1312
5102, 1095, 69, 1122, 678
5103, 991, 770, 1154, 720
5104, 768, 1553, 1010, 1288
5105, 1374, 1183, 247, 246
5106, 768, 770, 1288, 1010
5107, 1541, 579, 580, 604
5108, 1148, 840, 1527, 103
5109, 959, 1148, 1147, 1368
5110, 1148, 120, 839, 840
5111, 1148, 839, 120, 1368
5112, 1012, 768, 1224, 1054
5113, 738, 715, 741, 953
5114, 1370, 1372, 1371, 157
5115, 1543, 123, 1024, 1526
5116, 1540, 1172, 1558, 840
5117, 1172, 1173, 1148, 840
5118, 1344, 1543, 113, 89
5119, 1085, 1220, 1221, 1251
5120, 1544, 135, 90, 22
5121, 1348, 1543, 1345, 1344
5122, 988, 1105, 748, 1339
5123, 1224, 48, 1012, 1054
5124, 706, 1086, 1471, 707
5125, 974, 584, 608, 583
5126, 974, 609, 608, 584
5127, 840, 1172, 1558, 839
5128, 1219, 1555, 1359, 1525
5129, 1395, 561, 586, 585
5130, 1253, 1415, 1359, 1555
5131, 1359, 1427, 1416, 1253
5132, 975, 585, 584, 560
5133, 1458, 586, 611, 610
5134, 1458, 1460, 561, 1395
5135, 740, 953, 1079, 954
5136, 1219, 712, 1172, 1558
5137, 1348, 1334, 1534, 1344
5138, 713, 1561, 1332, 1342
5139, 1342, 710, 1155, 1345
5140, 1251, 1551, 1567, 1548
5141, 1457, 563, 588, 587
5142, 1077, 1295, 1489, 1122
5143, 1086, 1471, 707, 1561
5144, 710, 1345, 716, 1526
5145, 713, 710, 1345, 716
5146, 1459, 613, 588, 589
5147, 1457, 1417, 1554, 1459
5148, 1457, 588, 1436, 1459
5149, 1164, 1183, 247, 1186
5150, 1090, 1417, 1380, 1436
5151, 1436, 589, 588, 564
5152, 1320, 1090, 1417, 1380
5153, 1452, 1398, 124, 128
5154, 1436, 1417, 1459, 1492
5155, 1436, 1089, 1090, 1417
5156, 1102, 565, 566, 590
5157, 1102, 565, 590, 589
5158, 173, 1422, 1268, 1497
5159, 1436, 1492, 1089, 1417
5160, 858, 879, 860, 836
5161, 1427, 1254, 1256, 1253
5162, 565, 564, 1102, 1104
5163, 825, 1475, 457, 432
5164, 832, 825, 1131, 831
5165, 832, 1340, 1131, 1230
5166, 1098, 705, 678, 682
5167, 945, 1248, 1374, 1250
5168, 1139, 200, 1268, 1267
5169, 832, 1340, 1230, 1158
5170, 1144, 689, 683, 680
5171, 824, 914, 911, 1061
5172, 1103, 1461, 592, 1082
5173, 1217, 1402, 877, 876
5174, 825, 831, 1289, 1475
5175, 1103, 592, 591, 567
5176, 1125, 1088, 1132, 1218
5177, 1451, 1427, 1254, 1450
5178, 1427, 1430, 1453, 105
5179, 1131, 1234, 1475, 825
5180, 1083, 570, 594, 569
5181, 1052, 1217, 1062, 1218
5182, 1524, 1533, 627, 50
5183, 863, 962, 963, 310
5184, 963, 336, 962, 964
5185, 145, 81, 82, 1449
5186, 1357, 1573, 283, 282
5187, 856, 1524, 627, 628
5188, 11, 146, 97, 81
5189, 335, 1476, 1047, 963
5190, 334, 335, 1476, 1047
5191, 1047, 1476, 984, 864
5192, 578, 908, 46, 1041
5193, 869, 863, 962, 963
5194, 1450, 1562, 1447, 1452
5195, 1400, 622, 597, 598
5196, 1047, 360, 1046, 1513
5197, 929, 1000, 1116, 1001
5198, 968, 969, 723, 1118
5199, 1324, 621, 620, 596
5200, 834, 835, 881, 785
5201, 1400, 623, 598, 599
5202, 1557, 520, 519, 495
5203, 1197, 1198, 1207, 1202
5204, 1111, 658, 659, 673
5205, 451, 1014, 1337, 1469
5206, 878, 872, 1575, 1331
5207, 1444, 635, 53, 52
5208, 719, 575, 600, 599
5209, 424, 1469, 425, 1011
5210, 1325, 700, 58, 57
5211, 1356, 450, 1469, 451
5212, 1452, 1416, 128, 105
5213, 1469, 1011, 1014, 1337
5214, 1207, 34, 1142, 254
5215, 1400, 624, 623, 599
5216, 720, 601, 626, 625
5217, 854, 1141, 853, 1198
5218, 1029, 1232, 1167, 344
5219, 769, 601, 602, 626
5220, 1279, 1028, 344, 319
5221, 1001, 505, 530, 529
5222, 1511, 1307, 1587, 44
5223, 1314, 649, 653, 647
5224, 1279, 1033, 342, 343
5225, 1200, 1240, 255, 1311
5226, 1280, 319, 1279, 318
5227, 1027, 1029, 1279, 1028
5228, 1485, 1354, 1162, 354
5229, 1336, 765, 767, 1335
5230, 726, 332, 333, 357
5231, 288, 1577, 1578, 1572
5232, 1461, 593, 617, 592
5233, 1054, 579, 48, 47
5234, 1583, 554, 47, 46
5235, 1126, 1161, 1162, 381
5236, 383, 1126, 1127, 358
5237, 1082, 1461, 592, 593
5238, 1533, 51, 50, 632
5239, 1357, 727, 1353, 332
5240, 725, 1357, 727, 1353
5241, 856, 627, 769, 602
5242, 981, 939, 777, 983
5243, 1354, 1162, 354, 355
5244, 1075, 677, 673, 676
5245, 1457, 1436, 563, 1380
5246, 1102, 590, 566, 591
5247, 1032, 1281, 317, 1435
5248, 1277, 241, 1542, 240
5249, 1578, 895, 263, 262
5250, 1101, 1089, 1436, 1492
5251, 888, 1243, 1277, 845
5252, 1308, 1238, 478, 1585
5253, 1120, 1226, 976, 1293
5254, 1237, 1238, 42, 478
5255, 1184, 1063, 877, 1456
5256, 586, 975, 585, 610
5257, 1356, 1182, 424, 449
5258, 1104, 564, 1436, 563
5259, 1113, 659, 660, 656
5260, 1225, 73, 1519, 687
5261, 1225, 48, 604, 2
5262, 1308, 451, 1014, 1338
5263, 1237, 502, 1511, 1309
5264, 1271, 1462, 616, 1467
5265, 1103, 568, 592, 567
5266, 1468, 1061, 1204, 1308
5267, 641, 1106, 1445, 657
5268, 1553, 1054, 46, 1583
5269, 1308, 1338, 452, 451
5270, 1225, 1224, 1519, 604
5271, 1294, 605, 580, 581
5272, 1084, 594, 618, 593
5273, 1308, 452, 1338, 1585
5274, 750, 816, 815, 818
5275, 785, 1318, 912, 1351
5276, 785, 1351, 912, 910
5277, 1122, 69, 608, 609
5278, 1515, 580, 1117, 581
5279, 1448, 631, 1444, 696
5280, 1524, 629, 50, 49
5281, 797, 1220, 1139, 1138
5282, 994, 995, 1083, 1002
5283, 1320, 1380, 1417, 1460
5284, 1522, 1514, 1411, 119
5285, 1522, 79, 119, 78
5286, 1091, 1320, 1089, 1417
5287, 1091, 1395, 1320, 1417
5288, 977, 1379, 1494, 1283
5289, 148, 1422, 173, 1497
5290, 1255, 1452, 1398, 1514
5291, 1168, 715, 953, 741
5292, 1266, 341, 365, 1065
5293, 1293, 607, 606, 582
5294, 1285, 1396, 205, 206
5295, 1285, 1188, 182, 1371
5296, 1285, 207, 1246, 206
5297, 1065, 341, 1032, 1033
5298, 1396, 1169, 1363, 1080
5299, 1310, 1500, 1363, 1396
5300, 1398, 115, 1397, 124
5301, 204, 1364, 1565, 1310
5302, 1580, 620, 619, 595
5303, 1452, 1398, 1514, 124
5304, 1310, 204, 1500, 205
5305, 1349, 1580, 1328, 1339
5306, 1162, 1488, 404, 1158
5307, 1159, 430, 827, 405
5308, 843, 993, 1455, 995
5309, 1131, 1229, 1234, 1230
5310, 975, 609, 584, 585
5311, 1166, 1233, 1029, 1278
5312, 1485, 1162, 379, 354
5313, 1158, 767, 1162, 1488
5314, 1162, 404, 1488, 379
5315, 1178, 1266, 367, 391
5316, 825, 456, 432, 457
5317, 367, 1178, 392, 1495
5318, 678, 704, 1122, 1098
5319, 998, 880, 567, 568
5320, 915, 914, 1511, 1309
5321, 1075, 1111, 1387, 673
5322, 975, 610, 609, 585
5323, 1234, 1475, 432, 433
5324, 1304, 1299, 841, 1339
5325, 1428, 1451, 1427, 1254
5326, 1492, 614, 590, 615
5327, 710, 1359, 1155, 1525
5328, 1440, 612, 65, 66
5329, 1525, 125, 1415, 122
5330, 1067, 1210, 806, 1211
5331, 1264, 969, 1065, 1265
5332, 971, 365, 1266, 390
5333, 1005, 540, 858, 857
5334, 996, 1557, 1564, 1425
5335, 1525, 122, 1155, 116
5336, 909, 912, 785, 1284
5337, 1581, 1114, 1463, 651
5338, 1458, 587, 586, 562
5339, 1059, 1015, 1016, 1063
5340, 1445, 1446, 639, 637
5341, 1216, 749, 747, 1462
5342, 1462, 62, 615, 616
5343, 1114, 1467, 60, 650
5344, 1114, 60, 1463, 651
5345, 1439, 67, 611, 66
5346, 1110, 1314, 654, 1114
5347, 745, 1114, 747, 1315
5348, 1084, 1081, 1349, 1083
5349, 1462, 63, 614, 615
5350, 745, 649, 1106, 1113
5351, 1071, 1272, 216, 1275
5352, 1491, 64, 614, 63
5353, 1529, 1443, 1442, 1361
5354, 1581, 1314, 1325, 1315
5355, 1005, 516, 1004, 541
5356, 1289, 481, 1464, 482
5357, 1254, 1451, 1450, 1568
5358, 1178, 390, 1266, 391
5359, 858, 1104, 860, 857
5360, 1263, 1071, 1487, 218
5361, 879, 858, 1005, 998
5362, 1100, 565, 1104, 540
5363, 1348, 716, 1345, 1543
5364, 776, 773, 1563, 780
5365, 1525, 1345, 1155, 710
5366, 1005, 857, 515, 540
5367, 1403, 857, 515, 1005
5368, 1409, 412, 388, 413
5369, 1101, 858, 1436, 1090
5370, 1461, 616, 591, 592
5371, 437, 1214, 412, 1407
5372, 860, 1317, 859, 1316
5373, 1086, 1471, 1531, 1473
5374, 1056, 1123, 1347, 1214
5375, 857, 882, 1484, 859
5376, 1531, 190, 1473, 189
5377, 1581, 59, 618, 619
5378, 838, 1212, 842, 1092
5379, 1461, 617, 593, 618
5380, 1083, 1081, 1349, 993
5381, 1149, 1535, 1527, 813
5382, 1458, 611, 1437, 610
5383, 1147, 1149, 1406, 1405
5384, 1084, 619, 618, 594
5385, 1149, 30, 1406, 29
5386, 1149, 1535, 1366, 154
5387, 1149, 1292, 30, 154
5388, 1149, 1405, 29, 1406
5389, 1308, 1014, 1061, 1338
5390, 1225, 1153, 1223, 77
5391, 768, 1541, 1553, 1288
5392, 1399, 597, 622, 621
5393, 1282, 1553, 908, 1287
5394, 1541, 604, 1224, 579
5395, 1117, 1226, 1116, 1282
5396, 1458, 611, 586, 587
5397, 856, 883, 1010, 1586
5398, 1283, 1226, 977, 1212
5399, 1282, 1226, 1212, 1288
5400, 1515, 976, 1226, 1293
5401, 1283, 931, 1226, 1116
5402, 931, 581, 557, 582
5403, 1091, 1089, 753, 1417
5404, 843, 993, 835, 1455
5405, 644, 55, 1323, 698
5406, 1318, 1351, 1317, 1316
5407, 1100, 858, 1101, 880
5408, 758, 600, 625, 624
5409, 1101, 880, 1081, 1102
5410, 1320, 1089, 1417, 1090
5411, 1089, 1492, 749, 1417
5412, 974, 583, 608, 607
5413, 75, 1152, 1222, 640
5414, 1531, 165, 1443, 190
5415, 1391, 1261, 1263, 1487
5416, 1448, 632, 633, 631
5417, 1444, 625, 626, 52
5418, 1263, 1487, 219, 218
5419, 1241, 1250, 936, 1245
5420, 1223, 49, 695, 629
5421, 796, 1174, 903, 1164
5422, 1242, 1263, 219, 218
5423, 1244, 1243, 1277, 1542
5424, 1113, 660, 657, 656
5425, 856, 603, 1053, 628
5426, 737, 1254, 1360, 1359
5427, 1464, 481, 457, 482
5428, 706, 1086, 1473, 1471
5429, 482, 1289, 1475, 1464
5430, 941, 873, 868, 871
5431, 945, 903, 1482, 1186
5432, 1263, 1071, 217, 1275
5433, 888, 933, 1358, 1542
5434, 926, 1199, 892, 1163
5435, 1448, 757, 987, 1154
5436, 1095, 70, 607, 608
5437, 640, 1152, 1222, 992
5438, 1225, 2, 604, 73
5439, 1153, 76, 77, 687
5440, 1519, 605, 1350, 72
5441, 1222, 819, 1152, 1153
5442, 1154, 987, 819, 750
5443, 1323, 699, 644, 648
5444, 1519, 73, 605, 72
5445, 1298, 988, 1296, 1297
5446, 684, 1350, 685, 72
5447, 1297, 1445, 637, 992
5448, 1444, 992, 1297, 636
5449, 686, 1099, 683, 681
5450, 67, 1489, 667, 703
5451, 992, 631, 636, 1444
5452, 637, 1446, 640, 992
5453, 165, 1342, 1531, 1529
5454, 1445, 637, 992, 1446
5455, 990, 841, 1299, 1339
5456, 1081, 1271, 1461, 747
5457, 988, 989, 1399, 1339
5458, 1122, 68, 69, 609
5459, 820, 1313, 1106, 1446
5460, 757, 1298, 989, 758
5461, 905, 817, 991, 770
5462, 770, 1305, 720, 991
5463, 1489, 68, 67, 667
5464, 1295, 68, 609, 610
5465, 1091, 1283, 977, 1212
5466, 1005, 859, 858, 879
5467, 1295, 67, 68, 610
5468, 1381, 1023, 534, 559
5469, 860, 1320, 1318, 1319
5470, 1379, 977, 1494, 975
5471, 1379, 1494, 559, 975
5472, 1467, 61, 616, 617
5473, 1025, 930, 532, 533
5474, 531, 1000, 556, 931
5475, 1284, 1022, 1023, 929
5476, 655, 654, 1112, 1110
5477, 1478, 141, 1383, 1529
5478, 931, 1000, 556, 1116
5479, 1099, 683, 689, 686
5480, 1023, 1381, 1318, 1379
5481, 849, 853, 861, 851
5482, 1075, 675, 677, 676
5483, 1209, 1007, 897, 1008
5484, 1428, 1549, 168, 169
5485, 680, 1098, 682, 1144
5486, 1080, 1087, 1199, 1396
5487, 1490, 668, 702, 664
5488, 300, 1584, 301, 861
5489, 1163, 1573, 1546, 1240
5490, 908, 905, 770, 1288
5491, 941, 967, 943, 1031
5492, 986, 1547, 773, 1574
5493, 1462, 62, 63, 615
5494, 1197, 1141, 853, 900
5495, 978, 1413, 1408, 1407
5496, 64, 1490, 702, 665
5497, 1079, 1169, 741, 1080
5498, 1248, 1221, 938, 944
5499, 260, 948, 878, 949
5500, 886, 949, 1331, 872
5501, 918, 919, 877, 923
5502, 1580, 1084, 594, 619
5503, 1109, 1193, 1192, 1107
5504, 806, 1067, 1066, 1210
5505, 1467, 60, 61, 617
5506, 808, 1260, 923, 1194
5507, 998, 1004, 543, 542
5508, 1078, 674, 670, 666
5509, 1059, 1088, 911, 1061
5510, 803, 778, 804, 1011
5511, 1088, 1132, 1062, 911
5512, 729, 728, 808, 730
5513, 1109, 1218, 1196, 1108
5514, 1051, 808, 1052, 1194
5515, 1074, 677, 675, 672
5516, 874, 877, 876, 1063
5517, 1462, 62, 701, 661
5518, 1216, 665, 662, 666
5519, 1113, 649, 657, 653
5520, 877, 923, 1192, 918
5521, 1325, 57, 58, 620
5522, 974, 583, 607, 582
5523, 806, 728, 1231, 922
5524, 1171, 716, 1543, 1526
5525, 1171, 1362, 1024, 1543
5526, 123, 1024, 1526, 1540
5527, 1399, 622, 56, 621
5528, 1430, 143, 1429, 98
5529, 142, 143, 98, 1478
5530, 651, 1581, 1314, 59
5531, 1215, 1408, 1409, 413
5532, 715, 1362, 1171, 716
5533, 1298, 53, 54, 624
5534, 706, 1086, 709, 1273
5535, 1172, 840, 1148, 839
5536, 1370, 1172, 1171, 1540
5537, 718, 887, 1258, 1257
5538, 1148, 1172, 1146, 1173
5539, 1170, 1169, 1371, 1228
5540, 712, 1526, 1171, 1558
5541, 1033, 1266, 342, 367
5542, 1278, 728, 1495, 1166
5543, 968, 978, 734, 979
5544, 1006, 802, 1068, 1067
5545, 1215, 1408, 973, 1409
5546, 1360, 1478, 1155, 1453
5547, 1533, 627, 51, 626
5548, 1134, 1235, 373, 1066
5549, 1582, 645, 639, 646
5550, 1400, 989, 1327, 1399
5551, 992, 640, 637, 633
5552, 1478, 1453, 112, 1155
5553, 1297, 637, 638, 694
5554, 799, 897, 1432, 1486
5555, 1376, 1483, 1510, 1377
5556, 1029, 1166, 368, 369
5557, 775, 1008, 772, 377
5558, 1533, 629, 632, 50
5559, 820, 1446, 819, 1313
5560, 1323, 1339, 1399, 1324
5561, 1315, 1580, 1349, 1339
5562, 48, 1223, 1225, 1012
5563, 1223, 695, 2, 77
5564, 1519, 73, 604, 605
5565, 1315, 1324, 1580, 1339
5566, 649, 1445, 646, 1582
5567, 815, 1288, 768, 1154
5568, 1350, 72, 605, 606
5569, 1478, 141, 1529, 1431
5570, 834, 1091, 1092, 1320
5571, 1444, 696, 631, 635
5572, 1350, 71, 72, 606
5573, 1106, 1445, 1446, 641
5574, 1315, 1580, 1325, 1581
5575, 1468, 500, 475, 476
5576, 1225, 1519, 73, 604
5577, 1223, 695, 77, 630
5578, 628, 1012, 1223, 48
5579, 1051, 970, 1118, 1178
5580, 1444, 1298, 624, 53
5581, 815, 1541, 1226, 1151
5582, 768, 1053, 1012, 856
5583, 1094, 685, 681, 686
5584, 1096, 607, 70, 71
5585, 1096, 71, 606, 607
5586, 1225, 1224, 1153, 1519
5587, 1524, 627, 1533, 720
5588, 1012, 856, 1053, 628
5589, 1012, 1154, 768, 720
5590, 856, 1010, 768, 1053
5591, 1120, 1293, 1151, 1226
5592, 1225, 73, 77, 2
5593, 1295, 975, 610, 609
5594, 974, 1122, 608, 609
5595, 1095, 1096, 607, 70
5596, 1095, 69, 70, 608
5597, 1117, 580, 556, 581
5598, 884, 993, 1455, 835
5599, 763, 518, 1004, 493
5600, 976, 974, 582, 583
5601, 1282, 1541, 1226, 1288
5602, 1094, 685, 686, 687
5603, 1489, 1098, 704, 679
5604, 1519, 684, 687, 73
5605, 884, 836, 993, 835
5606, 1293, 582, 974, 607
5607, 1438, 613, 64, 65
5608, 884, 835, 1455, 996
5609, 1438, 65, 612, 613
5610, 1095, 705, 70, 69
5611, 1315, 1339, 1105, 1324
5612, 987, 992, 988, 757
5613, 820, 748, 1445, 1106
5614, 1089, 1271, 749, 1492
5615, 1116, 1000, 1117, 1001
5616, 749, 1271, 1462, 1492
5617, 681, 1097, 683, 682
5618, 815, 1012, 768, 1224
5619, 1098, 682, 679, 680
5620, 1353, 984, 725, 1357
5621, 982, 984, 865, 864
5622, 1008, 1007, 897, 774
5623, 1077, 679, 672, 680
5624, 1457, 587, 1458, 562
5625, 1489, 671, 679, 667
5626, 1491, 64, 613, 614
5627, 1008, 771, 1507, 774
5628, 1554, 588, 612, 1457
5629, 681, 1093, 71, 685
5630, 1519, 1350, 605, 1294
5631, 1121, 975, 1295, 1122
5632, 1151, 1293, 1350, 1294
5633, 1098, 678, 679, 682
5634, 1305, 769, 770, 720
5635, 1305, 720, 991, 719
5636, 1463, 59, 60, 618
5637, 1299, 1304, 1327, 1339
5638, 796, 1175, 1220, 1138
5639, 1478, 98, 142, 15
5640, 1216, 1491, 749, 1462
5641, 1439, 703, 66, 693
5642, 788, 1454, 1455, 1424
5643, 65, 1490, 668, 702
5644, 550, 1303, 1388, 551
5645, 1440, 668, 66, 65
5646, 908, 1586, 883, 578
5647, 1444, 51, 1533, 696
5648, 1300, 1304, 1454, 1327
5649, 1439, 703, 693, 671
5650, 1076, 671, 670, 672
5651, 1478, 143, 98, 1429
5652, 1254, 1251, 1568, 1420
5653, 1387, 673, 659, 3
5654, 1370, 1171, 1024, 1540
5655, 796, 1259, 903, 1174
5656, 1152, 690, 75, 692
5657, 1176, 1119, 1516, 440
5658, 1324, 57, 620, 621
5659, 749, 1492, 1462, 1459
5660, 1076, 670, 671, 693
5661, 912, 1128, 824, 910
5662, 1056, 973, 1035, 1055
5663, 1161, 406, 1159, 405
5664, 865, 1476, 984, 725
5665, 669, 1490, 1078, 664
5666, 1489, 68, 667, 704
5667, 906, 1284, 907, 1212
5668, 693, 1078, 1076, 670
5669, 1078, 664, 666, 670
5670, 1271, 1462, 615, 616
5671, 726, 333, 1047, 358
5672, 1161, 1159, 1352, 1230
5673, 662, 658, 1111, 674
5674, 1581, 58, 59, 619
5675, 614, 1492, 1462, 615
5676, 678, 1122, 68, 69
5677, 1127, 1230, 1352, 1401
5678, 1036, 1230, 1401, 1229
5679, 1582, 645, 1296, 638
5680, 1457, 1458, 587, 612
5681, 961, 1269, 1422, 1268
5682, 717, 1258, 1190, 1257
5683, 1324, 621, 56, 57
5684, 1139, 1220, 1270, 1138
5685, 1301, 1038, 1504, 1419
5686, 1458, 612, 1437, 611
5687, 1325, 58, 619, 620
5688, 1453, 122, 1155, 1415
5689, 1237, 1307, 1511, 503
5690, 1491, 661, 665, 63
5691, 1216, 663, 662, 665
5692, 1099, 1150, 690, 689
5693, 1581, 618, 1463, 1084
5694, 1468, 1204, 1205, 500
5695, 1425, 996, 1455, 1419
5696, 1399, 55, 56, 622
5697, 1205, 1355, 474, 875
5698, 1110, 654, 653, 655
5699, 701, 1467, 650, 61
5700, 1147, 1368, 1148, 1149
5701, 1112, 663, 655, 662
5702, 1037, 874, 911, 1061
5703, 645, 698, 1582, 1296
5704, 1150, 688, 689, 675
5705, 218, 1243, 1242, 1263
5706, 1296, 54, 55, 623
5707, 1580, 595, 1324, 620
5708, 1400, 623, 622, 598
5709, 1427, 1256, 1452, 1416
5710, 1315, 1325, 1580, 1324
5711, 1369, 102, 1368, 1405
5712, 618, 619, 1084, 1581
5713, 1152, 76, 692, 75
5714, 1225, 687, 77, 73
5715, 1101, 1081, 837, 1271
5716, 623, 1400, 622, 55
5717, 841, 1304, 1349, 995
5718, 1216, 1462, 1114, 701
5719, 1314, 652, 647, 653
5720, 1580, 1324, 595, 1328
5721, 1314, 652, 653, 654
5722, 621, 56, 1399, 1324
5723, 1114, 651, 654, 60
5724, 1349, 1083, 1580, 1084
5725, 1304, 1083, 995, 1454
5726, 1323, 1582, 648, 644
5727, 1110, 653, 660, 655
5728, 1298, 54, 623, 624
5729, 1323, 1324, 56, 57
5730, 1350, 1519, 684, 1094
5731, 1139, 200, 1267, 201
5732, 1426, 1129, 461, 1588
5733, 1517, 1394, 1426, 486
5734, 1426, 1588, 461, 460
5735, 72, 1519, 684, 1350
5736, 1582, 646, 649, 648
5737, 621, 1327, 596, 1324
5738, 1426, 459, 1588, 460
5739, 1126, 381, 1162, 356
5740, 1120, 816, 1073, 1226
5741, 1296, 634, 638, 645
5742, 1298, 697, 54, 53
5743, 1444, 53, 624, 625
5744, 1426, 459, 1343, 1588
5745, 1074, 1078, 672, 1076
5746, 1444, 625, 52, 53
5747, 860, 836, 1090, 858
5748, 1582, 638, 639, 645
5749, 1457, 588, 612, 587
5750, 1444, 51, 52, 626
5751, 1176, 1177, 1178, 415
5752, 1176, 1055, 1215, 1213
5753, 1408, 1215, 1214, 413
5754, 1582, 645, 646, 648
5755, 1465, 1516, 438, 439
5756, 957, 955, 1404, 1140
5757, 1051, 1194, 1052, 1119
5758, 1465, 1214, 413, 438
5759, 1176, 1177, 415, 414
5760, 597, 1327, 596, 621
5761, 958, 1139, 201, 226
5762, 1543, 1526, 113, 123
5763, 1446, 642, 656, 641
5764, 942, 1233, 1569, 1068
5765, 1214, 1465, 1516, 438
5766, 1444, 696, 52, 51
5767, 1297, 638, 637, 639
5768, 1533, 632, 696, 51
5769, 992, 631, 633, 637
5770, 1335, 427, 1338, 1337
5771, 803, 1015, 1017, 804
5772, 1274, 1390, 1487, 1071
5773, 1013, 806, 803, 1006
5774, 1075, 1150, 675, 688
5775, 1197, 1163, 1201, 1203
5776, 1335, 767, 40, 766
5777, 765, 767, 1335, 766
5778, 1017, 1011, 1337, 1014
5779, 627, 769, 1524, 856
5780, 847, 1221, 1262, 1251
5781, 1222, 76, 630, 77
5782, 1532, 161, 1534, 1334
5783, 1297, 636, 637, 694
5784, 1119, 1213, 1516, 1195
5785, 1533, 627, 50, 51
5786, 1544, 1024, 90, 1498
5787, 636, 992, 1297, 637
5788, 1176, 1516, 1465, 439
5789, 1369, 1405, 108, 102
5790, 1534, 1498, 135, 160
5791, 1177, 1055, 970, 973
5792, 1177, 390, 1178, 415
5793, 971, 390, 1177, 389
5794, 1176, 1215, 414, 1465
5795, 691, 1222, 630, 632
5796, 945, 1186, 1374, 1183
5797, 943, 1031, 935, 1281
5798, 198, 1551, 223, 1270
5799, 958, 955, 202, 201
5800, 1448, 633, 632, 691
5801, 1459, 589, 614, 613
5802, 1425, 1504, 1302, 547
5803, 992, 633, 691, 640
5804, 1147, 957, 1369, 1404
5805, 900, 1201, 1163, 867
5806, 1445, 641, 646, 639
5807, 1187, 903, 1164, 1186
5808, 1446, 637, 643, 639
5809, 1368, 103, 1527, 102
5810, 1222, 76, 691, 630
5811, 1223, 695, 49, 2
5812, 1423, 545, 520, 521
5813, 1326, 1398, 1253, 1530
5814, 1147, 1149, 1405, 1368
5815, 720, 769, 626, 601
5816, 1074, 675, 680, 672
5817, 1124, 1470, 1058, 1347
5818, 1270, 1175, 224, 1138
5819, 1059, 1063, 1016, 874
5820, 1124, 1129, 1588, 1347
5821, 1094, 684, 685, 687
5822, 605, 1519, 1541, 604
5823, 704, 678, 1122, 68
5824, 1194, 1195, 1193, 1109
5825, 1119, 1196, 1213, 1195
5826, 1556, 1123, 1347, 1129
5827, 1095, 678, 705, 69
5828, 1098, 679, 678, 704
5829, 1196, 1576, 1195, 882
5830, 1179, 1194, 1119, 441
5831, 703, 1489, 667, 671
5832, 979, 972, 1409, 1434
5833, 1051, 1178, 1118, 1260
5834, 668, 664, 1490, 669
5835, 1393, 1382, 1129, 1128
5836, 1217, 877, 1063, 876
5837, 1440, 668, 693, 66
5838, 1490, 702, 665, 664
5839, 1495, 417, 1178, 392
5840, 392, 1466, 1495, 417
5841, 978, 1049, 1412, 1058
5842, 1382, 1130, 1394, 1129
5843, 740, 953, 738, 741
5844, 1382, 1128, 1130, 1129
5845, 879, 1003, 999, 997
5846, 1181, 1185, 1182, 423
5847, 1382, 1129, 1394, 1426
5848, 1284, 1001, 929, 1287
5849, 1125, 1123, 1130, 1129
5850, 1216, 661, 663, 665
5851, 1438, 65, 1440, 612
5852, 881, 1317, 1108, 882
5853, 859, 1316, 1130, 1509
5854, 1074, 1075, 1150, 675
5855, 1427, 1254, 1360, 1429
5856, 1414, 1412, 410, 1407
5857, 756, 1075, 746, 1150
5858, 1463, 651, 60, 59
5859, 1414, 978, 1407, 1413
5860, 1413, 1045, 979, 1434
5861, 1114, 654, 650, 60
5862, 1114, 650, 654, 663
5863, 834, 1089, 1091, 1320
5864, 1045, 1434, 386, 361
5865, 1035, 1057, 1058, 1056
5866, 1414, 1412, 385, 410
5867, 1074, 675, 1150, 1144
5868, 1314, 651, 652, 654
5869, 1462, 701, 62, 61
5870, 1314, 700, 647, 652
5871, 1387, 1313, 74, 3
5872, 1581, 700, 59, 58
5873, 649, 657, 646, 1445
5874, 1325, 57, 699, 700
5875, 1003, 1108, 1402, 1107
5876, 819, 815, 1153, 1154
5877, 1094, 1153, 1519, 687
5878, 1094, 1519, 1151, 1350
5879, 1323, 644, 699, 56
5880, 56, 644, 55, 1323
5881, 1582, 644, 645, 648
5882, 1073, 1226, 1212, 977
5883, 1356, 1014, 1060, 1468
5884, 1296, 54, 697, 634
5885, 1011, 775, 1337, 401
5886, 1560, 1211, 1569, 346
5887, 758, 600, 624, 599
5888, 1296, 634, 645, 698
5889, 1296, 55, 634, 698
5890, 1582, 644, 698, 645
5891, 1313, 74, 642, 640
5892, 1011, 401, 1337, 426
5893, 1013, 1182, 424, 1011
5894, 1016, 1469, 1011, 1014
5895, 796, 1164, 944, 1165
5896, 223, 248, 1175, 1165
5897, 1069, 400, 1011, 1013
5898, 1469, 1011, 426, 425
5899, 1296, 697, 638, 634
5900, 1298, 694, 697, 53
5901, 772, 766, 1485, 764
5902, 1444, 696, 635, 52
5903, 883, 1305, 769, 770
5904, 694, 635, 1444, 636
5905, 1174, 1138, 225, 224
5906, 1010, 770, 883, 856
5907, 803, 1016, 1011, 1014
5908, 1448, 696, 632, 631
5909, 776, 726, 1354, 1353
5910, 351, 1209, 327, 326
5911, 1209, 1584, 1433, 1481
5912, 1012, 1154, 1223, 1153
5913, 897, 1481, 1433, 1486
5914, 1524, 49, 50, 628
5915, 1433, 1481, 324, 349
5916, 1223, 630, 632, 629
5917, 1524, 50, 627, 628
5918, 1584, 325, 1433, 324
5919, 1223, 695, 630, 629
5920, 1433, 349, 1486, 1481
5921, 1285, 1246, 1396, 206
5922, 632, 1448, 1223, 1533
5923, 1574, 1579, 1202, 328
5924, 1093, 70, 705, 71
5925, 1093, 705, 682, 681
5926, 1304, 1328, 1454, 1327
5927, 1202, 1322, 1579, 1198
5928, 851, 326, 1584, 301
5929, 1294, 581, 606, 605
5930, 648, 700, 1325, 699
5931, 849, 302, 852, 301
5932, 854, 1207, 1322, 890
5933, 1198, 1579, 1202, 1574
5934, 647, 648, 700, 1325
5935, 961, 956, 1422, 1255
5936, 1315, 1349, 1580, 1084
5937, 1485, 38, 771, 37
5938, 713, 712, 710, 716
5939, 1579, 1208, 1574, 1198
5940, 506, 929, 1001, 531
5941, 1446, 643, 642, 641
5942, 1580, 595, 619, 594
5943, 1251, 1421, 1551, 1548
5944, 1018, 533, 1025, 508
5945, 1078, 677, 670, 674
5946, 929, 930, 1023, 931
5947, 559, 930, 1494, 1023
5948, 930, 534, 1023, 559
5949, 930, 931, 532, 557
5950, 930, 534, 1018, 1023
5951, 1323, 699, 57, 56
5952, 1075, 677, 674, 673
5953, 643, 637, 1446, 640
5954, 1111, 673, 674, 658
5955, 1271, 616, 615, 591
5956, 1421, 197, 1551, 1548
5957, 1313, 74, 640, 75
5958, 930, 557, 1494, 931
5959, 1181, 1070, 397, 422
5960, 1448, 992, 1444, 631
5961, 1524, 1154, 720, 1448
5962, 1421, 172, 1420, 1562
5963, 806, 1133, 1181, 1013
5964, 1387, 656, 3, 659
5965, 1421, 197, 1420, 172
5966, 1313, 3, 642, 74
5967, 3, 676, 1387, 673
5968, 1075, 676, 688, 675
5969, 806, 1070, 1181, 920
5970, 1008, 771, 772, 377
5971, 1045, 963, 335, 1047
5972, 1063, 1184, 918, 805
5973, 1423, 544, 520, 545
5974, 1264, 971, 364, 365
5975, 1285, 1363, 1477, 1500
5976, 1008, 771, 377, 352
5977, 1009, 1134, 375, 1069
5978, 1499, 210, 185, 186
5979, 1502, 213, 238, 237
5980, 1367, 203, 30, 31
5981, 1262, 220, 1392, 1567
5982, 1321, 513, 538, 537
5983, 1008, 1007, 1507, 327
5984, 1423, 1557, 520, 519
5985, 1508, 469, 1346, 468
5986, 948, 283, 259, 284
5987, 896, 898, 986, 901
5988, 1030, 496, 495, 471
5989, 999, 996, 763, 1402
5990, 1249, 1241, 1245, 1250
5991, 1047, 359, 358, 334
5992, 1209, 1009, 350, 351
5993, 1289, 1464, 826, 825
5994, 578, 46, 1586, 603
5995, 1389, 1041, 578, 553
5996, 1047, 984, 725, 726
5997, 1054, 628, 47, 48
5998, 350, 1209, 1433, 1009
5999, 1343, 483, 459, 484
6000, 1563, 305, 1353, 330
6001, 1011, 425, 400, 401
6002, 1100, 1103, 1102, 566
6003, 1083, 595, 1312, 1328
6004, 1461, 616, 592, 617
6005, 1362, 1532, 1501, 1534
6006, 579, 48, 1224, 1054
6007, 1586, 578, 908, 46
6008, 1312, 571, 596, 595
6009, 1300, 598, 597, 573
6010, 997, 763, 519, 518
6011, 843, 1455, 1454, 995
6012, 1009, 351, 1008, 376
6013, 1235, 349, 374, 373
6014, 1033, 367, 343, 368
6015, 628, 1053, 1054, 603
6016, 1166, 392, 368, 393
6017, 1157, 1280, 1281, 1245
6018, 769, 626, 602, 627
6019, 345, 1510, 1028, 1569
6020, 1027, 1160, 943, 942
6021, 1236, 914, 1237, 1307
6022, 1053, 628, 1054, 1012
6023, 1368, 120, 1148, 103
6024, 628, 1054, 1012, 48
6025, 1168, 1170, 1169, 1371
6026, 856, 603, 627, 602
6027, 1240, 281, 280, 256
6028, 812, 1031, 941, 943
6029, 1577, 263, 239, 264
6030, 1231, 395, 1232, 1211
6031, 1028, 1157, 1280, 1279
6032, 1207, 254, 35, 34
6033, 1227, 1498, 160, 159
6034, 1190, 1227, 185, 184
6035, 1054, 603, 1053, 1586
6036, 1525, 1555, 1415, 125
6037, 1584, 300, 324, 299
6038, 1586, 602, 578, 603
6039, 1571, 338, 313, 314
6040, 1040, 45, 529, 46
6041, 1027, 1032, 1281, 1279
6042, 1040, 1587, 1001, 504
6043, 1232, 1167, 345, 370
6044, 883, 602, 578, 1586
6045, 839, 1530, 1558, 121
6046, 1166, 1232, 1167, 1029
6047, 1167, 1029, 369, 1166
6048, 1530, 115, 1326, 1398
6049, 1041, 1287, 1040, 906
6050, 1551, 1165, 222, 223
6051, 603, 628, 47, 1054
6052, 1269, 173, 1422, 1268
6053, 492, 1403, 516, 1004
6054, 1147, 1140, 1404, 1406
6055, 784, 1301, 1038, 1303
6056, 1056, 1214, 1347, 1407
6057, 1290, 480, 504, 823
6058, 1059, 911, 874, 1061
6059, 1101, 1089, 1492, 1271
6060, 1236, 479, 1307, 43
6061, 1081, 1082, 1461, 1103
6062, 1456, 497, 1564, 496
6063, 1126, 332, 357, 356
6064, 1184, 1133, 1180, 920
6065, 950, 951, 867, 1573
6066, 986, 1198, 1574, 1208
6067, 1513, 383, 358, 359
6068, 961, 1422, 956, 1268
6069, 884, 1455, 995, 1002
6070, 1410, 1267, 175, 176
6071, 542, 1005, 998, 1004
6072, 1270, 1175, 223, 224
6073, 774, 799, 897, 1009
6074, 1139, 1138, 225, 226
6075, 1270, 223, 1175, 1165
6076, 1520, 409, 1401, 408
6077, 860, 1319, 1316, 1321
6078, 1488, 41, 40, 404
6079, 1004, 492, 1107, 493
6080, 626, 769, 720, 627
6081, 1105, 647, 648, 649
6082, 1585, 478, 453, 41
6083, 806, 1070, 1231, 1211
6084, 42, 1238, 1306, 478
6085, 1308, 476, 452, 477
6086, 1128, 1393, 1124, 1129
6087, 1308, 1585, 477, 452
6088, 310, 335, 311, 962
6089, 857, 539, 515, 540
6090, 1005, 540, 515, 516
6091, 1277, 845, 1243, 1275
6092, 1557, 521, 520, 496
6093, 1308, 503, 502, 478
6094, 1504, 498, 523, 522
6095, 726, 1047, 1513, 358
6096, 725, 308, 1476, 333
6097, 1025, 532, 531, 507
6098, 1308, 477, 1585, 478
6099, 1511, 1042, 528, 44
6100, 1551, 1567, 1548, 222
6101, 479, 454, 1236, 823
6102, 1307, 43, 528, 503
6103, 1139, 199, 1268, 200
6104, 1357, 727, 308, 725
6105, 1251, 1567, 1551, 1165
6106, 1066, 397, 372, 373
6107, 865, 725, 984, 1357
6108, 332, 1354, 1126, 726
6109, 862, 868, 982, 864
6110, 1127, 1046, 1520, 1513
6111, 941, 868, 873, 721
6112, 44, 43, 1307, 479
6113, 1421, 1548, 1420, 197
6114, 1458, 611, 587, 612
6115, 1268, 175, 1267, 200
6116, 1424, 546, 1425, 547
6117, 950, 951, 1573, 762
6118, 1537, 1267, 1268, 175
6119, 1550, 211, 1499, 1373
6120, 1492, 590, 614, 589
6121, 44, 1042, 45, 1040
6122, 1511, 527, 528, 1042
6123, 1270, 1269, 1268, 198
6124, 1040, 44, 504, 45
6125, 1303, 549, 524, 525
6126, 1388, 575, 550, 551
6127, 948, 951, 762, 283
6128, 947, 1189, 795, 760
6129, 950, 762, 1573, 1240
6130, 1268, 1269, 173, 198
6131, 1270, 198, 1551, 1269
6132, 1389, 527, 1042, 552
6133, 889, 1358, 1577, 895
6134, 1100, 998, 858, 880
6135, 1250, 269, 270, 294
6136, 1232, 1166, 1233, 1029
6137, 1478, 1384, 1155, 1431
6138, 1453, 117, 1415, 1416
6139, 251, 252, 855, 276
6140, 1190, 185, 209, 184
6141, 1281, 317, 1435, 292
6142, 1555, 1530, 1558, 1219
6143, 1538, 1334, 1534, 136
6144, 1137, 227, 203, 228
6145, 1405, 153, 152, 83
6146, 1276, 1257, 707, 1503
6147, 1453, 1415, 117, 122
6148, 1384, 1478, 1429, 1383
6149, 710, 1526, 1525, 1345
6150, 1431, 140, 17, 86
6151, 1441, 290, 1435, 315
6152, 1033, 1266, 341, 342
6153, 1389, 552, 1042, 553
6154, 328, 1579, 1202, 303
6155, 1048, 1049, 1046, 1412
6156, 328, 35, 1202, 36
6157, 1043, 573, 1300, 1302
6158, 461, 1347, 1517, 462
6159, 1037, 914, 1061, 911
6160, 1208, 1579, 328, 327
6161, 832, 1340, 1135, 1136
6162, 1576, 489, 465, 490
6163, 1194, 466, 442, 467
6164, 1181, 398, 423, 422
6165, 1061, 874, 1468, 1204
6166, 1351, 1128, 1382, 1393
6167, 1508, 468, 443, 444
6168, 1482, 298, 297, 273
6169, 1202, 303, 35, 328
6170, 1356, 1060, 1355, 1468
6171, 1237, 1308, 1061, 1238
6172, 1142, 229, 34, 33
6173, 1322, 890, 34, 278
6174, 896, 900, 899, 901
6175, 771, 378, 377, 353
6176, 1480, 1481, 323, 324
6177, 1187, 249, 274, 273
6178, 17, 1431, 139, 140
6179, 958, 1329, 1138, 226
6180, 889, 1578, 895, 1577
6181, 890, 278, 33, 34
6182, 1155, 1345, 116, 106
6183, 1142, 34, 229, 254
6184, 232, 257, 760, 759
6185, 889, 1358, 1542, 1577
6186, 854, 790, 890, 891
6187, 891, 253, 277, 252
6188, 860, 1320, 1319, 1380
6189, 1331, 262, 261, 237
6190, 826, 831, 1393, 1289
6191, 1501, 1498, 1534, 160
6192, 949, 259, 235, 260
6193, 1026, 1475, 1343, 483
6194, 1196, 1213, 1195, 1570
6195, 791, 789, 1080, 1199
6196, 1279, 343, 318, 319
6197, 1238, 1306, 829, 42
6198, 1343, 1475, 458, 483
6199, 1588, 1343, 1426, 1129
6200, 1394, 1474, 1378, 510
6201, 942, 1510, 1569, 1028
6202, 1359, 1155, 1525, 1415
6203, 833, 843, 783, 841
6204, 1432, 350, 375, 374
6205, 1441, 266, 291, 290
6206, 1361, 1086, 1531, 1443
6207, 1055, 1215, 1056, 973
6208, 1205, 525, 524, 500
6209, 261, 260, 1331, 236
6210, 1114, 1467, 1463, 60
6211, 1387, 688, 676, 3
6212, 1535, 156, 1505, 155
6213, 1239, 255, 230, 231
6214, 1205, 499, 1528, 875
6215, 1510, 1483, 322, 321
6216, 1213, 1214, 1556, 1123
6217, 1167, 369, 345, 370
6218, 1317, 1382, 1316, 1351
6219, 1382, 1026, 1343, 484
6220, 372, 1235, 1560, 1210
6221, 344, 1029, 369, 1167
6222, 1158, 825, 1159, 1230
6223, 1127, 358, 1513, 383
6224, 1167, 344, 345, 369
6225, 1211, 370, 346, 371
6226, 1231, 394, 1167, 395
6227, 1519, 1294, 1541, 1151
6228, 796, 1175, 1164, 1165
6229, 380, 1162, 405, 381
6230, 760, 258, 233, 234
6231, 1162, 405, 381, 1161
6232, 949, 260, 235, 236
6233, 759, 257, 256, 232
6234, 1310, 204, 205, 229
6235, 127, 1398, 115, 1530
6236, 93, 92, 813, 131
6237, 1561, 1333, 713, 1332
6238, 1219, 1253, 1359, 1555
6239, 1258, 1247, 1191, 1190
6240, 1071, 193, 1487, 218
6241, 1342, 165, 164, 140
6242, 1342, 163, 138, 139
6243, 1342, 1531, 164, 165
6244, 1385, 191, 166, 167
6245, 1385, 167, 192, 191
6246, 1275, 845, 706, 1277
6247, 166, 1443, 1442, 1529
6248, 810, 942, 732, 1233
6249, 997, 1004, 518, 543
6250, 1532, 1534, 161, 160
6251, 1531, 1561, 164, 189
6252, 948, 260, 284, 259
6253, 1344, 1341, 1332, 1538
6254, 876, 1108, 910, 1217
6255, 979, 1413, 1434, 1409
6256, 920, 917, 420, 445
6257, 454, 1236, 823, 829
6258, 438, 1214, 463, 1516
6259, 877, 1456, 1030, 917
6260, 825, 828, 827, 1159
6261, 1029, 344, 1279, 1028
6262, 823, 480, 479, 455
6263, 430, 431, 1159, 828
6264, 1067, 1211, 1068, 1210
6265, 1185, 1013, 1182, 424
6266, 1260, 417, 1179, 1178
6267, 443, 1194, 1192, 923
6268, 875, 473, 498, 497
6269, 726, 1047, 333, 725
6270, 1465, 1214, 1213, 1215
6271, 1109, 1194, 1052, 1192
6272, 1518, 1484, 1576, 1130
6273, 1471, 1561, 189, 188
6274, 310, 863, 1330, 1476
6275, 1220, 1269, 1270, 1551
6276, 1086, 1561, 1531, 1471
6277, 1274, 846, 845, 1263
6278, 1451, 1549, 169, 1568
6279, 1333, 188, 1373, 187
6280, 1166, 1266, 1278, 1033
6281, 1542, 1472, 240, 239
6282, 1577, 240, 264, 239
6283, 960, 956, 1514, 1397
6284, 1244, 266, 241, 242
6285, 1521, 1522, 79, 97
6286, 839, 1369, 120, 1368
6287, 1245, 268, 243, 244
6288, 1244, 266, 242, 267
6289, 1521, 172, 1422, 1562
6290, 1410, 1404, 151, 1539
6291, 956, 1268, 1497, 1537
6292, 1549, 1386, 168, 193
6293, 1447, 1522, 1452, 1562
6294, 709, 707, 708, 718
6295, 1450, 1562, 171, 146
6296, 1164, 1186, 247, 248
6297, 1496, 1497, 1523, 149
6298, 1421, 1562, 1422, 172
6299, 1562, 171, 146, 147
6300, 244, 1241, 1249, 1242
6301, 1277, 1472, 1473, 215
6302, 1482, 1375, 1186, 272
6303, 656, 1387, 1313, 1106
6304, 860, 1104, 1090, 1380
6305, 1313, 656, 1446, 642
6306, 1298, 1296, 54, 697
6307, 1494, 582, 557, 558
6308, 967, 935, 1031, 1265
6309, 619, 1084, 1581, 1580
6310, 752, 838, 1091, 818
6311, 975, 584, 559, 560
6312, 757, 991, 1154, 720
6313, 1293, 606, 1350, 1294
6314, 1494, 558, 583, 582
6315, 320, 295, 319, 1028
6316, 1445, 639, 1582, 638
6317, 1323, 56, 1399, 55
6318, 826, 1393, 1022, 1289
6319, 1321, 1509, 514, 513
6320, 1086, 1561, 1342, 1531
6321, 1245, 292, 268, 293
6322, 239, 1542, 1577, 240
6323, 1183, 246, 1567, 247
6324, 1247, 1189, 946, 1246
6325, 1472, 1473, 215, 214
6326, 1530, 1558, 1219, 839
6327, 1333, 1373, 186, 187
6328, 1272, 190, 1443, 191
6329, 1562, 1420, 1252, 1450
6330, 1544, 1498, 90, 135
6331, 1544, 1543, 1534, 1344
6332, 1370, 1506, 132, 157
6333, 1266, 367, 1166, 1495
6334, 1273, 1272, 1443, 1442
6335, 1479, 1481, 348, 323
6336, 1538, 89, 1344, 88
6337, 1332, 1334, 137, 162
6338, 1341, 1345, 1431, 106
6339, 793, 790, 1143, 794
6340, 904, 897, 801, 1481
6341, 1551, 197, 1269, 198
6342, 1239, 1310, 230, 1311
6343, 1277, 241, 1244, 1542
6344, 889, 1577, 1441, 1572
6345, 144, 1451, 1449, 1430
6346, 712, 1558, 1525, 1526
6347, 1220, 1270, 1175, 1165
6348, 1383, 1386, 1385, 167
6349, 12, 145, 81, 82
6350, 762, 283, 1573, 282
6351, 951, 1573, 762, 283
6352, 1476, 309, 333, 308
6353, 762, 1573, 281, 282
6354, 822, 830, 829, 1238
6355, 822, 1061, 1237, 914
6356, 1182, 1355, 448, 449
6357, 1348, 1532, 1334, 1333
6358, 1232, 345, 1167, 344
6359, 1032, 317, 1279, 342
6360, 1179, 1194, 441, 442
6361, 1056, 1213, 1123, 1214
6362, 774, 799, 801, 897
6363, 721, 868, 873, 870
6364, 1009, 1432, 350, 375
6365, 1213, 1465, 1176, 1516
6366, 423, 1180, 448, 1182
6367, 398, 1066, 397, 1181
6368, 1016, 1014, 1356, 1469
6369, 920, 917, 445, 446
6370, 1060, 1308, 1014, 1061
6371, 445, 919, 420, 444
6372, 923, 919, 444, 1512
6373, 830, 1238, 1306, 829
6374, 422, 447, 1181, 920
6375, 1508, 444, 923, 919
6376, 1260, 443, 1194, 442
6377, 917, 471, 447, 1456
6378, 1352, 383, 408, 407
6379, 1214, 412, 1407, 1408
6380, 942, 1510, 1479, 1569
6381, 1357, 332, 308, 727
6382, 1059, 1062, 1063, 876
6383, 803, 778, 736, 804
6384, 1353, 331, 1354, 330
6385, 798, 731, 801, 802
6386, 1134, 399, 1066, 374
6387, 1009, 376, 1069, 375
6388, 1029, 344, 368, 343
6389, 1584, 301, 861, 851
6390, 773, 774, 1007, 1507
6391, 1507, 352, 327, 328
6392, 1485, 773, 37, 771
6393, 1134, 1066, 373, 374
6394, 1347, 436, 1407, 437
6395, 807, 1133, 920, 806
6396, 395, 1070, 1211, 1231
6397, 1520, 1401, 1352, 408
6398, 1549, 194, 1487, 193
6399, 1241, 243, 1242, 244
6400, 1263, 1248, 847, 938
6401, 1383, 1386, 167, 168
6402, 1273, 1384, 1360, 1390
6403, 1362, 716, 1543, 1171
6404, 1383, 1385, 166, 167
6405, 768, 1054, 1553, 1224
6406, 1288, 1282, 1553, 908
6407, 775, 377, 772, 924
6408, 1553, 1054, 1583, 1224
6409, 1541, 605, 604, 580
6410, 1499, 1532, 186, 185
6411, 720, 1524, 769, 1012
6412, 1448, 720, 1524, 1533
6413, 1313, 1446, 640, 642
6414, 1350, 1094, 685, 1093
6415, 1153, 692, 76, 687
6416, 1300, 597, 1400, 1327
6417, 908, 1389, 883, 1305
6418, 596, 597, 1454, 1327
6419, 758, 599, 719, 600
6420, 1323, 698, 1582, 644
6421, 1445, 638, 1582, 1296
6422, 1328, 595, 1312, 596
6423, 1444, 636, 1297, 694
6424, 1339, 1399, 1324, 1327
6425, 1105, 1325, 648, 647
6426, 1335, 766, 40, 428
6427, 632, 1222, 630, 1223
6428, 767, 40, 379, 1488
6429, 1137, 228, 1291, 1364
6430, 1371, 1505, 156, 181
6431, 1405, 102, 1527, 95
6432, 29, 1406, 1405, 153
6433, 1496, 6, 151, 150
6434, 766, 378, 924, 772
6435, 1530, 1555, 127, 1415
6436, 1071, 192, 1386, 193
6437, 1071, 191, 1385, 192
6438, 1450, 1452, 1447, 1449
6439, 945, 944, 903, 1186
6440, 353, 1507, 352, 771
6441, 1493, 428, 1335, 427
6442, 1433, 1009, 1432, 350
6443, 873, 721, 967, 941
6444, 771, 38, 772, 378
6445, 1199, 1239, 1240, 1311
6446, 1479, 1481, 1486, 348
6447, 1203, 279, 1200, 280
6448, 1432, 1486, 1433, 349
6449, 1359, 714, 1219, 712
6450, 1166, 1495, 367, 392
6451, 865, 1357, 283, 308
6452, 1486, 348, 1481, 349
6453, 1067, 1233, 802, 1068
6454, 767, 766, 1485, 39
6455, 1232, 1211, 395, 370
6456, 1192, 1108, 1107, 1402
6457, 1213, 1516, 1570, 1214
6458, 318, 1279, 1280, 317
6459, 877, 918, 1184, 917
6460, 1118, 1260, 1178, 1495
6461, 1234, 1401, 1230, 1229
6462, 1050, 1230, 1161, 1127
6463, 1233, 1569, 1211, 1232
6464, 812, 1032, 1033, 1065
6465, 979, 980, 968, 972
6466, 1485, 766, 772, 38
6467, 1066, 399, 1185, 398
6468, 1118, 1178, 1266, 1495
6469, 1263, 217, 1243, 1275
6470, 944, 1164, 1186, 1183
6471, 1493, 1337, 402, 427
6472, 1370, 1372, 1228, 1371
6473, 1255, 1398, 1452, 1416
6474, 714, 739, 715, 718
6475, 863, 963, 864, 1476
6476, 811, 1044, 733, 777
6477, 1233, 1067, 1211, 1068
6478, 1408, 413, 1214, 412
6479, 389, 971, 388, 1177
6480, 1215, 1177, 414, 413
6481, 1158, 1488, 404, 827
6482, 1029, 1033, 368, 1166
6483, 1495, 1266, 1278, 1166
6484, 1409, 413, 1177, 1215
6485, 1348, 1344, 1332, 1334
6486, 1556, 1130, 1196, 1123
6487, 1135, 1306, 1488, 827
6488, 1557, 1346, 1402, 877
6489, 877, 1030, 919, 917
6490, 1557, 495, 1030, 496
6491, 1030, 1346, 470, 495
6492, 1272, 1473, 190, 215
6493, 444, 919, 420, 1512
6494, 1030, 1456, 1564, 496
6495, 1030, 917, 471, 446
6496, 1460, 560, 1319, 561
6497, 1024, 100, 1552, 104
6498, 1071, 1275, 216, 217
6499, 929, 1284, 1290, 1001
6500, 996, 876, 1564, 1402
6501, 1468, 1204, 476, 1308
6502, 823, 829, 455, 454
6503, 1072, 1379, 975, 977
6504, 1071, 1487, 193, 1386
6505, 1318, 1351, 1316, 1378
6506, 1025, 930, 929, 532
6507, 821, 1135, 1306, 830
6508, 1347, 437, 1407, 1214
6509, 1019, 1026, 484, 509
6510, 877, 1564, 1030, 1456
6511, 1543, 1362, 1024, 1534
6512, 1561, 1373, 1503, 707
6513, 1171, 1526, 1543, 1024
6514, 1394, 512, 1509, 1474
6515, 1509, 1474, 1321, 1316
6516, 1030, 1346, 469, 470
6517, 1192, 443, 1508, 468
6518, 1107, 1194, 468, 467
6519, 916, 808, 923, 918
6520, 1082, 593, 569, 594
6521, 1504, 1425, 1564, 497
6522, 877, 876, 1402, 1564
6523, 1557, 519, 494, 495
6524, 1549, 1391, 1568, 1451
6525, 100, 1498, 90, 1024
6526, 36, 1547, 1574, 37
6527, 1574, 37, 1507, 36
6528, 773, 1547, 329, 37
6529, 1203, 1547, 1202, 279
6530, 728, 925, 1466, 1231
6531, 1242, 1262, 220, 219
6532, 767, 766, 39, 40
6533, 1563, 1353, 1354, 330
6534, 1133, 1182, 1016, 1184
6535, 1050, 780, 1161, 1158
6536, 1322, 303, 35, 1202
6537, 937, 945, 899, 1377
6538, 1563, 1547, 985, 1545
6539, 1563, 354, 1485, 329
6540, 790, 252, 227, 228
6541, 1239, 759, 256, 231
6542, 1164, 248, 1175, 249
6543, 1543, 118, 1024, 123
6544, 1033, 341, 1266, 1065
6545, 1026, 1343, 484, 483
6546, 1234, 1159, 407, 432
6547, 1520, 1401, 1412, 1046
6548, 915, 1042, 1041, 1389
6549, 1177, 1051, 970, 1055
6550, 1058, 1049, 1412, 1229
6551, 822, 829, 823, 1236
6552, 1218, 1196, 1108, 1317
6553, 1508, 923, 1192, 877
6554, 1369, 120, 1368, 102
6555, 1410, 1496, 150, 1537
6556, 6, 151, 96, 80
6557, 151, 96, 80, 1539
6558, 1404, 1539, 152, 151
6559, 1539, 83, 152, 96
6560, 1412, 978, 1407, 1414
6561, 1171, 1540, 1558, 1526
6562, 39, 767, 40, 379
6563, 1306, 41, 1488, 429
6564, 429, 454, 430, 827
6565, 814, 1151, 1099, 1153
6566, 1150, 1074, 756, 1075
6567, 605, 1294, 1541, 1519
6568, 1096, 1293, 1350, 1151
6569, 1541, 580, 1294, 605
6570, 1350, 685, 72, 71
6571, 1515, 1293, 581, 582
6572, 1515, 1116, 931, 556
6573, 1293, 1350, 606, 1096
6574, 1519, 72, 684, 73
6575, 1524, 1533, 629, 1223
6576, 1226, 1541, 1117, 1515
6577, 1541, 1553, 1583, 1224
6578, 1093, 71, 705, 681
6579, 974, 608, 1095, 607
6580, 890, 1142, 34, 33
6581, 1310, 1396, 230, 205
6582, 1239, 1199, 1396, 1310
6583, 1566, 1239, 231, 759
6584, 1547, 279, 36, 1202
6585, 304, 1547, 279, 36
6586, 958, 201, 1139, 955
6587, 1477, 155, 1505, 180
6588, 1500, 1477, 180, 179
6589, 1505, 1477, 1169, 1173
6590, 1148, 1527, 1149, 1368
6591, 1535, 131, 1506, 156
6592, 1139, 1138, 224, 225
6593, 1370, 1372, 157, 132
6594, 1370, 132, 1536, 1372
6595, 1031, 1265, 315, 1065
6596, 949, 236, 1156, 1331
6597, 966, 962, 1575, 312
6598, 937, 899, 1160, 1377
6599, 1169, 1246, 1191, 1087
6600, 798, 1006, 802, 799
6601, 963, 964, 335, 336
6602, 1409, 972, 363, 362
6603, 968, 1264, 971, 972
6604, 1531, 189, 1471, 1561
6605, 1531, 1443, 1473, 190
6606, 1342, 1531, 1561, 164
6607, 168, 1428, 1429, 1386
6608, 1255, 1253, 1416, 1256
6609, 1442, 1529, 1384, 1383
6610, 86, 16, 85, 1478
6611, 1431, 141, 1529, 140
6612, 1442, 1361, 1384, 1529
6613, 141, 1529, 166, 1383
6614, 1453, 112, 1155, 122
6615, 1327, 1399, 621, 597
6616, 1540, 1370, 1552, 1024
6617, 55, 1400, 622, 1399
6618, 1302, 1300, 1043, 1454
6619, 1324, 595, 1328, 596
6620, 720, 600, 601, 625
6621, 1077, 1122, 1489, 1098
6622, 883, 601, 769, 1305
6623, 1083, 595, 1580, 594
6624, 1083, 1580, 1084, 594
6625, 1156, 237, 1331, 236
6626, 188, 1373, 1503, 1561
6627, 1499, 186, 1532, 1373
6628, 1333, 1373, 188, 1561
6629, 1502, 895, 237, 238
6630, 1550, 1190, 1499, 211
6631, 1502, 212, 1503, 213
6632, 1149, 29, 1527, 129
6633, 101, 94, 28, 129
6634, 129, 94, 28, 29
6635, 1368, 1527, 1405, 102
6636, 1535, 1477, 1366, 154
6637, 714, 707, 717, 713
6638, 1527, 1149, 813, 840
6639, 1527, 29, 95, 94
6640, 130, 1535, 131, 813
6641, 613, 1554, 588, 612
6642, 1350, 1094, 1093, 1151
6643, 974, 1122, 609, 975
6644, 1112, 654, 655, 663
6645, 1490, 665, 666, 664
6646, 1002, 569, 1083, 994
6647, 1436, 588, 563, 564
6648, 1581, 1463, 618, 59
6649, 1454, 1327, 1328, 596
6650, 1324, 1399, 621, 1327
6651, 1580, 1339, 1324, 1328
6652, 1248, 1249, 1374, 1250
6653, 1577, 288, 263, 264
6654, 1502, 1577, 895, 238
6655, 1578, 287, 966, 1575
6656, 877, 1346, 1402, 1508
6657, 1304, 1327, 1339, 1328
6658, 802, 942, 1479, 1068
6659, 1321, 859, 1509, 1316
6660, 1320, 1460, 1381, 1319
6661, 1003, 763, 1004, 1107
6662, 859, 1130, 1317, 882
6663, 1474, 537, 1319, 536
6664, 1460, 1381, 1395, 1320
6665, 977, 1091, 1072, 1379
6666, 873, 1578, 966, 1575
6667, 812, 1064, 1065, 969
6668, 1357, 281, 1573, 282
6669, 1047, 1513, 358, 359
6670, 1578, 1331, 262, 287
6671, 1118, 723, 810, 969
6672, 965, 1265, 338, 1571
6673, 889, 1572, 1441, 935
6674, 1578, 1331, 287, 1575
6675, 1272, 1473, 1443, 190
6676, 815, 1224, 768, 1541
6677, 763, 1557, 519, 494
6678, 1403, 491, 1193, 492
6679, 1491, 63, 665, 64
6680, 1216, 701, 663, 661
6681, 1436, 589, 1459, 588
6682, 1072, 1458, 1437, 975
6683, 1333, 1334, 162, 161
6684, 1341, 1431, 87, 106
6685, 1332, 1342, 1561, 163
6686, 1332, 1333, 162, 163
6687, 1342, 1561, 163, 164
6688, 707, 1373, 1333, 1561
6689, 780, 1162, 1485, 1354
6690, 366, 1266, 341, 365
6691, 938, 937, 1248, 944
6692, 1193, 1003, 1004, 1107
6693, 364, 363, 971, 1264
6694, 1473, 215, 1272, 1275
6695, 1572, 966, 288, 313
6696, 1571, 313, 1572, 314
6697, 943, 1157, 1281, 936
6698, 1510, 320, 1028, 295
6699, 339, 1264, 1265, 338
6700, 1370, 1506, 1536, 132
6701, 1221, 1183, 1567, 1165
6702, 1227, 1228, 1372, 158
6703, 1499, 186, 1373, 211
6704, 1188, 1189, 207, 208
6705, 1566, 1396, 1246, 206
6706, 1285, 207, 1188, 1246
6707, 712, 710, 716, 1526
6708, 1249, 220, 244, 1242
6709, 981, 1201, 939, 982
6710, 360, 359, 1513, 1047
6711, 1520, 1401, 409, 1412
6712, 946, 759, 1246, 1189
6713, 964, 972, 362, 337
6714, 1409, 1434, 362, 387
6715, 878, 962, 310, 1575
6716, 1485, 773, 329, 37
6717, 1470, 1588, 434, 435
6718, 1059, 1088, 1063, 1062
6719, 1409, 1434, 972, 362
6720, 1215, 1214, 413, 1465
6721, 1335, 40, 767, 1488
6722, 965, 338, 972, 337
6723, 1413, 1434, 387, 386
6724, 1542, 1577, 1502, 239
6725, 214, 1502, 1503, 213
6726, 1550, 1257, 1373, 1499
6727, 1038, 874, 875, 876
6728, 1239, 946, 1246, 1199
6729, 1550, 1502, 237, 212
6730, 1502, 214, 1472, 239
6731, 212, 1503, 188, 1373
6732, 1243, 933, 1542, 1244
6733, 265, 240, 264, 1577
6734, 1402, 1508, 1346, 1107
6735, 1188, 1228, 182, 1371
6736, 1190, 1499, 185, 1501
6737, 983, 1047, 984, 864
6738, 1427, 1254, 1253, 1359
6739, 948, 761, 949, 259
6740, 717, 1532, 1333, 1373
6741, 889, 1578, 1577, 1572
6742, 1285, 1505, 1371, 181
6743, 1333, 163, 1561, 188
6744, 1109, 1195, 1403, 882
6745, 1156, 1190, 1550, 236
6746, 1532, 1333, 186, 161
6747, 753, 749, 1491, 1459
6748, 1440, 1490, 1078, 669
6749, 1076, 671, 672, 679
6750, 1107, 493, 1346, 763
6751, 1438, 1490, 65, 64
6752, 1457, 1437, 612, 1554
6753, 749, 1491, 1459, 1462
6754, 1120, 816, 1151, 1097
6755, 1055, 1057, 1213, 1119
6756, 281, 762, 257, 1240
6757, 281, 1203, 1546, 1240
6758, 1231, 728, 1233, 1166
6759, 1239, 1311, 230, 255
6760, 950, 1239, 759, 1240
6761, 1200, 1311, 255, 254
6762, 1546, 867, 985, 1357
6763, 1278, 1233, 728, 1166
6764, 285, 948, 878, 260
6765, 1515, 1226, 1116, 1117
6766, 1286, 1040, 1587, 1001
6767, 1142, 1311, 254, 229
6768, 1321, 1474, 537, 1319
6769, 1286, 1040, 1001, 1287
6770, 783, 905, 991, 1305
6771, 1041, 908, 46, 1287
6772, 1282, 929, 1283, 1116
6773, 1379, 1381, 559, 1023
6774, 558, 930, 557, 1494
6775, 948, 259, 949, 260
6776, 1187, 1164, 1174, 249
6777, 1515, 1226, 1541, 1294
6778, 557, 582, 1494, 931
6779, 1515, 931, 976, 582
6780, 1287, 1553, 1117, 1282
6781, 1395, 1381, 1460, 560
6782, 1509, 1474, 512, 1321
6783, 787, 1419, 996, 876
6784, 569, 1082, 1083, 994
6785, 857, 1005, 859, 858
6786, 512, 1321, 513, 1509
6787, 761, 946, 947, 1189
6788, 927, 944, 742, 796
6789, 763, 1557, 996, 519
6790, 1417, 1460, 1458, 1395
6791, 974, 584, 976, 975
6792, 1395, 975, 585, 586
6793, 819, 1446, 992, 1313
6794, 880, 993, 1081, 1082
6795, 1395, 585, 560, 561
6796, 561, 1458, 586, 562
6797, 610, 1458, 586, 975
6798, 745, 748, 1106, 1105
6799, 1142, 890, 790, 253
6800, 1437, 1554, 1457, 1072
6801, 1458, 975, 610, 1437
6802, 783, 905, 907, 842
6803, 1457, 1459, 1554, 588
6804, 1323, 1445, 1582, 1296
6805, 768, 1154, 1288, 770
6806, 1106, 641, 1446, 656
6807, 1467, 650, 61, 60
6808, 1114, 701, 650, 663
6809, 1315, 1084, 1581, 1463
6810, 1526, 1345, 113, 116
6811, 1365, 1291, 1367, 1292
6812, 1310, 789, 1364, 1142
6813, 794, 1329, 226, 251
6814, 1410, 1267, 176, 955
6815, 1291, 203, 1367, 31
6816, 274, 861, 250, 1187
6817, 1139, 224, 1270, 199
6818, 1540, 1558, 1526, 123
6819, 753, 1554, 1072, 1417
6820, 743, 751, 747, 749
6821, 905, 1212, 817, 1288
6822, 1298, 1296, 623, 54
6823, 1461, 1271, 591, 616
6824, 1467, 617, 1463, 60
6825, 1439, 1295, 610, 67
6826, 838, 990, 841, 817
6827, 1341, 1332, 137, 138
6828, 1332, 1538, 1334, 1344
6829, 137, 1538, 1334, 1332
6830, 1362, 1501, 1498, 1534
6831, 1344, 113, 1345, 106
6832, 1543, 1345, 1344, 113
6833, 1529, 1342, 1531, 1361
6834, 1298, 638, 1296, 697
6835, 1479, 347, 1560, 1559
6836, 1233, 806, 728, 1231
6837, 1028, 1377, 1157, 1027
6838, 1543, 1526, 1345, 113
6839, 1479, 1559, 322, 347
6840, 1246, 1191, 1087, 1247
6841, 1510, 1377, 942, 1376
6842, 294, 1028, 295, 1250
6843, 1188, 1169, 1228, 1371
6844, 1563, 329, 773, 1547
6845, 806, 1233, 1067, 1211
6846, 1263, 218, 1243, 217
6847, 1560, 1559, 347, 346
6848, 1569, 1211, 345, 346
6849, 1027, 943, 1160, 1157
6850, 865, 1357, 867, 1573
6851, 1070, 396, 1210, 397
6852, 1482, 322, 298, 323
6853, 1544, 90, 1024, 118
6854, 1362, 1501, 1227, 1498
6855, 1187, 1482, 273, 274
6856, 1209, 897, 1481, 1433
6857, 1376, 904, 1479, 1483
6858, 945, 1482, 1375, 1186
6859, 1534, 716, 1543, 1362
6860, 1207, 1200, 279, 254
6861, 929, 1001, 1116, 1287
6862, 1151, 1519, 1224, 1541
6863, 1314, 654, 1114, 651
6864, 1117, 1001, 1000, 554
6865, 556, 581, 557, 931
6866, 1046, 726, 1044, 1047
6867, 1412, 410, 409, 385
6868, 1026, 1393, 1343, 1475
6869, 1476, 1047, 984, 725
6870, 1045, 1413, 1048, 1414
6871, 1045, 1046, 1047, 360
6872, 962, 1575, 312, 311
6873, 964, 1434, 362, 972
6874, 964, 1434, 361, 362
6875, 1045, 360, 964, 361
6876, 980, 972, 979, 965
6877, 962, 1575, 311, 310
6878, 335, 1045, 360, 964
6879, 965, 964, 337, 972
6880, 896, 904, 902, 899
6881, 904, 1483, 1482, 1481
6882, 323, 298, 1482, 1480
6883, 248, 1175, 1165, 1164
6884, 1416, 1359, 1415, 1453
6885, 1187, 273, 1482, 1186
6886, 946, 1189, 761, 759
6887, 1481, 1480, 1584, 324
6888, 1039, 1038, 1206, 1303
6889, 1511, 1587, 1307, 914
6890, 1451, 1568, 170, 171
6891, 1585, 1306, 41, 1338
6892, 1430, 1451, 1427, 1428
6893, 1335, 1338, 453, 41
6894, 1468, 1014, 1308, 451
6895, 824, 912, 1393, 1128
6896, 1335, 1488, 1306, 41
6897, 1220, 1551, 1421, 1269
6898, 1523, 8, 148, 9
6899, 1390, 1386, 1071, 1385
6900, 1263, 1487, 1261, 219
6901, 1549, 1428, 1386, 1391
6902, 717, 1170, 741, 715
6903, 1086, 1473, 1531, 1443
6904, 1071, 1272, 191, 216
6905, 1254, 1428, 1451, 1391
6906, 1386, 1385, 167, 192
6907, 1352, 383, 1127, 1520
6908, 799, 1009, 775, 1069
6909, 979, 965, 972, 964
6910, 963, 1476, 310, 335
6911, 1008, 376, 775, 1009
6912, 1254, 1251, 1391, 1568
6913, 852, 898, 897, 1007
6914, 1207, 890, 1142, 34
6915, 771, 772, 377, 378
6916, 919, 916, 917, 921
6917, 1286, 915, 1511, 1040
6918, 1391, 1568, 1392, 1261
6919, 1557, 1346, 1030, 495
6920, 1425, 497, 496, 1564
6921, 1428, 143, 1430, 144
6922, 13, 1430, 143, 144
6923, 1430, 144, 13, 82
6924, 1449, 144, 82, 145
6925, 1430, 14, 143, 98
6926, 851, 861, 1480, 903
6927, 1429, 1383, 1478, 143
6928, 1242, 1262, 1248, 1249
6929, 813, 1527, 103, 101
6930, 840, 1540, 110, 114
6931, 92, 110, 813, 1506
6932, 92, 813, 131, 1506
6933, 1549, 1261, 194, 1568
6934, 872, 895, 1578, 1331
6935, 1535, 1505, 156, 1506
6936, 753, 1417, 1459, 1554
6937, 755, 1295, 1072, 1437
6938, 1438, 613, 1491, 64
6939, 1459, 1554, 588, 613
6940, 1091, 1073, 977, 1072
6941, 1244, 1245, 292, 267
6942, 1457, 563, 1436, 588
6943, 1492, 1459, 589, 614
6944, 814, 1099, 1150, 1152
6945, 743, 752, 754, 756
6946, 1490, 1491, 753, 1216
6947, 1467, 1462, 701, 1114
6948, 753, 1459, 1491, 1554
6949, 1114, 747, 1467, 1462
6950, 61, 1462, 701, 1467
6951, 1459, 614, 1492, 1462
6952, 1491, 614, 1462, 63
6953, 1462, 616, 1467, 61
6954, 1391, 1386, 1549, 1487
6955, 1548, 1420, 197, 196
6956, 1392, 195, 1568, 196
6957, 243, 218, 1243, 1242
6958, 234, 947, 760, 259
6959, 1163, 950, 1573, 1240
6960, 886, 872, 1331, 895
6961, 1331, 1575, 285, 286
6962, 878, 1331, 1575, 285
6963, 1041, 45, 578, 553
6964, 1041, 45, 553, 1042
6965, 1041, 1040, 46, 45
6966, 1283, 929, 1023, 931
6967, 1041, 1040, 915, 906
6968, 1040, 1286, 1587, 1511
6969, 1511, 1587, 1040, 44
6970, 1511, 1309, 502, 527
6971, 1237, 503, 1511, 502
6972, 44, 1511, 1042, 1040
6973, 1553, 554, 1583, 46
6974, 724, 941, 812, 723
6975, 1069, 1011, 400, 401
6976, 1338, 1337, 452, 451
6977, 1308, 1061, 1238, 1338
6978, 978, 1056, 973, 1035
6979, 1037, 1206, 1204, 1309
6980, 1338, 1306, 41, 1335
6981, 1134, 375, 1069, 400
6982, 1416, 1398, 128, 127
6983, 1384, 1529, 1431, 1478
6984, 1453, 84, 112, 105
6985, 1526, 1558, 126, 123
6986, 737, 1219, 1253, 1359
6987, 1045, 386, 1414, 385
6988, 1470, 434, 1401, 409
6989, 421, 1070, 420, 920
6990, 462, 1214, 1347, 1556
6991, 1520, 1412, 384, 1046
6992, 1412, 1046, 385, 384
6993, 1234, 825, 1159, 432
6994, 1408, 1413, 412, 1407
6995, 1414, 386, 1413, 411
6996, 387, 412, 1409, 1413
6997, 387, 412, 388, 1409
6998, 869, 870, 964, 965
6999, 1196, 1108, 1317, 882
7000, 825, 1464, 457, 1475
7001, 807, 1184, 917, 920
7002, 828, 827, 430, 455
7003, 828, 827, 455, 829
7004, 827, 454, 430, 455
7005, 1546, 867, 1357, 1573
7006, 1352, 1159, 1234, 1230
7007, 825, 1159, 432, 431
7008, 1131, 1343, 831, 1475
7009, 1161, 406, 382, 1159
7010, 827, 1158, 405, 404
7011, 827, 1488, 404, 429
7012, 338, 965, 972, 1264
7013, 1414, 1407, 410, 411
7014, 965, 962, 312, 337
7015, 436, 435, 1347, 1407
7016, 978, 811, 1048, 1049
7017, 1343, 434, 1588, 459
7018, 1571, 967, 1572, 966
7019, 1031, 1032, 1065, 1435
7020, 1445, 1582, 639, 646
7021, 895, 1577, 1578, 263
7022, 1502, 1577, 238, 239
7023, 263, 288, 1577, 1578
7024, 1577, 895, 238, 263
7025, 315, 1571, 339, 1265
7026, 444, 1030, 1508, 469
7027, 916, 922, 807, 920
7028, 925, 923, 1260, 418
7029, 921, 919, 1512, 420
7030, 1466, 728, 1166, 1495
7031, 1572, 314, 1441, 935
7032, 1217, 877, 1192, 918
7033, 1131, 1230, 1234, 825
7034, 1015, 1061, 1060, 1014
7035, 935, 314, 1441, 315
7036, 1557, 1346, 495, 494
7037, 519, 996, 1423, 1557
7038, 843, 1304, 841, 995
7039, 996, 1564, 1557, 1402
7040, 1003, 999, 763, 1402
7041, 1557, 1564, 1425, 496
7042, 1557, 496, 1425, 521
7043, 1343, 1382, 1129, 1393
7044, 1517, 1556, 1347, 1129
7045, 436, 1347, 1588, 461
7046, 1517, 1426, 461, 486
7047, 1048, 1044, 811, 1045
7048, 435, 1347, 1588, 436
7049, 882, 1003, 1109, 1108
7050, 1578, 288, 966, 287
7051, 1394, 485, 1426, 486
7052, 1556, 1214, 463, 462
7053, 1470, 409, 1412, 410
7054, 1470, 410, 1407, 435
7055, 760, 1189, 232, 759
7056, 1190, 185, 1499, 210
7057, 1188, 1228, 183, 182
7058, 878, 285, 1575, 310
7059, 717, 1499, 1501, 1532
7060, 1306, 478, 41, 42
7061, 1585, 478, 41, 1306
7062, 1306, 827, 429, 1488
7063, 1338, 1238, 1585, 1306
7064, 830, 1238, 1338, 1306
7065, 429, 454, 827, 1306
7066, 1306, 454, 829, 42
7067, 1401, 1046, 1520, 1127
7068, 1355, 875, 1456, 473
7069, 966, 312, 1575, 287
7070, 1310, 1080, 1396, 1363
7071, 1396, 1239, 1310, 230
7072, 265, 1542, 1441, 266
7073, 1239, 1240, 256, 759
7074, 1239, 255, 1240, 1311
7075, 946, 1239, 1246, 759
7076, 974, 584, 975, 609
7077, 583, 976, 584, 1494
7078, 1295, 975, 1437, 610
7079, 584, 976, 975, 1494
7080, 1125, 1034, 1057, 1123
7081, 1072, 1295, 975, 1437
7082, 1180, 447, 1456, 917
7083, 611, 1437, 1439, 612
7084, 1295, 609, 1122, 975
7085, 1350, 1294, 606, 605
7086, 1295, 1122, 609, 68
7087, 1405, 153, 83, 95
7088, 1405, 83, 1539, 108
7089, 1405, 1539, 83, 152
7090, 1576, 490, 1484, 489
7091, 1195, 466, 1403, 465
7092, 1527, 1149, 1405, 29
7093, 1536, 1372, 133, 1552
7094, 1536, 1506, 131, 132
7095, 1538, 1544, 1344, 89
7096, 1362, 1552, 1024, 1498
7097, 1576, 1403, 1484, 490
7098, 840, 110, 1536, 1506
7099, 1540, 1558, 123, 114
7100, 1024, 1552, 100, 1498
7101, 133, 100, 91, 1552
7102, 24, 133, 100, 91
7103, 1586, 1010, 46, 908
7104, 1054, 46, 1583, 47
7105, 1576, 465, 1403, 490
7106, 1293, 1120, 1151, 1096
7107, 905, 1288, 817, 770
7108, 906, 1040, 1286, 1287
7109, 1197, 1141, 1207, 1198
7110, 1329, 251, 855, 250
7111, 1202, 1201, 1547, 1203
7112, 892, 848, 887, 1258
7113, 1243, 1275, 217, 242
7114, 1199, 1396, 1310, 1080
7115, 1201, 985, 1546, 867
7116, 1208, 328, 1507, 327
7117, 1021, 1474, 1319, 535
7118, 1521, 1422, 1497, 1522
7119, 1420, 171, 1562, 172
7120, 1420, 1568, 1450, 171
7121, 1521, 9, 147, 10
7122, 1521, 9, 1523, 148
7123, 173, 172, 1269, 1422
7124, 1386, 168, 1383, 1429
7125, 1447, 1449, 81, 146
7126, 143, 1428, 1429, 168
7127, 1315, 1324, 1105, 1325
7128, 1323, 699, 1325, 57
7129, 651, 1314, 1581, 1114
7130, 1490, 1216, 665, 1491
7131, 1314, 700, 1581, 1325
7132, 59, 1581, 1314, 700
7133, 1324, 1325, 620, 57
7134, 1580, 620, 1325, 619
7135, 1384, 1385, 1442, 1383
7136, 1110, 1112, 1111, 744
7137, 1581, 1463, 59, 651
7138, 1314, 59, 652, 651
7139, 1400, 1298, 623, 624
7140, 575, 1418, 574, 719
7141, 989, 1399, 1339, 1327
7142, 1400, 1298, 1296, 623
7143, 1305, 576, 719, 575
7144, 576, 883, 1305, 601
7145, 757, 1298, 758, 624
7146, 1094, 687, 1519, 684
7147, 1551, 223, 1270, 1165
7148, 1255, 1522, 1562, 1452
7149, 1165, 1567, 222, 247
7150, 1551, 1548, 197, 222
7151, 1139, 1138, 1270, 224
7152, 1183, 1567, 1165, 247
7153, 1174, 1175, 224, 249
7154, 1174, 1164, 1175, 249
7155, 776, 726, 1353, 984
7156, 965, 966, 313, 312
7157, 1441, 1435, 290, 291
7158, 1354, 1162, 355, 356
7159, 1118, 1178, 970, 1266
7160, 764, 1485, 780, 767
7161, 965, 962, 337, 964
7162, 962, 335, 311, 336
7163, 331, 1354, 332, 1353
7164, 1493, 775, 765, 924
7165, 1571, 338, 965, 313
7166, 962, 964, 336, 337
7167, 533, 930, 534, 1018
7168, 908, 770, 1010, 1288
7169, 592, 1082, 568, 1103
7170, 1462, 747, 1467, 1271
7171, 1276, 1358, 1257, 1502
7172, 1525, 1526, 116, 1345
7173, 945, 1377, 1375, 1483
7174, 1374, 247, 1183, 1186
7175, 1374, 270, 1375, 1250
7176, 1510, 1375, 1483, 296
7177, 1374, 1186, 272, 247
7178, 1375, 1186, 272, 1374
7179, 875, 1564, 1456, 497
7180, 1504, 1425, 497, 522
7181, 875, 1456, 472, 497
7182, 875, 472, 1456, 473
7183, 1355, 875, 473, 474
7184, 784, 1305, 1043, 1418
7185, 1504, 497, 875, 498
7186, 1504, 1425, 1419, 1564
7187, 1490, 669, 1440, 668
7188, 1491, 1459, 613, 1554
7189, 755, 1072, 753, 1437
7190, 1491, 1459, 614, 613
7191, 1491, 1462, 614, 1459
7192, 1216, 665, 1491, 661
7193, 1462, 63, 661, 1491
7194, 62, 1462, 63, 661
7195, 612, 1437, 1439, 1440
7196, 1075, 1111, 673, 674
7197, 1150, 1387, 1313, 74
7198, 870, 980, 965, 967
7199, 1391, 1261, 1549, 1568
7200, 1472, 214, 1503, 1471
7201, 1472, 214, 1502, 1503
7202, 1525, 1415, 1155, 122
7203, 1503, 1561, 1471, 188
7204, 1018, 508, 1026, 509
7205, 1289, 1022, 1025, 1026
7206, 1475, 482, 458, 483
7207, 783, 842, 841, 905
7208, 484, 1426, 459, 1343
7209, 507, 506, 1025, 1289
7210, 457, 482, 458, 1475
7211, 1464, 1289, 1475, 825
7212, 1393, 1289, 831, 1475
7213, 1290, 481, 1289, 506
7214, 826, 481, 1290, 480
7215, 826, 1289, 481, 1464
7216, 1531, 189, 1473, 1471
7217, 1272, 1443, 1442, 191
7218, 1472, 1473, 214, 1471
7219, 706, 1277, 1473, 1275
7220, 216, 1277, 1275, 215
7221, 1273, 1272, 1473, 1443
7222, 844, 1254, 1252, 1251
7223, 1489, 704, 1122, 68
7224, 1391, 1549, 1261, 1487
7225, 1549, 1568, 194, 169
7226, 1451, 1568, 169, 170
7227, 1261, 194, 1568, 195
7228, 1392, 1261, 1568, 195
7229, 1220, 1251, 1551, 1165
7230, 1548, 1392, 1420, 196
7231, 1420, 1568, 171, 196
7232, 707, 713, 1333, 717
7233, 1256, 1255, 1562, 1452
7234, 1549, 1487, 194, 1261
7235, 1390, 1487, 1071, 1386
7236, 1071, 1386, 192, 1385
7237, 1263, 217, 1071, 218
7238, 850, 1208, 1579, 1198
7239, 1251, 1392, 1568, 1420
7240, 1487, 194, 1261, 219
7241, 1244, 933, 1281, 936
7242, 1071, 1272, 1385, 191
7243, 726, 1353, 984, 725
7244, 979, 964, 972, 1434
7245, 1409, 973, 972, 979
7246, 1490, 1491, 64, 1438
7247, 1265, 1065, 340, 315
7248, 1264, 340, 1065, 365
7249, 969, 971, 1266, 970
7250, 1392, 220, 1261, 195
7251, 1197, 900, 1201, 1163
7252, 1392, 1420, 196, 1568
7253, 1548, 1567, 1392, 221
7254, 1392, 1567, 220, 221
7255, 1391, 1251, 1392, 1568
7256, 1251, 1548, 1392, 1420
7257, 1548, 221, 1392, 196
7258, 1251, 1548, 1567, 1392
7259, 1548, 1567, 221, 222
7260, 1551, 222, 1165, 1567
7261, 1421, 1551, 197, 1269
7262, 1293, 607, 974, 1095
7263, 1093, 1098, 1097, 682
7264, 1093, 1098, 682, 705
7265, 698, 1582, 1296, 1323
7266, 1293, 607, 1096, 606
7267, 1350, 606, 1096, 71
7268, 974, 1095, 608, 1122
7269, 1095, 608, 1122, 69
7270, 1097, 1144, 683, 682
7271, 1095, 1098, 705, 678
7272, 744, 1114, 1112, 1216
7273, 754, 1076, 1077, 1295
7274, 1094, 1099, 1097, 1151
7275, 1095, 678, 1122, 1098
7276, 1225, 687, 1153, 77
7277, 757, 1154, 1448, 720
7278, 1293, 1095, 1096, 607
7279, 611, 610, 1439, 1437
7280, 1097, 1151, 1096, 1093
7281, 1366, 1477, 179, 154
7282, 1363, 1500, 204, 179
7283, 1363, 1500, 179, 1366
7284, 1363, 1477, 1500, 1366
7285, 1147, 957, 1404, 1140
7286, 1149, 1527, 1535, 129
7287, 1149, 1366, 1535, 1477
7288, 1253, 1530, 1398, 1416
7289, 1530, 1416, 127, 1398
7290, 741, 1080, 1169, 1087
7291, 1429, 168, 1383, 143
7292, 1427, 1449, 105, 1452
7293, 717, 1190, 1227, 1501
7294, 1439, 612, 66, 611
7295, 1413, 1409, 387, 1434
7296, 1414, 1045, 1046, 1048
7297, 1414, 385, 1412, 1046
7298, 978, 979, 1413, 1048
7299, 1077, 1489, 679, 1098
7300, 722, 777, 811, 733
7301, 753, 1417, 1089, 749
7302, 671, 1439, 703, 1489
*Elset, elset=ROBOT_EXTERIOR_S1
30, 47, 68, 171, 237, 299, 345, 360, 404, 418, 501, 544, 546, 667, 872, 937
1023, 1055, 1129, 1159, 1183, 1184, 1202, 1205, 1250, 1323, 1356, 1385, 1408, 1449, 1499, 1527
1608, 1610, 1617, 1618, 1621, 1627, 1629, 1635, 1636, 1650, 1657, 1665, 1685, 1686, 1687, 1688
1693, 1702, 1704, 1707, 1708, 1709, 1718, 1722, 1724, 1728, 1731, 1734, 1746, 1748, 1749, 1759
1761, 1763, 1764, 1775, 1782, 1787, 1789, 1794, 1804, 1814, 1816, 1820, 1823, 1826, 1828, 1831
1837, 1841, 1849, 1861, 1863, 1866, 1868, 1870, 1872, 1875, 1882, 1886, 1888, 1890, 1895, 1899
1901, 1917, 1918, 1919, 1922, 1923, 1926, 1928, 1929, 1930, 1931, 1933, 1935, 1941, 1946, 1949
1951, 1952, 1955, 1961, 1963, 1964, 1967, 1978, 1979, 1981, 1982, 1988, 1990, 1993, 1996, 1997
1998, 2013, 2016, 2031, 2038, 2042, 2054, 2059, 2063, 2066, 2073, 2077, 2078, 2082, 2084, 2087
2089, 2095, 2096, 2100, 2115, 2118, 2119, 2122, 2137, 2141, 2144, 2145, 2148, 2149, 2155, 2162
2165, 2169, 2171, 2172, 2173, 2176, 2177, 2182, 2186, 2195, 2200, 2206, 2208, 2219, 2220, 2221
2226, 2228, 2230, 2235, 2238, 2242, 2250, 2254, 2258, 2262, 2266, 2267, 2268, 2274, 2279, 2281
2284, 2286, 2293, 2294, 2295, 2299, 2303, 2315, 2317, 2323, 2324, 2332, 2334, 2338, 2340, 2343
2351, 2352, 2353, 2357, 2358, 2362, 2367, 2370, 2371, 2374, 2379, 2382, 2384, 2385, 2386, 2387
2393, 2398, 2399, 2401, 2407, 2410, 2414, 2415, 2418, 2421, 2422, 2423, 2428, 2434, 2437, 2439
2440, 2444, 2445, 2450, 2455, 2462, 2464, 2467, 2471, 2476, 2478, 2481, 2484, 2489, 2494, 2495
2498, 2504, 2505, 2508, 2510, 2511, 2517, 2518, 2520, 2526, 2528, 2536, 2538, 2540, 2541, 2544
2547, 2549, 2559, 2560, 2570, 2571, 2574, 2578, 2584, 2592, 2595, 2599, 2609, 2610, 2613, 2614
2615, 2618, 2626, 2630, 2637, 2639, 2640, 2641, 2645, 2648, 2653, 2657, 2658, 2663, 2664, 2668
2671, 2675, 2676, 2677, 2681, 2683, 2687, 2692, 2700, 2704, 2707, 2715, 2724, 2725, 2726, 2737
2741, 2742, 2745, 2754, 2755, 2759, 2764, 2767, 2771, 2774, 2777, 2780, 2785, 2787, 2788, 2789
2800, 2803, 2806, 2808, 2809, 2818, 2829, 2830, 2832, 2838, 2842, 2848, 2851, 2853, 2857, 2860
2864, 2866, 2869, 2873, 2874, 2877, 2887, 2889, 2892, 2893, 2898, 2907, 2908, 2920, 2923, 2933
2935, 2938, 2940, 2944, 2951, 2954, 2955, 2959, 2965, 2969, 2979, 2980, 2986, 3005, 3007, 3009
3019, 3021, 3032, 3033, 3034, 3038, 3039, 3041, 3046, 3053, 3054, 3058, 3060, 3070, 3074, 3076
3081, 3089, 3090, 3091, 3093, 3103, 3116, 3118, 3123, 3124, 3127, 3128, 3129, 3131, 3132, 3139
3145, 3150, 3152, 3156, 3160, 3166, 3172, 3173, 3181, 3182, 3184, 3186, 3188, 3205, 3207, 3208
3209, 3211, 3214, 3217, 3220, 3226, 3229, 3234, 3238, 3242, 3252, 3262, 3265, 3266, 3269, 3273
3274, 3276, 3277, 3285, 3296, 3301, 3303, 3305, 3306, 3308, 3309, 3323, 3325, 3326, 3336, 3341
3344, 3347, 3348, 3360, 3372, 3373, 3375, 3376, 3388, 3395, 3400, 3411, 3417, 3420, 3422, 3423
3426, 3428, 3429, 3432, 3434, 3443, 3446, 3448, 3451, 3455, 3463, 3464, 3470, 3476, 3477, 3481
3482, 3484, 3485, 3489, 3491, 3492, 3494, 3508, 3509, 3527, 3528, 3533, 3535, 3537, 3541, 3545
3549, 3552, 3554, 3559, 3561, 3565, 3566, 3573, 3578, 3585, 3589, 3591, 3600, 3610, 3613, 3616
3617, 3627, 3628, 3634, 3635, 3646, 3655, 3658, 3662, 3665, 3675, 3676, 3682, 3683, 3686, 3687
3690, 3693, 3701, 3704, 3705, 3708, 3709, 3711, 3712, 3714, 3716, 3718, 3722, 3733, 3739, 3746
3748, 3749, 3757, 3759, 3760, 3766, 3767, 3769, 3774, 3775, 3777, 3782, 3788, 3789, 3790, 3791
3797, 3798, 3810, 3817, 3834, 3836, 3838, 3839, 3842, 3847, 3848, 3855, 3856, 3867, 3875, 3876
3877, 3879, 3899, 3903, 3906, 3912, 3919, 3923, 3924, 3934, 3936, 3937, 3940, 3942, 3951, 3952
3953, 3959, 3963, 3965, 3967, 3971, 3983, 3995, 4002, 4004, 4005, 4009, 4023, 4024, 4025, 4028
4033, 4036, 4046, 4051, 4056, 4059, 4065, 4069, 4072, 4074, 4078, 4081, 4082, 4085, 4086, 4091
4092, 4094, 4096, 4098, 4102, 4108, 4111, 4113, 4118, 4123, 4129, 4141, 4144, 4148, 4150, 4154
4158, 4160, 4165, 4169, 4175, 4177, 4180, 4182, 4185, 4187, 4188, 4194, 4196, 4203, 4208, 4219
4237, 4241, 4243, 4245, 4248, 4251, 4255, 4256, 4260, 4264, 4267, 4268, 4272, 4276, 4278, 4279
4281, 4285, 4289, 4292, 4294, 4301, 4306, 4307, 4309, 4310, 4314, 4317, 4320, 4325, 4333, 4335
4336, 4343, 4347, 4350, 4353, 4358, 4363, 4368, 4370, 4372, 4381, 4384, 4395, 4400, 4402, 4407
4411, 4421, 4423, 4429, 4438, 4441, 4444, 4445, 4446, 4459, 4466, 4467, 4474, 4476, 4479, 4483
4486, 4488, 4490, 4492, 4494, 4496, 4498, 4499, 4501, 4516, 4520, 4521, 4526, 4532, 4533, 4534
4539, 4540, 4550, 4556, 4563, 4564, 4571, 4574, 4583, 4587, 4588, 4591, 4592, 4600, 4604, 4610
4611, 4613, 4614, 4616, 4618, 4622, 4624, 4629, 4642, 4645, 4646, 4649, 4651, 4657, 4662, 4664
4669, 4670, 4674, 4678, 4679, 4685, 4690, 4694, 4702, 4708, 4709, 4710, 4712, 4717, 4719, 4725
4729, 4740, 4745, 4754, 4755, 4756, 4766, 4767, 4768, 4769, 4787, 4791, 4792, 4797, 4799, 4802
4805, 4810, 4811, 4814, 4816, 4817, 4820, 4821, 4823, 4832, 4836, 4850, 4854, 4859, 4860, 4864
4865, 4872, 4877, 4891, 4892, 4901, 4903, 4907, 4911, 4915, 4916, 4921, 4927, 4930, 4931, 4936
4943, 4956, 4957, 4962, 4976, 4977, 4979, 4981, 4984, 4991, 5017, 5024, 5032, 5042, 5051, 5052
5053, 5054, 5056, 5063, 5064, 5065, 5078, 5079, 5086, 5095, 5107, 5125, 5126, 5129, 5132, 5133
5141, 5146, 5151, 5156, 5157, 5166, 5170, 5175, 5180, 5195, 5199, 5201, 5202, 5204, 5207, 5208
5210, 5215, 5216, 5219, 5221, 5223, 5230, 5232, 5233, 5234, 5238, 5244, 5246, 5259, 5261, 5265
5271, 5272, 5277, 5280, 5285, 5293, 5302, 5310, 5316, 5322, 5326, 5328, 5338, 5342, 5345, 5349
5352, 5368, 5370, 5377, 5379, 5384, 5392, 5396, 5402, 5408, 5412, 5416, 5417, 5420, 5424, 5427
5436, 5438, 5439, 5443, 5444, 5458, 5463, 5464, 5467, 5472, 5479, 5482, 5487, 5493, 5505, 5508
5515, 5517, 5518, 5519, 5521, 5522, 5527, 5533, 5547, 5549, 5551, 5553, 5558, 5563, 5564, 5568
5571, 5572, 5575, 5577, 5583, 5584, 5585, 5592, 5596, 5597, 5602, 5604, 5607, 5609, 5610, 5619
5623, 5625, 5626, 5633, 5636, 5641, 5645, 5649, 5650, 5653, 5656, 5658, 5660, 5666, 5669, 5674
5683, 5687, 5690, 5691, 5696, 5698, 5701, 5704, 5706, 5708, 5713, 5714, 5719, 5721, 5723, 5727
5728, 5736, 5741, 5742, 5743, 5746, 5748, 5749, 5750, 5754, 5763, 5766, 5767, 5768, 5769, 5781
5783, 5785, 5800, 5801, 5803, 5806, 5808, 5810, 5811, 5812, 5816, 5821, 5827, 5828, 5837, 5838
5850, 5858, 5861, 5862, 5868, 5869, 5870, 5872, 5874, 5879, 5881, 5884, 5887, 5888, 5889, 5890
5891, 5899, 5900, 5902, 5908, 5914, 5916, 5917, 5919, 5924, 5925, 5929, 5941, 5942, 5945, 5951
5952, 5954, 5955, 5957, 5964, 5966, 5968, 5973, 5978, 5979, 5980, 5982, 5986, 5988, 5991, 5997
5999, 6001, 6004, 6008, 6009, 6013, 6014, 6016, 6018, 6026, 6027, 6029, 6032, 6037, 6038, 6039
6040, 6063, 6067, 6078, 6081, 6082, 6085, 6089, 6090, 6092, 6093, 6094, 6097, 6102, 6106, 6114
6120, 6124, 6125, 6126, 6135, 6140, 6144, 6162, 6163, 6164, 6167, 6168, 6169, 6172, 6175, 6177
6181, 6183, 6187, 6189, 6192, 6196, 6204, 6205, 6208, 6211, 6213, 6217, 6224, 6225, 6230, 6232
6233, 6234, 6241, 6242, 6244, 6245, 6252, 6262, 6268, 6282, 6284, 6287, 6288, 6299, 6307, 6311
6314, 6321, 6352, 6378, 6388, 6391, 6409, 6415, 6433, 6520, 6523, 6540, 6570, 6574, 6578, 6620
6644, 6645, 6647, 6653, 6679, 6680, 6749, 6795, 6807, 6808, 6852, 6867, 6898, 6963, 6984, 7004
7060, 7121, 7138, 7162, 7206, 7294
*Elset, elset=ROBOT_EXTERIOR_S2
1146, 1523, 1627, 1654, 1800, 1842, 1870, 1930, 2106, 2140, 2241, 2257, 2277, 2307, 2347, 2485
2579, 2706, 2867, 2939, 3028, 3350, 3425, 3584, 3677, 3913, 4029, 4054, 4064, 4178, 4270, 4329
4377, 4435, 4440, 4453, 4461, 4770, 4895, 5091, 5188, 5256, 5446, 5449, 5450, 5496, 5617, 5629
5643, 5676, 5699, 5716, 5760, 5795, 5831, 5910, 6178, 6229, 6349, 6371, 6556, 6562, 6585, 6634
6641, 6690, 6796, 6922, 7102, 7194
*Elset, elset=ROBOT_EXTERIOR_S3
134, 1142, 1323, 1539, 1625, 1741, 1745, 1880, 1911, 1981, 2156, 2176, 2194, 2216, 2220, 2227
2234, 2274, 2275, 2276, 2300, 2314, 2327, 2348, 2425, 2430, 2717, 2784, 2972, 3227, 3294, 3468
3505, 3512, 3639, 3745, 3776, 3787, 3943, 3955, 3984, 4011, 4110, 4127, 4273, 4418, 4436, 4661
4752, 4776, 4897, 4929, 4933, 5094, 5405, 5673, 5823, 5834, 5904, 5930, 5953, 5967, 5994, 6112
6139, 6156, 6209
*Elset, elset=ROBOT_EXTERIOR_S4
501, 940, 1143, 1610, 1636, 1655, 1699, 1790, 1826, 1929, 1931, 2115, 2199, 2208, 2291, 2302
2319, 2335, 2339, 3008, 3082, 3236, 3288, 3972, 4107, 4155, 4193, 4228, 4471, 4549, 4598, 4703
4923, 5027, 5873, 5880, 5934, 6051, 6088, 6315, 6564, 6610, 6633, 6733, 6865, 6997, 7210
*Nset, nset=ROBOT_CEL_BODY, generate
1, 1588, 1
*Elset, elset=ROBOT_CEL_BODY, generate
1, 7302, 1
*Elset, elset=ROBOT_SOLID_ALL, generate
1, 7302, 1
*Surface, type=ELEMENT, name=ROBOT_SOLID_SURF
ROBOT_EXTERIOR_S1, S1
ROBOT_EXTERIOR_S2, S2
ROBOT_EXTERIOR_S3, S3
ROBOT_EXTERIOR_S4, S4
*Solid Section, elset=ROBOT_CEL_BODY, material=MAT_ROBOT_RIGID
,
*End Part
**  
**
** ASSEMBLY
**
*Assembly, name=Assembly
*Instance, name=Pipe_WALL_HELPER-1, part=Pipe_WALL_HELPER
*End Instance
**  
*Instance, name=Pipe_TERMINAL_STOP-1, part=Pipe_TERMINAL_STOP
*End Instance
**  
*Instance, name=Pipe_TERMINAL_STOP_HIGH-1, part=Pipe_TERMINAL_STOP_HIGH
*End Instance
**  
*Elset, elset=PIPE_TERMINAL_STOP_CEL_ALL, instance=Pipe_TERMINAL_STOP-1, generate
1, 75, 1
*Elset, elset=PIPE_TERMINAL_STOP_HIGH_CEL_ALL, instance=Pipe_TERMINAL_STOP_HIGH-1, generate
1, 23, 1
*Elset, elset=PIPE_WALL_HELPER_CEL_ALL, instance=Pipe_WALL_HELPER-1, generate
1, 2880, 1
**  
*Instance, name=Pipe_SOLID-1, part=Pipe_SOLID
*End Instance
**  
*Instance, name=Robot_SOLID-1, part=Robot_SOLID
*End Instance
**  
*Elset, elset=PIPE_SOLID_CEL_ALL, instance=Pipe_SOLID-1, generate
1, 5203, 1
*Elset, elset=ROBOT_SOLID_CEL_ALL, instance=Robot_SOLID-1, generate
1, 7302, 1
**  
*Node
      1,  -5.80302477,  -9.99273777,  -5.95533371
*Node
      2, -7.468174204284, -3.676918015967, -9.550745259298
*Nset, nset=RP_PIPE
 1,
*Nset, nset=RP_ROBOT
 2,
*Elset, elset=PIPE_RIGID_ALL
PIPE_SOLID_CEL_ALL,
PIPE_WALL_HELPER_CEL_ALL,
PIPE_TERMINAL_STOP_CEL_ALL,
PIPE_TERMINAL_STOP_HIGH_CEL_ALL,
*Rigid Body, ref node=RP_PIPE, elset=PIPE_RIGID_ALL
** Constraint: RB_PIPE
** Constraint: RB_ROBOT
*Rigid Body, ref node=RP_ROBOT, elset=ROBOT_SOLID_CEL_ALL
*End Assembly
** Reduced-Hydro: CEL fluid part, material, initialization and CEL contact were removed.
** 
** MATERIALS
** 
*Material, name=MAT_PIPE_RIGID
*Density
 1e-09,
*Elastic
 1e+06, 0.3
*Material, name=MAT_ROBOT_RIGID
*Density
7.80906654321e-09, 
*Elastic
 1e+06, 0.3
** 
** INTERACTION PROPERTIES
** 
*Surface Interaction, name=PROP_CEL_HARD
*Friction
0.03,
*Surface Behavior, pressure-overclosure=HARD
*Contact Damping, definition=CRITICAL DAMPING FRACTION, tangent fraction=0.0
0.5
** 
** BOUNDARY CONDITIONS
** 
** Name: BC_PIPE_FIXED Type: Symmetry/Antisymmetry/Encastre
*Boundary
RP_PIPE, ENCASTRE
** ----------------------------------------------------------------
** 
** STEP: Step_Drive
** 
*Contact
*Contact Inclusions
ROBOT_SOLID-1.ROBOT_SOLID_SURF, Pipe_WALL_HELPER-1.PIPE_WALL_HELPER_SURF
*Contact Property Assignment
ROBOT_SOLID-1.ROBOT_SOLID_SURF, Pipe_WALL_HELPER-1.PIPE_WALL_HELPER_SURF, PROP_CEL_HARD
** REDUCED-HYDRO BASELINE; CEL REMOVED; production external Magpylib retained.
** FREE-TRANSLATION PARAMETERS: phase=248.0 deg; cone=30 deg; Bias40; gradient=6.000 mT=0.006000 T; server-side analytic field
** SOCKET BASELINE JOB: Job_RouteA_CEL_Socket_ConnectorFixed_Capsule_0p003
** Local centerline frame at COM RP (metadata only); COM translations constrained in calibration
** COM-fixed RP_ROBOT = (-7.468174204284, -3.676918015967, -9.550745259298) mm; volume-weighted mesh COM
** tangent-X = (-0.928048296, 0.179421111, -0.326396119)
** transported-Y = (0.140416425, 0.988230515, -0.0606933022)
** binormal-Z = (0.312362773, -0.102386426, -0.944429202)
** CSF rho=1.0007e-09 tonne/mm^3; mu=7.1e-10 N*s/mm^2; c0=1480000 mm/s
*Step, name=Step_Drive, nlgeom=YES
*Dynamic, Explicit, DIRECT
1.0e-7, 0.200000000
*Bulk Viscosity
0.06, 1.2
** 
** BOUNDARY CONDITIONS
** 
** REDUCED-HYDRO LOAD INTERFACE: magnetic Socket loads plus dissipative body-following hydro loads.
** SOCKET_* remain production Magpylib loads; HYDRO_* are local dissipative loads from RP V/VR sensors.
** DOF 1..3: Fx,Fy,Fz [N]; DOF 4..6: Mx,My,Mz [N*mm].
** Abaqus uses *CLOAD for both concentrated forces and moments;
** CFORCE/CMOMENT are output quantities, not input keywords.
*Amplitude, name=SOCKET_FX, definition=USER
*Amplitude, name=SOCKET_FY, definition=USER
*Amplitude, name=SOCKET_FZ, definition=USER
*Amplitude, name=SOCKET_MX, definition=USER
*Amplitude, name=SOCKET_MY, definition=USER
*Amplitude, name=SOCKET_MZ, definition=USER
*Cload, amplitude=SOCKET_FX
RP_ROBOT, 1, 1.
*Cload, amplitude=SOCKET_FY
RP_ROBOT, 2, 1.
*Cload, amplitude=SOCKET_FZ
RP_ROBOT, 3, 1.
*Cload, amplitude=SOCKET_MX
RP_ROBOT, 4, 1.
*Cload, amplitude=SOCKET_MY
RP_ROBOT, 5, 1.
*Cload, amplitude=SOCKET_MZ
RP_ROBOT, 6, 1.
*Amplitude, name=HYDRO_FX, definition=USER
*Amplitude, name=HYDRO_FY, definition=USER
*Amplitude, name=HYDRO_FZ, definition=USER
*Amplitude, name=HYDRO_MX, definition=USER
*Amplitude, name=HYDRO_MY, definition=USER
*Amplitude, name=HYDRO_MZ, definition=USER
*Cload, amplitude=HYDRO_FX
RP_ROBOT, 1, 1.
*Cload, amplitude=HYDRO_FY
RP_ROBOT, 2, 1.
*Cload, amplitude=HYDRO_FZ
RP_ROBOT, 3, 1.
*Cload, amplitude=HYDRO_MX
RP_ROBOT, 4, 1.
*Cload, amplitude=HYDRO_MY
RP_ROBOT, 5, 1.
*Cload, amplitude=HYDRO_MZ
RP_ROBOT, 6, 1.
** 
** OUTPUT REQUESTS
** 
*Restart, write, number interval=1, time marks=NO
** 
** FIELD OUTPUT: F-Output-1
** 
** IMPACT ENERGY DIAGNOSTIC: preserve all existing physics; save visualization/contact fields every 25 us; RP and contact-resultant history remains every increment.
*Output, field, time interval=5.0e-4, time marks=NO
*Node Output
U
*Node Output, nset=RP_ROBOT
U, UR, V, VR, A, AR, CF, RF, RM
*Contact Output, general contact
CSTRESS, CFORCE
*Contact Output, surface=ROBOT_SOLID-1.ROBOT_SOLID_SURF
CDISP
*Output, history, frequency=1
*Node Output, nset=RP_ROBOT
COORD, U, UR, V, VR, A, AR, CF, RF, RM
*Contact Output, surface=ROBOT_SOLID-1.ROBOT_SOLID_SURF
CFN, CFS, CFT
*Contact Output, surface=Pipe_WALL_HELPER-1.PIPE_WALL_HELPER_SURF
CFN, CFS, CFT
*Output, history, time interval=5.0e-5
*Energy Output, variable=ALL
*Output, history, frequency=1, sensor, name=RP_U1
*Node Output, nset=RP_ROBOT
U1
*Output, history, frequency=1, sensor, name=RP_U2
*Node Output, nset=RP_ROBOT
U2
*Output, history, frequency=1, sensor, name=RP_U3
*Node Output, nset=RP_ROBOT
U3
*Output, history, frequency=1, sensor, name=RP_UR1
*Node Output, nset=RP_ROBOT
UR1
*Output, history, frequency=1, sensor, name=RP_UR2
*Node Output, nset=RP_ROBOT
UR2
*Output, history, frequency=1, sensor, name=RP_UR3
*Node Output, nset=RP_ROBOT
UR3
*Output, history, frequency=1, sensor, name=RP_V1
*Node Output, nset=RP_ROBOT
V1
*Output, history, frequency=1, sensor, name=RP_V2
*Node Output, nset=RP_ROBOT
V2
*Output, history, frequency=1, sensor, name=RP_V3
*Node Output, nset=RP_ROBOT
V3
*Output, history, frequency=1, sensor, name=RP_VR1
*Node Output, nset=RP_ROBOT
VR1
*Output, history, frequency=1, sensor, name=RP_VR2
*Node Output, nset=RP_ROBOT
VR2
*Output, history, frequency=1, sensor, name=RP_VR3
*Node Output, nset=RP_ROBOT
VR3
*End Step
