** R014 exterior mesh analytic-field probe; 10 mg; D055; gradient 6 mT; Bias40; forward
** RESTORED ROBOT: _robot_true_R014_source.inp mesh; exact 6 mg; 2.01 mm wall helper offset=0.005 mm
** HIGH-WOBBLE 6 ms PROBE: only damping 0.055 -> 0.020; all other physics unchanged
** BOUNDED MEDIUM PROBE: 6 ms; no geometry/physics change; output 2 us
** COPEN PRECHECK: physics unchanged; robot exterior-only surface output added
** ROBOT CONTACT SANITIZED: TRUE EXTERIOR FACES ONLY
** ROBOT PART TRANSPLANTED FROM UNROUNDED BASE; no stacked fillet
** donor=_robot_true_R014_source.inp
** High-end robot-only stop added; CEL remains open; band=0.8 mm, faces=23
** CAPSULE/FILLET VARIANT; rf=0.1 mm; source=CEL_CurrentCenterline_Cone15_Z110_PolarityPlus_Mu003_Damp055_AfterBendReverse_015.inp
** MATRIX VARIANT: mu003
** Z=110 mm single-variable probe; 5 Hz fixed; m_robot=1.168e-3 A*m^2; adaptive-lead=0.
** POLARITY-PLUS CLOSED-LOOP 0.03 s: +robot_axis_global end assumed N; adaptive-lead=0.
** FULL 3D LIVE-MAGNETIC FORCE/TORQUE CLOSED-LOOP: the force is projected onto the local DXF tangent; torque remains live from Magpylib; endpoint caps are retained in the wall helper; duration=0.008333 s
** FULL 3D LIVE-MAGNETIC FORCE/TORQUE CLOSED-LOOP: the force is projected onto the local DXF tangent; torque remains live from Magpylib; endpoint caps are retained in the wall helper; duration=0.006 s
** FULL 3D LIVE-MAGNETIC FORCE/TORQUE CLOSED-LOOP: the force is projected onto the local DXF tangent; torque remains live from Magpylib; endpoint caps are retained in the wall helper; duration=0.008333 s
** Terminal robot-only outlet stop added at low-s end; CEL remains open; cap_band=0.8 mm, faces=75
** FULL 3D LIVE-MAGNETIC FORCE/TORQUE CLOSED-LOOP: the force is projected onto the local DXF tangent; torque remains live from Magpylib; endpoint caps are retained in the wall helper; duration=0.008333 s
** FORWARD-ONLY DIAGNOSTIC: live Magpylib force projected onto the local DXF pipe tangent; magnetic torque is disabled; 0.010 s probe
** WALL/CEL FACTORIAL DIAGNOSTIC; only contact inclusions changed
** CEL boundary-wall probe: Pipe_SOLID retained as fixed mass but excluded from contact; helper R3D4 wall offset=0.2 mm, end caps removed=98
*Heading
** AUTHORIZED 8.333 ms WALL-ON WOBBLE-SURVIVAL PROBE: Wobble_F30_G6L45_WallOn_Free_0083_WobbleSurvival; G6/L45; f=30 Hz
** WALL-ON FREE-TRANSLATION PROBE: Wobble_F30_G6L45_WallOn_Free_0083_WobbleSurvival; spin=30 Hz; duration=8.333 ms
** WALL/CEL FACTORIAL: Wobble_F30_G6L45_WallOn_Free_0083_WobbleSurvival; Wall=ON; CEL=ON; 1.8 ms; phase=248 deg; gradient=6.000 mT=0.006000 T; spin=30 Hz
** FREE-TRANSLATION PROBE: F30; cone30; B=10 mT; Wall-ON; CEL-ON; translations fixed, rotations free
** Robot refined contact mesh, centerline translation + tangent-following orientation
** Job name: Job_RouteA_CEL_SOLID_robotfine Model name: RouteA_SolidCEL_Probe
** Generated by: Abaqus/CAE 2025
*Preprint, echo=NO, model=NO, history=NO, contact=NO
**
** PARTS
**
**  
*Part, name=Pipe_WALL_HELPER
*Node
       1, -16.5312897005, -17.2868904576, -1.9669035138
       2, -16.970186333, -17.1510059578, -2.10575531598
       3, -17.0595094318, -16.9508545594, -1.83857117776
       4, -16.7227038313, -16.9776193944, -1.5996919504
       5, -16.3317931628, -16.889444982, -2.19820316494
       6, -16.5234998969, -16.5797011677, -1.83043029113
       7, -17.3244134201, -17.031705164, -2.20373843566
       8, -17.3635636271, -16.8736908617, -1.96599708767
       9, -17.2092992278, -16.7707359574, -1.65744899091
      10, -17.1057082159, -16.6814764918, -1.41875507815
      11, -16.9070916517, -16.2831055879, -1.64921683443
      12, -17.5776795246, -16.4778127316, -1.47257492853
      13, -17.4839078321, -16.6879875554, -1.7501234811
      14, -17.379782511, -16.0791305094, -1.70311896567
      15, -17.9256078331, -16.7447941558, -2.22512220262
      16, -17.7599030349, -16.6624138527, -1.94211206892
      17, -17.585744927, -16.8181869606, -2.06062148565
      18, -17.6289197219, -16.9097091641, -2.2546040873
      19, -17.3339940228, -17.1778080593, -2.46268508992
      20, -17.6517774276, -17.044993662, -2.50632761859
      21, -16.9820920214, -17.3196994572, -2.40546200501
      22, -17.9712010333, -16.8984405591, -2.52779530856
      23, -17.0596391151, -17.43502166, -2.66966436455
      24, -17.3445569286, -17.3513748607, -2.76960610732
      25, -16.8633106971, -17.6320243877, -2.84302742115
      26, -16.582755437, -17.5264189782, -2.42199600127
      27, -16.6643236125, -17.2351063933, -3.07566644259
      28, -16.3833375866, -17.1293396574, -2.65399119641
      29, -18.0113255342, -16.4226616794, -1.7466437497
      30, -17.8138939455, -16.0224693127, -1.97688605546
      31, -18.2902871381, -16.5296566535, -2.16755508299
      32, -18.3415738341, -16.7683517572, -2.62106417594
      33, -17.9391442343, -17.0618488563, -2.7808577845
      34, -18.1508256295, -17.076546856, -2.98699829996
      35, -17.6721402356, -17.2129795593, -2.81204891072
      36, -17.7691677699, -17.3722767806, -3.16951869508
      37, -17.2977827572, -17.5754099237, -3.11718317101
      38, -17.0994578877, -17.1784054897, -3.35024102471
      39, -17.5709858809, -16.9750192076, -3.40415852467
      40, -16.1351054628, -16.4944559821, -2.42834123501
      41, -16.3268121971, -16.1847121675, -2.06056823101
      42, -16.7104020511, -15.8881174883, -1.87935477451
      43, -17.1830948104, -15.6841414098, -1.9332569053
      44, -16.4676340125, -16.8401173933, -3.30580427259
      45, -16.1866498866, -16.7343506575, -2.88412926648
      46, -17.6172043461, -15.6274803127, -2.20702411581
      47, -16.9027701881, -16.7834164899, -3.58037908466
      48, -17.3742962821, -16.580030208, -3.63429635433
      49, -15.9384158644, -16.0994669857, -2.65847905351
      50, -16.130122598, -15.7897240701, -2.29070605984
      51, -16.5137143511, -15.4931284902, -2.10949260377
      52, -16.9864052101, -15.2891524107, -2.16339485466
      53, -16.2709463131, -16.4451283946, -3.53594233188
      54, -15.9899602875, -16.3393615591, -3.11426708546
      55, -17.4205166464, -15.2324913127, -2.43716194591
      56, -16.706080589, -16.3884273915, -3.8105169137
      57, -17.1776085823, -16.1850412089, -3.86443441381
      58, -15.7417272627, -15.7044779827, -2.88861711563
      59, -15.9334339972, -15.3947350676, -2.52084412084
      60, -16.3170247514, -15.0981394897, -2.33963066385
      61, -16.7897175102, -14.8941634109, -2.39353267451
      62, -16.0742567146, -16.0501393973, -3.76608016041
      63, -15.7932716885, -15.9443725607, -3.34440515627
      64, -17.2238270466, -14.8375023124, -2.66730000631
      65, -16.5093928881, -15.9934393914, -4.04065497362
      66, -16.9809189828, -15.7900522076, -4.09457248441
      67, -15.5450385627, -15.3094889827, -3.11875494563
      68, -15.7367452958, -14.9997460691, -2.75098195221
      69, -16.1203351494, -14.7031504903, -2.56976849434
      70, -16.5930279095, -14.499174409, -2.62367073569
      71, -15.8775680114, -15.6551512942, -3.99621822053
      72, -15.5965829868, -15.5493835582, -3.57454297439
      73, -17.027139345, -14.4425132096, -2.89743783783
      74, -16.3127032888, -15.5984503889, -4.27079280541
      75, -16.7842312844, -15.3950632059, -4.32471030513
      76, -15.3483499627, -14.9144999826, -3.34889300566
      77, -15.5400566958, -14.6047570691, -2.9811200122
      78, -15.9236474489, -14.3081614904, -2.79990655451
      79, -16.396338308, -14.1041854109, -2.85380856421
      80, -15.6808794112, -15.2601622929, -4.22635628179
      81, -15.3998943857, -15.1543945565, -3.80468104386
      82, -16.8304497432, -14.0475242128, -3.12757589422
      83, -16.1160155906, -15.2034613881, -4.50093062623
      84, -16.5875416843, -15.0000742057, -4.55484813524
      85, -15.1516612627, -14.5195109827, -3.57903083571
      86, -15.3433679965, -14.2097680683, -3.2112578315
      87, -15.72695885, -13.91317249, -3.03004438426
      88, -16.1996506079, -13.7091964111, -3.08394662401
      89, -15.4841907121, -14.8651732935, -4.45649411201
      90, -15.2032056857, -14.7594055564, -4.03481910417
      91, -16.6337620432, -13.6525352128, -3.35771372422
      92, -15.919326893, -14.8084722892, -4.73106892591
      93, -16.3908539874, -14.6050851064, -4.78498595454
      94, -14.9549726626, -14.1245218825, -3.80916889577
      95, -15.1466793964, -13.8147790681, -3.44139590166
      96, -15.53027015, -13.51818349, -3.26018244425
      97, -16.0029610079, -13.3142074111, -3.314084454
      98, -15.2875021114, -14.4701842929, -4.68663193201
      99, -15.0065170858, -14.3644165565, -4.26495692422
     100, -16.4370724432, -13.2575462128, -3.58785178422
     101, -15.7226382922, -14.4134832889, -4.96120675597
     102, -16.1941643875, -14.2100961066, -5.01512425441
     103, -14.7582839627, -13.7295328828, -4.0393069557
     104, -14.9499906963, -13.4197900686, -3.67153372167
     105, -15.33358155, -13.1231944901, -3.49032026418
     106, -15.8062733084, -12.9192184121, -3.54422251344
     107, -15.090813412, -14.075195294, -4.91676976136
     108, -14.8098283859, -13.9694275568, -4.49509475383
     109, -16.2403847441, -12.8625572145, -3.81798960321
     110, -15.5259495913, -14.0184942893, -5.19134457558
     111, -15.997476685, -13.8151071061, -5.24526208497
     112, -14.5615953628, -13.3345438828, -4.26944478558
     113, -14.7533020963, -13.0248009684, -3.90167179173
     114, -15.13689285, -12.7282053896, -3.72045833438
     115, -15.6095847094, -12.5242293114, -3.7743603441
     116, -14.8941248119, -13.6802062946, -5.14690806066
     117, -14.6131397856, -13.5744385564, -4.72523257353
     118, -16.0436951454, -12.4675682135, -4.04812767478
     119, -15.329259991, -13.6235052899, -5.42148240515
     120, -15.800787984, -13.4201181061, -5.47539990508
     121, -14.364906663, -12.9395548829, -4.49958260502
     122, -14.5566133967, -12.6298119689, -4.13180985132
     123, -14.9402042493, -12.3332163904, -3.95059615434
     124, -15.4128960097, -12.1292403102, -4.00449816491
     125, -14.6974361107, -13.2852172934, -5.37704589068
     126, -14.4164510855, -13.1794494562, -4.95537088376
     127, -15.8470065469, -12.0725792116, -4.27826549714
     128, -15.132571391, -13.2285162898, -5.65162070517
     129, -15.6040993861, -13.0251291068, -5.7055377345
     130, -14.1682179627, -12.5445658821, -4.72972043519
     131, -14.3599247968, -12.2348229682, -4.36194767121
     132, -14.74351555, -11.9382273905, -4.18073422405
     133, -15.2162074093, -11.7342513103, -4.23463646477
     134, -14.5007475101, -12.8902281927, -5.60718371083
     135, -14.2197623858, -12.7844604565, -5.18550870447
     136, -15.6503178453, -11.6775901118, -4.50840332615
     137, -14.93588269, -12.8335272893, -5.88175852533
     138, -15.4074096865, -12.6301401066, -5.93567603455
     139, -13.9715293634, -12.1495768839, -4.95985873469
     140, -14.1632360975, -11.8398339699, -4.59208550038
     141, -14.5468269511, -11.5432383906, -4.41087204357
     142, -15.0195187102, -11.3392623115, -4.46477429416
     143, -14.3040588102, -12.495239193, -5.83732154062
     144, -14.023073786, -12.3894714569, -5.41564653421
     145, -15.4536292457, -11.282601113, -4.73854162529
     146, -14.7391940887, -12.4385382887, -6.11189635554
     147, -15.2107210843, -12.2351511057, -6.16581386524
     148, -13.7748397636, -11.7545878849, -5.1899965649
     149, -13.966547498, -11.4448449708, -4.82222331985
     150, -14.3501373499, -11.1482493905, -4.64100987407
     151, -14.8228300107, -10.9442733105, -4.69491211491
     152, -14.107370211, -12.1002501937, -6.06745984061
     153, -13.8263850864, -11.9944824573, -5.64578435556
     154, -15.256940547, -10.887612113, -4.96867944597
     155, -14.5425053899, -12.0435491891, -6.34203417545
     156, -15.0140323843, -11.8401620057, -6.39595168524
     157, -13.5781510626, -11.3595987839, -5.4201343871
     158, -13.7698578975, -11.0498559687, -5.05236163044
     159, -14.1534486491, -10.7532603909, -4.87114817423
     160, -14.6261414092, -10.5492843091, -4.92504994557
     161, -13.910681511, -11.7052611935, -6.29759766083
     162, -13.629696487, -11.5994934578, -5.87592265772
     163, -15.0609467436, -10.4925735006, -5.19932594275
     164, -14.3458167915, -11.6485601899, -6.5721724852
     165, -14.8173437871, -11.4451730068, -6.62608951437
     166, -13.3814624621, -10.9646097843, -5.65027221854
     167, -13.5731691971, -10.6548669681, -5.28249945093
     168, -13.9567600504, -10.358271391, -5.10128599368
     169, -14.429451808, -10.1542953105, -5.15518824443
     170, -13.7139929103, -11.3102721928, -6.52773549094
     171, -13.4330077872, -11.204504458, -6.10606048805
     172, -14.8645879862, -10.0975943053, -5.4297625775
     173, -15.3416855013, -10.5979881053, -5.62018593112
     174, -15.1449968016, -10.2029991051, -5.85032423199
     175, -14.1491280904, -11.2535711894, -6.80231030534
     176, -14.6214323741, -11.049810917, -6.85625178944
     177, -13.184773762, -10.5696207846, -5.88041051916
     178, -13.3764804966, -10.2598779685, -5.51263728137
     179, -13.7600713511, -9.96328233053, -5.33142382361
     180, -14.2327631087, -9.759306252, -5.38532606355
     181, -13.5173042105, -10.9152831931, -6.75787331074
     182, -13.2363191873, -10.8095154582, -6.33619830778
     183, -14.6678993863, -9.70260528676, -5.65990088602
     184, -14.9483082016, -9.8080100451, -6.08046206187
     185, -14.8078555068, -10.3587868317, -6.90572873924
     186, -15.0045442065, -10.7537758316, -6.67559091947
     187, -14.425131249, -10.6546061095, -7.08635037633
     188, -13.9524394891, -10.8585821888, -7.03244813551
     189, -12.9880851621, -10.1746317854, -6.11054833939
     190, -13.1797918962, -9.86488890856, -5.74277510185
     191, -13.5633827503, -9.56829331882, -5.56156164461
     192, -14.036074509, -9.36431724079, -5.61546389441
     193, -13.320615611, -10.5202941937, -6.98801162061
     194, -13.039630487, -10.4145263578, -6.56633613741
     195, -14.4712106867, -9.3076162669, -5.89003870624
     196, -14.7516195012, -9.41302103527, -6.31059988093
     197, -14.6111669068, -9.96379781169, -7.13586656924
     198, -14.228442549, -10.2596171095, -7.31648820634
     199, -13.7557507902, -10.4635931893, -7.26258595539
     200, -12.7913964622, -9.77964277523, -6.34068616899
     201, -12.9831031965, -9.46989989812, -5.97291340151
     202, -13.3666940494, -9.17330430929, -5.79169995475
     203, -13.8393858078, -8.96932823035, -5.8456017145
     204, -13.1239269108, -10.1253050935, -7.21814944062
     205, -12.842941887, -10.0195373578, -6.79647443763
     206, -14.2745219863, -8.91262725635, -6.12017653649
     207, -14.5549309012, -9.01803201546, -6.54073771048
     208, -14.4144782076, -9.56880880325, -7.36600438832
     209, -14.0317539507, -9.86462809062, -7.54662602524
     210, -13.5590621914, -10.0686041899, -7.49272425521
     211, -12.5947078621, -9.38465375449, -6.5708239888
     212, -12.786414597, -9.07491087802, -6.20305123101
     213, -13.1700054503, -8.77831529097, -6.02183777377
     214, -13.6426972075, -8.57433921144, -6.07574002372
     215, -12.9272382101, -9.73031612275, -7.44828727076
     216, -12.6462531872, -9.62454837802, -7.02661225797
     217, -14.0778333859, -8.517638246, -6.35031435639
     218, -14.3582422013, -8.62304300499, -6.77087601149
     219, -14.2177896075, -9.17381979327, -7.59614269834
     220, -13.8350652507, -9.46963908063, -7.77676432523
     221, -13.3623734903, -9.67361515936, -7.72286208537
     222, -12.398019162, -8.98966474472, -6.8009622992
     223, -12.5897258967, -8.6799218684, -6.43318905135
     224, -12.9733167514, -8.38332628093, -6.25197560336
     225, -13.4460085089, -8.17935020234, -6.30587784338
     226, -12.7305496103, -9.33532711306, -7.67842509063
     227, -12.4495645873, -9.22955935822, -7.25675008767
     228, -13.8811446862, -8.12264922668, -6.58045265599
     229, -14.1615536013, -8.22805398498, -7.00101384151
     230, -14.0211009068, -8.77883077171, -7.82628051925
     231, -13.638376649, -9.07465005948, -8.00690215635
     232, -13.1656848891, -9.27862613876, -7.95299990555
     233, -12.2013305631, -8.59467572731, -7.03110011826
     234, -12.393037296, -8.28493284871, -6.66332688205
     235, -12.7766280507, -7.98833678916, -6.48211342431
     236, -13.2493199098, -7.78436119112, -6.53601567433
     237, -12.5338609112, -8.94033809436, -7.90856339017
     238, -12.2528758886, -8.83457035102, -7.48688790547
     239, -13.6844560865, -7.72766021571, -6.81059048733
     240, -13.9652762227, -7.83328365807, -7.23187771465
     241, -13.8250087069, -8.38333419512, -8.05605692126
     242, -13.441687949, -8.67966104949, -8.23703997634
     243, -12.9689961898, -8.88363712865, -8.18313773576
     244, -12.0046418634, -8.19968671562, -7.26123794613
     245, -12.1963485962, -7.88994383849, -6.89346518185
     246, -12.5799394498, -7.59334776904, -6.71225172468
     247, -13.0526312095, -7.38937216986, -6.76615349512
     248, -12.3371713122, -8.54534908453, -8.13870074095
     249, -12.056186288, -8.43958134045, -7.71702621399
     250, -13.4877664872, -7.33267120496, -7.04072830897
     251, -13.7687515116, -7.43843846916, -7.46240332494
     252, -14.0169855354, -8.07332258466, -7.68805376757
     253, -13.8202969367, -7.67833309541, -7.91819159448
     254, -13.6285901029, -7.9880764522, -8.28596434904
     255, -13.244999349, -8.28467203949, -8.46717780635
     256, -12.7723074905, -8.48864811835, -8.41327555607
     257, -11.8079532627, -7.80469770214, -7.49137576532
     258, -11.9996599967, -7.49495482842, -7.12360301135
     259, -12.3832507507, -7.19835876072, -6.94238955371
     260, -12.85594261, -6.99438316069, -6.99629179465
     261, -12.1404827129, -8.15036007383, -8.36883952255
     262, -11.8594976858, -8.0445923166, -7.94716403421
     263, -13.2910777882, -6.93768218615, -7.27086613863
     264, -13.5720628124, -7.04344946143, -7.69254162117
     265, -13.6236082377, -7.28334407593, -8.14832989197
     266, -13.4319015023, -7.59308743236, -8.51610217962
     267, -13.048310649, -7.88968301949, -8.69731562635
     268, -12.5756188924, -8.09365909873, -8.64341338614
     269, -11.6112645626, -7.4097086824, -7.72151406572
     270, -11.8029712963, -7.09996580877, -7.35374083168
     271, -12.1865621515, -6.80336975022, -7.17252737358
     272, -12.6592539113, -6.59939414114, -7.22642962457
     273, -11.9437940125, -7.75537058312, -8.59897734285
     274, -11.6628089854, -7.64960330581, -8.17730186437
     275, -13.0943891885, -6.54269317684, -7.50100443824
     276, -13.3753742124, -6.6484604514, -7.92267944142
     277, -13.4269195374, -6.88835506583, -8.37846771273
     278, -13.2352128027, -7.19809842386, -8.74623999911
     279, -12.8516220519, -7.49469401207, -8.92745345421
     280, -12.3789301946, -7.69866961008, -8.87355216562
     281, -11.4145759625, -7.01471967267, -7.95165189613
     282, -11.6062826956, -6.70497679834, -7.58387866249
     283, -11.9898734507, -6.40838072854, -7.40266520456
     284, -12.4625653116, -6.20440513004, -7.45656744536
     285, -11.7471054116, -7.36038156282, -8.82911517231
     286, -11.4661203858, -7.25461428656, -8.40743968452
     287, -12.897700489, -6.14770416721, -7.73114226833
     288, -13.1786855124, -6.25347143162, -8.15281727085
     289, -13.2302309376, -6.49336605517, -8.60860554172
     290, -13.0385242035, -6.80310940311, -8.97637877842
     291, -12.6549333515, -7.09970499232, -9.15759223429
     292, -12.1822415922, -7.30368059982, -9.10368998538
     293, -11.2179363105, -6.61982615991, -8.18173486655
     294, -11.4096396484, -6.31007746197, -7.81396552154
     295, -11.7932142505, -6.01345013262, -7.63276996729
     296, -12.2658790436, -5.80942095889, -7.68670246437
     297, -11.5504393696, -6.96543730704, -9.05922672245
     298, -11.2694714431, -6.85970291068, -8.63753207274
     299, -12.7009849272, -5.75266211178, -7.9613112318
     300, -12.9819500333, -5.85839130001, -8.38300855863
     301, -13.033490378, -6.09827630616, -8.83880180347
     302, -12.8417933544, -6.40803763393, -9.20656421808
     303, -12.4582233053, -6.7046733737, -9.3877546385
     304, -11.9855549145, -6.9086956129, -9.33382546476
     305, -11.0424318463, -6.30880267839, -8.35943978927
     306, -11.2291605034, -5.98140256591, -7.99662631446
     307, -11.6006277194, -5.6559768967, -7.83362747257
     308, -12.0465662837, -5.4207715637, -7.90875928004
     309, -11.3567043184, -6.61242506168, -9.2667930783
     310, -11.0876060359, -6.53643089649, -8.82830742352
     311, -12.4560865623, -5.32836448665, -8.19786570366
     312, -12.725183112, -5.40436105727, -8.63635055105
     313, -12.7703613541, -5.63198921406, -9.10521607516
     314, -12.5836520765, -5.95942419385, -9.46800692622
     315, -12.2121904429, -6.28485689649, -9.63100353275
     316, -11.766241689, -6.52004548082, -9.55588267876
     317, -10.8326348473, -6.01133449142, -8.52226182392
     318, -11.013103945, -5.6684807881, -8.16322747771
     319, -11.3684466532, -5.31467346794, -8.01746833258
     320, -11.7843195773, -5.04893278034, -8.11228995718
     321, -11.1235008988, -6.2751340271, -9.45663860916
     322, -10.8702859195, -6.22846519747, -9.00232638449
     323, -12.1647982627, -4.92199005338, -8.41507654913
     324, -12.4180253904, -4.96868473451, -8.86937620842
     325, -12.4556647431, -5.18578560036, -9.3494506144
     326, -12.2752315105, -5.52869292582, -9.70844974313
     327, -11.9198816724, -5.88248650049, -9.85422011396
     328, -11.5039940008, -6.14820685783, -9.7594127533
     329, -10.5905761945, -5.73027500727, -8.66864257194
     330, -10.763829891, -5.37412550934, -8.31249236552
     331, -11.0990740903, -4.99290051832, -8.18258638998
     332, -11.4817452817, -4.69760526153, -8.29526768745
     333, -10.8532547005, -5.95679204293, -9.62688834368
     334, -10.6199136978, -5.93842458297, -9.15804665166
     335, -11.8299028726, -4.53768739598, -8.61077643501
     336, -12.0632725959, -4.55609677507, -9.0795975231
     337, -12.0925773432, -4.76419536591, -9.56902200931
     338, -11.9193798661, -5.12041166951, -9.92513096983
     339, -11.5841120505, -5.50160625316, -10.0550556699
     340, -11.2014207119, -5.7968795862, -9.94239032617
     341, -10.3186637015, -5.46841804875, -8.79712742291
     342, -10.4839577162, -5.10101665598, -8.44324163916
     343, -10.7952830935, -4.69385627665, -8.32742001003
     344, -11.1418523458, -4.3702805806, -8.45587510387
     345, -10.5487627134, -5.66050830365, -9.77584825977
     346, -10.3391455773, -5.66884097313, -9.29407062063
     347, -11.4546152108, -4.17932873386, -8.78302677222
     348, -11.664272769, -4.17104026422, -9.26478494371
     349, -11.6847070905, -4.37140872984, -9.76174919933
     350, -11.5194797623, -4.73887471961, -10.1155970672
     351, -11.2081183139, -5.14600055062, -10.2314382646
     352, -10.8615277825, -5.4695556795, -10.1029975509
     353, -10.0195965657, -5.22836545274, -8.90643804158
     354, -10.176298916, -4.85162503536, -8.55444166155
     355, -10.4601710419, -4.4205136243, -8.45058624321
     356, -10.7680184746, -4.07021283388, -8.592514707
     357, -10.2131388825, -5.38918673807, -9.90203318655
     358, -10.0308242343, -5.42206155773, -9.40917707516
     359, -11.042573381, -3.85051638946, -8.93011886109
     360, -11.2249282256, -3.81767598895, -9.42296086051
     361, -11.2361076438, -4.0113295901, -9.92571549705
     362, -11.0794681759, -4.38811869825, -10.2776873961
     363, -10.7955596594, -4.81920235413, -10.3815564788
     364, -10.4876931129, -5.16948824708, -10.2396370508
     365, -9.696350555, -5.01250381158, -8.99548945518
     366, -9.84384299822, -4.62820417618, -8.64519972126
     367, -10.0971289434, -4.17559612206, -8.55089760091
     368, -10.3639573193, -3.80038385135, -8.70382932592
     369, -9.84978819686, -5.14550303263, -10.0041858137
     370, -9.69796324301, -5.20024732656, -9.50233545975
     371, -10.5978033435, -3.554540925, -9.05059481651
     372, -10.7496556126, -3.49981464695, -9.55243857448
     373, -10.7512371394, -3.68753683543, -10.0592925252
     374, -10.6037827041, -4.07186055478, -10.409571698
     375, -10.3504736243, -4.52445457031, -10.5038794423
     376, -10.0836333466, -4.89965954145, -10.3509515112
     377, -9.35213551223, -4.82297776329, -9.06339482831
     378, -9.48974766331, -4.43278261897, -8.71475928668
     379, -9.70981599768, -3.96154829735, -8.62737737017
     380, -9.93368703824, -3.56347499515, -8.78871262958
     381, -9.46237534569, -4.93187349952, -10.0812837558
     382, -9.34373348875, -5.00536971684, -9.57270695207
     383, -10.1246741144, -3.29435256833, -9.14326275855
     384, -10.2433159748, -3.22085637654, -9.65183952077
     385, -10.2349139467, -3.40324832519, -10.1611515906
     386, -10.0973018377, -3.79344353375, -10.5097871758
     387, -9.87723337526, -4.26467822309, -10.5971690621
     388, -9.65336238385, -4.66275093515, -10.435834677
     389, -8.990373831, -4.66167187617, -9.10948072921
     390, -9.11732214972, -4.2671590875, -8.76250671625
     391, -9.30212534081, -3.78051578186, -8.6792654227
     392, -9.4814819397, -3.36184196308, -8.84631960462
     393, -9.05479601976, -4.7504331318, -10.1325561354
     394, -8.97144886367, -4.83920959748, -9.61964726968
     395, -9.62784265187, -3.07252654656, -9.20720626919
     396, -9.71115958553, -2.98373921479, -9.72011796793
     397, -9.69227130303, -3.16128932632, -10.2302799873
     398, -9.56527963471, -3.55578539569, -10.5772573846
     399, -9.38050271176, -4.04243863233, -10.6604971887
     400, -9.20115865265, -4.46111760227, -10.4934416104
     401, -8.61466031543, -4.53018920314, -9.1332890134
     402, -8.73001593194, -4.13289480553, -8.78796553387
     403, -8.87814592354, -3.63432085752, -8.70603253676
     404, -9.01183786333, -3.19748751881, -8.87607996563
     405, -8.63113676215, -4.60301260825, -10.1574853358
     406, -8.58455674318, -4.703346308, -9.64270772847
     407, -9.11221446727, -2.89123998961, -9.24179776233
     408, -9.15874005407, -2.79089361695, -9.75657438455
     409, -9.12870200063, -2.96406492203, -10.2659924417
     410, -9.01326519663, -3.36133698853, -10.6113133346
     411, -8.86518192365, -3.85992236046, -10.6932476894
     412, -8.73151499898, -4.29676374395, -10.5232019989
     413, -8.22872980368, -4.42983607593, -9.13458252247
     414, -8.3314090756, -4.03130728417, -8.79080215917
     415, -8.44212602696, -3.52444717559, -8.70737946843
     416, -8.52942225477, -3.07204557914, -8.87769614428
     417, -8.19563580882, -4.4911258336, -10.1558151203
     418, -8.18661881437, -4.59915428227, -9.6416427971
     419, -8.58288693559, -2.75224601251, -9.24670033261
     420, -8.59184103244, -2.64421025012, -9.76086878838
     421, -8.54980605311, -2.81353508078, -10.2679319762
     422, -8.44702881819, -3.21204598389, -10.6117002875
     423, -8.33636295385, -3.7189124271, -10.6951305384
     424, -8.24909883397, -4.17132158793, -10.5248182548
     425, -7.83641855731, -4.36160969161, -9.11334797672
     426, -7.92519310222, -3.96346462664, -8.77083163241
     427, -7.99842878877, -3.45202681559, -8.68324077278
     428, -8.03902845282, -2.98676305288, -8.85115295465
     429, -7.75264669793, -4.41595137087, -10.1275525312
     430, -7.78130393482, -4.52779305569, -9.61640251106
     431, -8.04509950787, -2.65685726731, -9.22187827897
     432, -8.01638743788, -2.54501570563, -9.73302076117
     433, -7.96133710691, -2.71119567614, -10.2360814185
     434, -7.87246776055, -3.1093327969, -10.5785786656
     435, -7.79927318824, -3.62076999482, -10.6661799212
     436, -7.75870634694, -4.08603900842, -10.4982751144
     437, -7.44162380533, -4.32618858958, -9.06979788275
     438, -7.51516567906, -3.93018027986, -8.7280214076
     439, -7.55149489752, -3.41783128856, -8.63378189519
     440, -7.54553184491, -2.94248744335, -8.79671367073
     441, -7.30658958931, -4.37832906496, -10.0729632536
     442, -7.3723794554, -4.49020010054, -9.56713813842
     443, -7.50417528411, -2.60592636764, -9.16759137461
     444, -7.43835586139, -2.49406023911, -9.67340946968
     445, -7.36914425897, -2.65806384704, -10.1707558024
     446, -7.29553093681, -3.05407194937, -10.5125134574
     447, -7.2592188546, -3.56641666036, -10.6067610546
     448, -7.26521000537, -4.04176328686, -10.443835934
     449, -7.04827085705, -4.32392408659, -9.00436479624
     450, -7.10521341275, -3.93200738054, -8.6624979779
     451, -7.10580237968, -3.42226798119, -8.55939437736
     452, -7.05383681885, -2.9396585309, -8.71492008012
     453, -6.86192204744, -4.37875632124, -9.9925743822
     454, -6.96369310296, -4.4870760778, -9.49420218401
     455, -6.96546528509, -2.5998368216, -9.08439594786
     456, -6.86369301751, -2.49151926948, -9.58276609875
     457, -6.77911283181, -2.65466753311, -10.0726042646
     458, -6.72212633788, -3.04658703411, -10.4144588245
     459, -6.72152822969, -3.55632420039, -10.5175634157
     460, -6.77351464683, -4.0389339843, -10.3620424934
     461, -6.66014280502, -4.35485322354, -8.91766756497
     462, -6.69920564956, -3.96923942228, -8.57453902099
     463, -6.66578102527, -3.46538352185, -8.46068069545
     464, -6.56883571614, -2.97830305498, -8.60658731255
     465, -6.423028023, -4.41739090696, -9.88714492283
     466, -6.55905525581, -4.51888687945, -9.3981197128
     467, -6.43434189738, -2.63848935174, -8.9731551206
     468, -6.29832112097, -2.53699267867, -9.46218261054
     469, -6.19722352824, -2.7010273068, -9.94263295806
     470, -6.15814569429, -3.08664235167, -10.2857569059
     471, -6.19155920983, -3.59049830798, -10.3996129103
     472, -6.28851304064, -4.07757847972, -10.253709589
     473, -6.18117822809, -4.4140084566, -8.79667212345
     474, -6.22023335494, -4.02840582463, -8.45354776997
     475, -6.18677231719, -3.52455835615, -8.33967426263
     476, -6.08976063891, -3.03747136078, -8.48556439441
     477, -5.94400469955, -4.47655943049, -9.76612376032
     478, -6.08007150418, -4.57804379393, -9.27710832483
     479, -5.95519288137, -2.69765898987, -8.852127089
     480, -5.81912607627, -2.59617438603, -9.34114252581
     481, -5.71801935199, -2.76020972324, -9.82157872633
     482, -5.67896422554, -3.14581211481, -10.1647039899
     483, -5.7124252608, -3.64965982382, -10.2785775569
     484, -5.80943693912, -4.13674706075, -10.1326864042
     485, -5.70209707623, -4.47317727699, -8.67564894324
     486, -5.74115267358, -4.08757464286, -8.33252363862
     487, -5.70769116962, -3.58372693574, -8.21865108325
     488, -5.61067996031, -3.09663993256, -8.36454121346
     489, -5.46492354932, -4.53572777003, -9.64510058121
     490, -5.60099034224, -4.63721261415, -9.15608514382
     491, -5.47611172917, -2.7568275601, -8.73110390852
     492, -5.34004492612, -2.65534295605, -9.22011934577
     493, -5.23893819386, -2.81937829281, -9.70055554648
     494, -5.19988307687, -3.20498069461, -10.0436798902
     495, -5.23334410077, -3.70882839394, -10.1575533569
     496, -5.33035578037, -4.1959153991, -10.0116633055
     497, -5.22301639832, -4.5323456176, -8.55462576517
     498, -5.26207152267, -4.14674298443, -8.21150045914
     499, -5.22861048678, -3.64289551395, -8.09762695267
     500, -5.13159881129, -3.15580851062, -8.24351803492
     501, -4.9858428689, -4.59489611052, -9.52407645025
     502, -5.12190967364, -4.69638095403, -9.03506196586
     503, -4.99703105114, -2.81599613986, -8.61008072902
     504, -4.86096424592, -2.71451153608, -9.09909616572
     505, -4.75985752128, -2.8785468738, -9.57953236691
     506, -4.72080191702, -3.26414926605, -9.922656721
     507, -4.75426343467, -3.76799697135, -10.036530258
     508, -4.85127463088, -4.25508421912, -9.89064009562
     509, -4.74393524805, -4.5915144266, -8.43360163344
     510, -4.78299036347, -4.20591179482, -8.09047727959
     511, -4.74952933684, -3.70206408621, -7.97660377254
     512, -4.65251764993, -3.21497709066, -8.12249390466
     513, -4.50676170938, -4.65406492044, -9.40305327042
     514, -4.64282851386, -4.755549764, -8.91403783592
     515, -4.51794989126, -2.87516471988, -8.48905659897
     516, -4.38188309625, -2.77368011604, -8.9780720358
     517, -4.2807763621, -2.93771545281, -9.45850823568
     518, -4.24172124508, -3.32331784473, -9.80163353971
     519, -4.27518227053, -3.82716555412, -9.9155070468
     520, -4.3721939493, -4.31425255126, -9.76961596392
     521, -4.2648540861, -4.6506827664, -8.31257845223
     522, -4.3039092134, -4.26508013409, -7.9694536292
     523, -4.27044817855, -3.76123266708, -7.8555801229
     524, -4.17343649998, -3.27414566156, -8.00147072407
     525, -4.02768056032, -4.71323325979, -9.28203009168
     526, -4.16374736298, -4.8147181041, -8.79301465517
     527, -4.03886874042, -2.93433329999, -8.36803341875
     528, -3.90280193627, -2.83284868603, -8.85704885578
     529, -3.80169521414, -2.99688402273, -9.33748505647
     530, -3.76264008693, -3.38248642457, -9.68060941021
     531, -3.79610112078, -3.88633413402, -9.79448291687
     532, -3.89311280061, -4.37342136986, -9.64859278508
     533, -3.78577317838, -4.70985158708, -8.19155528436
     534, -3.82482853414, -4.32424895449, -7.84842996964
     535, -3.79136726742, -3.82040124616, -7.73455694268
     536, -3.6943555907, -3.33331400062, -7.88044707482
     537, -3.54859963896, -4.77240208047, -9.16100596034
     538, -3.68466644354, -4.87388692404, -8.67199148584
     539, -3.55978783144, -2.9935018693, -8.24701024011
     540, -3.4237210261, -2.89201726605, -8.73602567574
     541, -3.32261429153, -3.05605260384, -9.21646187709
     542, -3.28355893731, -3.44165499598, -9.55958623106
     543, -3.31702020461, -3.94550270141, -9.67345973797
     544, -3.41403165081, -4.43258970925, -9.52756961553
     545, -3.30669225829, -4.76901992671, -8.07053114372
     546, -3.34574738379, -4.38341728378, -7.72740678916
     547, -3.31228634839, -3.87956981728, -7.61353329285
     548, -3.21527467061, -3.39248258132, -7.75942341434
     549, -3.06951848945, -4.8315704204, -9.03998278048
     550, -3.20558529399, -4.93305526399, -8.55096734607
     551, -3.08070667001, -3.05267044925, -8.12598611019
     552, -2.94463986607, -2.95118584606, -8.61500154576
     553, -2.84353314177, -3.11522118293, -9.09543774573
     554, -2.80447801507, -3.50082357469, -9.43856304969
     555, -2.83793905059, -4.00467104376, -9.55243655684
     556, -2.93495072925, -4.4917585211, -9.40654547403
     557, -2.82761110699, -4.82818873643, -7.94950797268
     558, -2.86666646408, -4.44258610399, -7.60638313936
     559, -2.83320519844, -3.93873839731, -7.49250963286
     560, -2.73619351944, -3.4516511612, -7.63840023422
     561, -2.59043758026, -4.89073922982, -8.91895960163
     562, -2.72650437302, -4.99222407409, -8.4299441753
     563, -2.60162575972, -3.11183902964, -8.00496292942
     564, -2.46555895621, -3.01035442604, -8.49397836579
     565, -2.3644522241, -3.17438976264, -8.97441456632
     566, -2.32539686677, -3.55999215448, -9.31753892011
     567, -2.35885813059, -4.06383986376, -9.43141242684
     568, -2.45586958051, -4.55092685964, -9.28552230521
     569, -2.34853018746, -4.88735707694, -7.82848431371
     570, -2.38758531289, -4.50175444392, -7.48535947895
     571, -2.35412427705, -3.99790697638, -7.37148645258
     572, -2.25711259925, -3.51081973054, -7.51737658462
     573, -2.11135641894, -4.94990757046, -8.79793547036
     574, -2.24742346345, -5.05139241407, -8.3089209962
     575, -2.12254459979, -3.17100759926, -7.88393976016
     576, -1.98647791587, -3.06952299608, -8.37295518566
     577, -1.88537107166, -3.23355833379, -8.85339138707
     578, -1.84631594735, -3.61916073587, -9.19651574102
     579, -1.87977698476, -4.12300820107, -9.31038924803
     580, -1.97678866101, -4.61009567907, -9.16449912568
     581, -1.86944903733, -4.94652589673, -7.70746113331
     582, -1.90850427286, -4.5609232539, -7.36433630893
     583, -1.87504312803, -4.05707555641, -7.25046280282
     584, -1.7780315701, -3.56998831048, -7.39635340481
     585, -1.63227550947, -5.00907639039, -8.67691229051
     586, -1.76834230397, -5.11056123399, -8.187896866
     587, -1.64346369003, -3.23017617934, -7.76291610001
     588, -1.50739688615, -3.12869157604, -8.25193105541
     589, -1.40629003173, -3.29272691296, -8.73236725576
     590, -1.36723491507, -3.6783293047, -9.07549256969
     591, -1.40069594059, -4.18217701372, -9.18936606684
     592, -1.49770762924, -4.66926402119, -9.04347499396
     593, -1.39036799727, -5.0056942266, -7.58643748308
     594, -1.42942324421, -4.62009159482, -7.24331264983
     595, -1.39596209841, -4.11624436666, -7.12943914289
     596, -1.29895053004, -3.62915689043, -7.27532975483
     597, -1.15319447023, -5.06824471983, -8.5558891216
     598, -1.28926127335, -5.16972956404, -8.06687368494
     599, -1.1643826508, -3.28934475963, -7.64189244946
     600, -1.02831584659, -3.18786015598, -8.13090788554
     601, -0.927209063145, -3.35189549263, -8.61134407632
     602, -0.888153822761, -3.73749788448, -8.95446843012
     603, -0.92161496958, -4.24134535376, -9.06834193683
     604, -1.01862659046, -4.72843282971, -8.92245181516
     605, -0.911287027257, -5.06486256662, -7.4654138231
     606, -0.950342266015, -4.67926041468, -7.12228899938
     607, -0.916881117233, -4.17541270674, -7.0084159726
     608, -0.81986949634, -3.68832547075, -7.1543060945
     609, -0.674113436047, -5.12741354058, -8.43486498013
     610, -0.810180237535, -5.228898384, -7.94585002447
     611, -0.685301616805, -3.34851333928, -7.52086927013
     612, -0.549234815884, -3.24702872608, -8.00988470564
     613, -0.448128025572, -3.41106406382, -8.49032090708
     614, -0.409072818318, -3.79666646589, -8.83344526102
     615, -0.442533938788, -4.30051417112, -8.94731875803
     616, -0.539545558003, -4.7876011691, -8.80142863566
     617, -0.43220599219, -5.12403138662, -7.34439065308
     618, -0.471261201968, -4.73842875468, -7.00126581937
     619, -0.437800083328, -4.23458152664, -6.88739231287
     620, -0.340788492424, -3.74749404063, -7.03328291477
     621, -0.195032416481, -5.18658188041, -8.31384181047
     622, -0.331099232944, -5.28806672396, -7.82482684485
     623, -0.206220583114, -3.40768190936, -7.39984560998
     624, -0.0701537669718, -3.30619730604, -7.88886057546
     625, 0.0309529935344, -3.47023264293, -8.36929676573
     626, 0.0700082187501, -3.85583503471, -8.71242207969
     627, 0.0365470849263, -4.3596825038, -8.82629558683
     628, -0.0604645183776, -4.84676999115, -8.68040450399
     629, 0.0468750373393, -5.18319972648, -7.22336699337
     630, 0.00781981412694, -4.7975975654, -6.88024216036
     631, 0.0412809472475, -4.29374985665, -6.76636866288
     632, 0.138292542996, -3.80666262042, -6.91225926483
     633, 0.284048631838, -5.24575068972, -8.19281863182
     634, 0.147981802191, -5.34723553397, -7.70380319457
     635, 0.272860451206, -3.46685048962, -7.27882195947
     636, 0.408927252797, -3.36536588603, -7.76783739549
     637, 0.510034041198, -3.52940122268, -8.24827359624
     638, 0.549089222245, -3.91500361448, -8.59139795011
     639, 0.515628134422, -4.41885132377, -8.70527144683
     640, 0.418616511505, -4.90593832969, -8.55938132518
     641, 0.525956076796, -5.24236853662, -7.10234334308
     642, 0.486900838017, -4.85676590466, -6.75921850936
     643, 0.520361986754, -4.35291867673, -6.6453454826
     644, 0.617373607647, -3.86583120076, -6.7912356045
     645, 0.763129667977, -5.30491903058, -8.07179450013
     646, 0.627062806503, -5.406403874, -7.58277953448
     647, 0.751941487174, -3.52601906938, -7.15779877993
     648, 0.888008287683, -3.42453446601, -7.64681373516
     649, 0.989115078091, -3.58856980362, -8.12725041691
     650, 1.02817025272, -3.97417219588, -8.470374771
     651, 0.99470916525, -4.47801966109, -8.58424827803
     652, 0.897697546036, -4.96510713912, -8.43835814564
     653, 1.00503705277, -5.30153687662, -6.98132016309
     654, 0.965981871947, -4.91593472468, -6.6381953294
     655, 0.999442961617, -4.41208701661, -6.52432182289
     656, 1.09645463957, -3.92499977057, -6.67021242481
     657, 1.24221070051, -5.3640878504, -7.95077132049
     658, 1.10614389606, -5.46557269396, -7.46175636486
     659, 1.2310225199, -3.58518764935, -7.03677513
     660, 1.36708932347, -3.48370303599, -7.52579055555
     661, 1.4681960479, -3.6477383729, -8.00622628583
     662, 1.50725129507, -4.03334077471, -8.34935158966
     663, 1.47379013956, -4.53718847378, -8.4632250968
     664, 1.37677858075, -5.02427548114, -8.317334014
     665, 1.48411808165, -5.36070569651, -6.86029650342
     666, 1.44506284503, -4.97510306541, -6.51717168037
     667, 1.47852399164, -4.4712558266, -6.40329817288
     668, 1.57553568044, -3.98416835039, -6.54918877478
     669, 1.7212917396, -5.42325618968, -7.8297481419
     670, 1.58522493595, -5.52474103394, -7.34073270469
     671, 1.71010355966, -3.64435621956, -6.91575146958
     672, 1.84617035366, -3.54287161604, -7.40476690612
     673, 1.94727708694, -3.70690695316, -7.88520310668
     674, 1.98633232418, -4.09250958484, -8.22832746
     675, 1.9528711795, -4.59635681366, -8.34220096682
     676, 1.85585961955, -5.08344429965, -8.19631083519
     677, 1.9631991228, -5.41987403667, -6.73927285316
     678, 1.92414388712, -5.03427187467, -6.39614801933
     679, 1.95760503288, -4.53042416656, -6.28227499259
     680, 2.05461659065, -4.04333717094, -6.42816511437
     681, 2.20037277033, -5.48242500024, -7.70872449079
     682, 2.06430596643, -5.58390984399, -7.21970905433
     683, 2.18918458996, -3.70352479982, -6.79472828908
     684, 2.3252513933, -3.60203995597, -7.28374324563
     685, 2.4263581167, -3.76607553371, -7.76417944768
     686, 2.46541324175, -4.15167792525, -8.10730428098
     687, 2.43195220519, -4.65552563096, -8.22117778805
     688, 2.33494052835, -5.14261262836, -8.07528765626
     689, 2.44228015287, -5.47904284662, -6.61824967304
     690, 2.40322503712, -5.09344021469, -6.27512483935
     691, 2.43668606177, -4.58959298648, -6.16125133286
     692, 2.5336977496, -4.10250551081, -6.30714194464
     693, 2.6794536907, -5.54159334054, -7.5877008302
     694, 2.54338688624, -5.64307818397, -7.09868587459
     695, 2.66826550947, -3.76269338004, -6.67370463865
     696, 2.80433230344, -3.66120853598, -7.16272007544
     697, 2.90543927722, -3.82524410361, -7.64315627729
     698, 2.94449439293, -4.21084674469, -7.98628110032
     699, 2.91103336732, -4.71469397228, -8.10015460744
     700, 2.81402168984, -5.20178145018, -7.95426400479
     701, 2.92136131161, -5.53821118646, -6.49722601337
     702, 2.88230594507, -5.15260903542, -6.15410119037
     703, 2.91576722132, -4.64876132643, -6.04022768297
     704, 3.01277865954, -4.1616743206, -6.1861182848
     705, 3.15853484092, -5.60076216021, -7.46667765085
     706, 3.02246803588, -5.70224700393, -6.9776622146
     707, 3.14734665879, -3.8218619502, -6.55268097835
     708, 3.2834134641, -3.72037710607, -7.04169641554
     709, 3.38452018858, -3.88441268379, -7.52213261696
     710, 3.42357531509, -4.27001508497, -7.86525744978
     711, 3.39011427955, -4.77386278363, -7.97913095681
     712, 3.29310260102, -5.2609497906, -7.83324034431
     713, 3.40044222282, -5.59738000661, -6.37620236305
     714, 3.36138710703, -5.21177736447, -6.03307752926
     715, 3.39484813288, -4.70792966601, -5.91920450262
     716, 3.49185982073, -4.22084266071, -6.06509463452
     717, 3.63761576047, -5.6599304999, -7.34565400146
     718, 3.50154895643, -5.76141534399, -6.85663856419
     719, 3.62642757981, -3.88103053009, -6.43165779856
     720, 3.76249437393, -3.77954568605, -6.92067276546
     721, 3.86360110713, -3.94358126359, -7.40110896729
     722, 3.90265646257, -4.32918389464, -7.74423379041
     723, 3.86919519826, -4.83303112352, -7.85810729713
     724, 3.77218375038, -5.32011859975, -7.71221669499
     725, 3.87952338284, -5.65654834662, -6.25517918306
     726, 3.84046801706, -5.27094618445, -5.91205434924
     727, 3.87392929179, -4.76709847584, -5.7981808529
     728, 3.97094072959, -4.2800114806, -5.94407145478
     729, 4.11669667015, -5.71909931017, -7.22463034095
     730, 3.98063010627, -5.82058415397, -6.73561538448
     731, 4.1055084889, -3.94019911, -6.31063414875
     732, 4.24157529279, -3.83871426589, -6.79964958518
     733, 4.34268201717, -4.00274960335, -7.28008578688
     734, 4.38173762312, -4.38835223602, -7.62321061095
     735, 4.34827610732, -4.89219994349, -7.73708364736
     736, 4.25126490932, -5.37928693924, -7.59119351551
     737, 4.35860429163, -5.71571715648, -6.13415553338
     738, 4.31954917524, -5.33011452521, -5.79103070021
     739, 4.35301020191, -4.82626681589, -5.67715719286
     740, 4.45002187991, -4.33917982075, -5.82304779463
     741, 4.59577783096, -5.77826765026, -7.10360716075
     742, 4.45971102592, -5.87975249393, -6.61459173458
     743, 4.58458963882, -3.99936745018, -6.1896104884
     744, 4.72065644398, -3.89788283606, -6.6786259257
     745, 4.82176317809, -4.06191841354, -7.15906212678
     746, 4.86081829492, -4.44752105624, -7.50218696049
     747, 4.82735726837, -4.95136828357, -7.6160604671
     748, 4.73034559, -5.43845575941, -7.47016986528
     749, 4.83768545271, -5.77488549652, -6.01313187296
     750, 4.79863032672, -5.38928333444, -5.67000703934
     751, 4.83209136263, -4.88543563602, -5.55613401268
     752, 4.92910304048, -4.39834863098, -5.70202414438
     753, 5.07485898057, -5.83743646991, -6.98258351144
     754, 4.93879217659, -5.93892131401, -6.49356807416
     755, 5.06367079967, -4.05853626004, -6.06858731866
     756, 5.19973760417, -3.95705141608, -6.55760227539
     757, 5.30084432755, -4.12108675364, -7.03803847718
     758, 5.3398994524, -4.50668938496, -7.38116330063
     759, 5.30643841779, -5.0105370934, -7.49503680726
     760, 5.20942674015, -5.49762409979, -7.349146205
     761, 5.31676612258, -5.8340543166, -5.89210869315
     762, 5.27771100675, -5.44845167442, -5.54898386932
     763, 5.31117203151, -4.94460397588, -5.43511036296
     764, 5.4081837194, -4.45751697077, -5.5810009647
     765, 5.55394013008, -5.89660480008, -6.86155985112
     766, 5.41787333617, -5.99808965397, -6.37254489477
     767, 5.54275194971, -4.11770459972, -5.94756365928
     768, 5.67881875368, -4.01622023602, -6.43657909555
     769, 5.77992548735, -4.1802555729, -6.91701529608
     770, 5.81898060298, -4.56585772552, -7.26014013074
     771, 5.78551957711, -5.06970543359, -7.37401315741
     772, 5.68850788931, -5.55679290943, -7.22812302538
     773, 5.79584728204, -5.89322264654, -5.7710850433
     774, 5.7567921554, -5.50762049524, -5.42796021017
     775, 5.79025319203, -5.00377278596, -5.31408670283
     776, 5.88726487009, -4.51668579059, -5.45997731471
     777, 6.0330208109, -5.95577362022, -6.74053668083
     778, 5.89695400615, -6.05725846397, -6.25152124478
     779, 6.02183262911, -4.17687341989, -5.82654000895
     780, 6.15789943432, -4.07538857611, -6.31555544566
     781, 6.25900615844, -4.23942391288, -6.79599163555
     782, 6.29806175524, -4.62502654579, -7.13911647016
     783, 6.26460024857, -5.12887425385, -7.25298997704
     784, 6.16758905023, -5.61596124943, -7.10709937523
     785, 6.27492843281, -5.95239146637, -5.65006138266
     786, 6.23587331484, -5.56678883588, -5.30693656068
     787, 6.26933434307, -5.06294112605, -5.19306353257
     788, 6.36634601991, -4.57585412062, -5.33895365472
     789, 6.51210196198, -6.01494195975, -6.61951302174
     790, 6.37603516895, -6.11642680426, -6.13049806242
     791, 6.50091377686, -4.23604176019, -5.70551682839
     792, 6.63698058396, -4.13455738603, -6.1945317846
     793, 6.73808731984, -4.2985927233, -6.6749679856
     794, 6.77714243572, -4.68419488555, -7.01809281988
     795, 6.74368140982, -5.18804259441, -7.13196631669
     796, 6.64666972079, -5.67513006919, -6.98607571529
*Element, type=R3D4
       1, 1, 2, 3, 4
       2, 5, 1, 4, 6
       3, 2, 7, 8, 3
       4, 4, 3, 9, 10
       5, 6, 4, 10, 11
       6, 12, 10, 9, 13
       7, 11, 10, 12, 14
       8, 15, 16, 17, 18
       9, 7, 19, 20, 18
      10, 7, 2, 21, 19
      11, 22, 15, 18, 20
      12, 17, 16, 13, 8
      13, 19, 21, 23, 24
      14, 25, 23, 21, 26
      15, 27, 25, 26, 28
      16, 12, 13, 16, 29
      17, 14, 12, 29, 30
      18, 16, 15, 31, 29
      19, 31, 15, 22, 32
      20, 22, 33, 34, 32
      21, 33, 35, 36, 34
      22, 18, 17, 8, 7
      23, 26, 21, 2, 1
      24, 28, 26, 1, 5
      25, 23, 25, 37, 24
      26, 38, 37, 25, 27
      27, 22, 20, 35, 33
      28, 35, 24, 37, 36
      29, 39, 36, 37, 38
      30, 35, 20, 19, 24
      31, 8, 13, 9, 3
      32, 40, 5, 6, 41
      33, 41, 6, 11, 42
      34, 42, 11, 14, 43
      35, 44, 27, 28, 45
      36, 43, 14, 30, 46
      37, 45, 28, 5, 40
      38, 47, 38, 27, 44
      39, 48, 39, 38, 47
      40, 49, 40, 41, 50
      41, 50, 41, 42, 51
      42, 51, 42, 43, 52
      43, 53, 44, 45, 54
      44, 52, 43, 46, 55
      45, 54, 45, 40, 49
      46, 56, 47, 44, 53
      47, 57, 48, 47, 56
      48, 58, 49, 50, 59
      49, 59, 50, 51, 60
      50, 60, 51, 52, 61
      51, 62, 53, 54, 63
      52, 61, 52, 55, 64
      53, 63, 54, 49, 58
      54, 65, 56, 53, 62
      55, 66, 57, 56, 65
      56, 67, 58, 59, 68
      57, 68, 59, 60, 69
      58, 69, 60, 61, 70
      59, 71, 62, 63, 72
      60, 70, 61, 64, 73
      61, 72, 63, 58, 67
      62, 74, 65, 62, 71
      63, 75, 66, 65, 74
      64, 76, 67, 68, 77
      65, 77, 68, 69, 78
      66, 78, 69, 70, 79
      67, 80, 71, 72, 81
      68, 79, 70, 73, 82
      69, 81, 72, 67, 76
      70, 83, 74, 71, 80
      71, 84, 75, 74, 83
      72, 85, 76, 77, 86
      73, 86, 77, 78, 87
      74, 87, 78, 79, 88
      75, 89, 80, 81, 90
      76, 88, 79, 82, 91
      77, 90, 81, 76, 85
      78, 92, 83, 80, 89
      79, 93, 84, 83, 92
      80, 94, 85, 86, 95
      81, 95, 86, 87, 96
      82, 96, 87, 88, 97
      83, 98, 89, 90, 99
      84, 97, 88, 91, 100
      85, 99, 90, 85, 94
      86, 101, 92, 89, 98
      87, 102, 93, 92, 101
      88, 103, 94, 95, 104
      89, 104, 95, 96, 105
      90, 105, 96, 97, 106
      91, 107, 98, 99, 108
      92, 106, 97, 100, 109
      93, 108, 99, 94, 103
      94, 110, 101, 98, 107
      95, 111, 102, 101, 110
      96, 112, 103, 104, 113
      97, 113, 104, 105, 114
      98, 114, 105, 106, 115
      99, 116, 107, 108, 117
     100, 115, 106, 109, 118
     101, 117, 108, 103, 112
     102, 119, 110, 107, 116
     103, 120, 111, 110, 119
     104, 121, 112, 113, 122
     105, 122, 113, 114, 123
     106, 123, 114, 115, 124
     107, 125, 116, 117, 126
     108, 124, 115, 118, 127
     109, 126, 117, 112, 121
     110, 128, 119, 116, 125
     111, 129, 120, 119, 128
     112, 130, 121, 122, 131
     113, 131, 122, 123, 132
     114, 132, 123, 124, 133
     115, 134, 125, 126, 135
     116, 133, 124, 127, 136
     117, 135, 126, 121, 130
     118, 137, 128, 125, 134
     119, 138, 129, 128, 137
     120, 139, 130, 131, 140
     121, 140, 131, 132, 141
     122, 141, 132, 133, 142
     123, 143, 134, 135, 144
     124, 142, 133, 136, 145
     125, 144, 135, 130, 139
     126, 146, 137, 134, 143
     127, 147, 138, 137, 146
     128, 148, 139, 140, 149
     129, 149, 140, 141, 150
     130, 150, 141, 142, 151
     131, 152, 143, 144, 153
     132, 151, 142, 145, 154
     133, 153, 144, 139, 148
     134, 155, 146, 143, 152
     135, 156, 147, 146, 155
     136, 157, 148, 149, 158
     137, 158, 149, 150, 159
     138, 159, 150, 151, 160
     139, 161, 152, 153, 162
     140, 160, 151, 154, 163
     141, 162, 153, 148, 157
     142, 164, 155, 152, 161
     143, 165, 156, 155, 164
     144, 166, 157, 158, 167
     145, 167, 158, 159, 168
     146, 168, 159, 160, 169
     147, 170, 161, 162, 171
     148, 169, 160, 163, 172
     149, 172, 163, 173, 174
     150, 171, 162, 157, 166
     151, 175, 164, 161, 170
     152, 176, 165, 164, 175
     153, 177, 166, 167, 178
     154, 178, 167, 168, 179
     155, 179, 168, 169, 180
     156, 181, 170, 171, 182
     157, 180, 169, 172, 183
     158, 183, 172, 174, 184
     159, 185, 186, 176, 187
     160, 182, 171, 166, 177
     161, 188, 175, 170, 181
     162, 187, 176, 175, 188
     163, 189, 177, 178, 190
     164, 190, 178, 179, 191
     165, 191, 179, 180, 192
     166, 193, 181, 182, 194
     167, 192, 180, 183, 195
     168, 195, 183, 184, 196
     169, 197, 185, 187, 198
     170, 194, 182, 177, 189
     171, 199, 188, 181, 193
     172, 198, 187, 188, 199
     173, 200, 189, 190, 201
     174, 201, 190, 191, 202
     175, 202, 191, 192, 203
     176, 204, 193, 194, 205
     177, 203, 192, 195, 206
     178, 206, 195, 196, 207
     179, 208, 197, 198, 209
     180, 205, 194, 189, 200
     181, 210, 199, 193, 204
     182, 209, 198, 199, 210
     183, 211, 200, 201, 212
     184, 212, 201, 202, 213
     185, 213, 202, 203, 214
     186, 215, 204, 205, 216
     187, 214, 203, 206, 217
     188, 217, 206, 207, 218
     189, 219, 208, 209, 220
     190, 216, 205, 200, 211
     191, 221, 210, 204, 215
     192, 220, 209, 210, 221
     193, 222, 211, 212, 223
     194, 223, 212, 213, 224
     195, 224, 213, 214, 225
     196, 226, 215, 216, 227
     197, 225, 214, 217, 228
     198, 228, 217, 218, 229
     199, 230, 219, 220, 231
     200, 227, 216, 211, 222
     201, 232, 221, 215, 226
     202, 231, 220, 221, 232
     203, 233, 222, 223, 234
     204, 234, 223, 224, 235
     205, 235, 224, 225, 236
     206, 237, 226, 227, 238
     207, 236, 225, 228, 239
     208, 239, 228, 229, 240
     209, 241, 230, 231, 242
     210, 238, 227, 222, 233
     211, 243, 232, 226, 237
     212, 242, 231, 232, 243
     213, 244, 233, 234, 245
     214, 245, 234, 235, 246
     215, 246, 235, 236, 247
     216, 248, 237, 238, 249
     217, 247, 236, 239, 250
     218, 250, 239, 240, 251
     219, 251, 240, 252, 253
     220, 253, 252, 241, 254
     221, 254, 241, 242, 255
     222, 249, 238, 233, 244
     223, 256, 243, 237, 248
     224, 255, 242, 243, 256
     225, 257, 244, 245, 258
     226, 258, 245, 246, 259
     227, 259, 246, 247, 260
     228, 261, 248, 249, 262
     229, 260, 247, 250, 263
     230, 263, 250, 251, 264
     231, 264, 251, 253, 265
     232, 265, 253, 254, 266
     233, 266, 254, 255, 267
     234, 262, 249, 244, 257
     235, 268, 256, 248, 261
     236, 267, 255, 256, 268
     237, 269, 257, 258, 270
     238, 270, 258, 259, 271
     239, 271, 259, 260, 272
     240, 273, 261, 262, 274
     241, 272, 260, 263, 275
     242, 275, 263, 264, 276
     243, 276, 264, 265, 277
     244, 277, 265, 266, 278
     245, 278, 266, 267, 279
     246, 274, 262, 257, 269
     247, 280, 268, 261, 273
     248, 279, 267, 268, 280
     249, 281, 269, 270, 282
     250, 282, 270, 271, 283
     251, 283, 271, 272, 284
     252, 285, 273, 274, 286
     253, 284, 272, 275, 287
     254, 287, 275, 276, 288
     255, 288, 276, 277, 289
     256, 289, 277, 278, 290
     257, 290, 278, 279, 291
     258, 286, 274, 269, 281
     259, 292, 280, 273, 285
     260, 291, 279, 280, 292
     261, 293, 281, 282, 294
     262, 294, 282, 283, 295
     263, 295, 283, 284, 296
     264, 297, 285, 286, 298
     265, 296, 284, 287, 299
     266, 299, 287, 288, 300
     267, 300, 288, 289, 301
     268, 301, 289, 290, 302
     269, 302, 290, 291, 303
     270, 298, 286, 281, 293
     271, 304, 292, 285, 297
     272, 303, 291, 292, 304
     273, 305, 293, 294, 306
     274, 306, 294, 295, 307
     275, 307, 295, 296, 308
     276, 309, 297, 298, 310
     277, 308, 296, 299, 311
     278, 311, 299, 300, 312
     279, 312, 300, 301, 313
     280, 313, 301, 302, 314
     281, 314, 302, 303, 315
     282, 310, 298, 293, 305
     283, 316, 304, 297, 309
     284, 315, 303, 304, 316
     285, 317, 305, 306, 318
     286, 318, 306, 307, 319
     287, 319, 307, 308, 320
     288, 321, 309, 310, 322
     289, 320, 308, 311, 323
     290, 323, 311, 312, 324
     291, 324, 312, 313, 325
     292, 325, 313, 314, 326
     293, 326, 314, 315, 327
     294, 322, 310, 305, 317
     295, 328, 316, 309, 321
     296, 327, 315, 316, 328
     297, 329, 317, 318, 330
     298, 330, 318, 319, 331
     299, 331, 319, 320, 332
     300, 333, 321, 322, 334
     301, 332, 320, 323, 335
     302, 335, 323, 324, 336
     303, 336, 324, 325, 337
     304, 337, 325, 326, 338
     305, 338, 326, 327, 339
     306, 334, 322, 317, 329
     307, 340, 328, 321, 333
     308, 339, 327, 328, 340
     309, 341, 329, 330, 342
     310, 342, 330, 331, 343
     311, 343, 331, 332, 344
     312, 345, 333, 334, 346
     313, 344, 332, 335, 347
     314, 347, 335, 336, 348
     315, 348, 336, 337, 349
     316, 349, 337, 338, 350
     317, 350, 338, 339, 351
     318, 346, 334, 329, 341
     319, 352, 340, 333, 345
     320, 351, 339, 340, 352
     321, 353, 341, 342, 354
     322, 354, 342, 343, 355
     323, 355, 343, 344, 356
     324, 357, 345, 346, 358
     325, 356, 344, 347, 359
     326, 359, 347, 348, 360
     327, 360, 348, 349, 361
     328, 361, 349, 350, 362
     329, 362, 350, 351, 363
     330, 358, 346, 341, 353
     331, 364, 352, 345, 357
     332, 363, 351, 352, 364
     333, 365, 353, 354, 366
     334, 366, 354, 355, 367
     335, 367, 355, 356, 368
     336, 369, 357, 358, 370
     337, 368, 356, 359, 371
     338, 371, 359, 360, 372
     339, 372, 360, 361, 373
     340, 373, 361, 362, 374
     341, 374, 362, 363, 375
     342, 370, 358, 353, 365
     343, 376, 364, 357, 369
     344, 375, 363, 364, 376
     345, 377, 365, 366, 378
     346, 378, 366, 367, 379
     347, 379, 367, 368, 380
     348, 381, 369, 370, 382
     349, 380, 368, 371, 383
     350, 383, 371, 372, 384
     351, 384, 372, 373, 385
     352, 385, 373, 374, 386
     353, 386, 374, 375, 387
     354, 382, 370, 365, 377
     355, 388, 376, 369, 381
     356, 387, 375, 376, 388
     357, 389, 377, 378, 390
     358, 390, 378, 379, 391
     359, 391, 379, 380, 392
     360, 393, 381, 382, 394
     361, 392, 380, 383, 395
     362, 395, 383, 384, 396
     363, 396, 384, 385, 397
     364, 397, 385, 386, 398
     365, 398, 386, 387, 399
     366, 394, 382, 377, 389
     367, 400, 388, 381, 393
     368, 399, 387, 388, 400
     369, 401, 389, 390, 402
     370, 402, 390, 391, 403
     371, 403, 391, 392, 404
     372, 405, 393, 394, 406
     373, 404, 392, 395, 407
     374, 407, 395, 396, 408
     375, 408, 396, 397, 409
     376, 409, 397, 398, 410
     377, 410, 398, 399, 411
     378, 406, 394, 389, 401
     379, 412, 400, 393, 405
     380, 411, 399, 400, 412
     381, 413, 401, 402, 414
     382, 414, 402, 403, 415
     383, 415, 403, 404, 416
     384, 417, 405, 406, 418
     385, 416, 404, 407, 419
     386, 419, 407, 408, 420
     387, 420, 408, 409, 421
     388, 421, 409, 410, 422
     389, 422, 410, 411, 423
     390, 418, 406, 401, 413
     391, 424, 412, 405, 417
     392, 423, 411, 412, 424
     393, 425, 413, 414, 426
     394, 426, 414, 415, 427
     395, 427, 415, 416, 428
     396, 429, 417, 418, 430
     397, 428, 416, 419, 431
     398, 431, 419, 420, 432
     399, 432, 420, 421, 433
     400, 433, 421, 422, 434
     401, 434, 422, 423, 435
     402, 430, 418, 413, 425
     403, 436, 424, 417, 429
     404, 435, 423, 424, 436
     405, 437, 425, 426, 438
     406, 438, 426, 427, 439
     407, 439, 427, 428, 440
     408, 441, 429, 430, 442
     409, 440, 428, 431, 443
     410, 443, 431, 432, 444
     411, 444, 432, 433, 445
     412, 445, 433, 434, 446
     413, 446, 434, 435, 447
     414, 442, 430, 425, 437
     415, 448, 436, 429, 441
     416, 447, 435, 436, 448
     417, 449, 437, 438, 450
     418, 450, 438, 439, 451
     419, 451, 439, 440, 452
     420, 453, 441, 442, 454
     421, 452, 440, 443, 455
     422, 455, 443, 444, 456
     423, 456, 444, 445, 457
     424, 457, 445, 446, 458
     425, 458, 446, 447, 459
     426, 454, 442, 437, 449
     427, 460, 448, 441, 453
     428, 459, 447, 448, 460
     429, 461, 449, 450, 462
     430, 462, 450, 451, 463
     431, 463, 451, 452, 464
     432, 465, 453, 454, 466
     433, 464, 452, 455, 467
     434, 467, 455, 456, 468
     435, 468, 456, 457, 469
     436, 469, 457, 458, 470
     437, 470, 458, 459, 471
     438, 466, 454, 449, 461
     439, 472, 460, 453, 465
     440, 471, 459, 460, 472
     441, 473, 461, 462, 474
     442, 474, 462, 463, 475
     443, 475, 463, 464, 476
     444, 477, 465, 466, 478
     445, 476, 464, 467, 479
     446, 479, 467, 468, 480
     447, 480, 468, 469, 481
     448, 481, 469, 470, 482
     449, 482, 470, 471, 483
     450, 478, 466, 461, 473
     451, 484, 472, 465, 477
     452, 483, 471, 472, 484
     453, 485, 473, 474, 486
     454, 486, 474, 475, 487
     455, 487, 475, 476, 488
     456, 489, 477, 478, 490
     457, 488, 476, 479, 491
     458, 491, 479, 480, 492
     459, 492, 480, 481, 493
     460, 493, 481, 482, 494
     461, 494, 482, 483, 495
     462, 490, 478, 473, 485
     463, 496, 484, 477, 489
     464, 495, 483, 484, 496
     465, 497, 485, 486, 498
     466, 498, 486, 487, 499
     467, 499, 487, 488, 500
     468, 501, 489, 490, 502
     469, 500, 488, 491, 503
     470, 503, 491, 492, 504
     471, 504, 492, 493, 505
     472, 505, 493, 494, 506
     473, 506, 494, 495, 507
     474, 502, 490, 485, 497
     475, 508, 496, 489, 501
     476, 507, 495, 496, 508
     477, 509, 497, 498, 510
     478, 510, 498, 499, 511
     479, 511, 499, 500, 512
     480, 513, 501, 502, 514
     481, 512, 500, 503, 515
     482, 515, 503, 504, 516
     483, 516, 504, 505, 517
     484, 517, 505, 506, 518
     485, 518, 506, 507, 519
     486, 514, 502, 497, 509
     487, 520, 508, 501, 513
     488, 519, 507, 508, 520
     489, 521, 509, 510, 522
     490, 522, 510, 511, 523
     491, 523, 511, 512, 524
     492, 525, 513, 514, 526
     493, 524, 512, 515, 527
     494, 527, 515, 516, 528
     495, 528, 516, 517, 529
     496, 529, 517, 518, 530
     497, 530, 518, 519, 531
     498, 526, 514, 509, 521
     499, 532, 520, 513, 525
     500, 531, 519, 520, 532
     501, 533, 521, 522, 534
     502, 534, 522, 523, 535
     503, 535, 523, 524, 536
     504, 537, 525, 526, 538
     505, 536, 524, 527, 539
     506, 539, 527, 528, 540
     507, 540, 528, 529, 541
     508, 541, 529, 530, 542
     509, 542, 530, 531, 543
     510, 538, 526, 521, 533
     511, 544, 532, 525, 537
     512, 543, 531, 532, 544
     513, 545, 533, 534, 546
     514, 546, 534, 535, 547
     515, 547, 535, 536, 548
     516, 549, 537, 538, 550
     517, 548, 536, 539, 551
     518, 551, 539, 540, 552
     519, 552, 540, 541, 553
     520, 553, 541, 542, 554
     521, 554, 542, 543, 555
     522, 550, 538, 533, 545
     523, 556, 544, 537, 549
     524, 555, 543, 544, 556
     525, 557, 545, 546, 558
     526, 558, 546, 547, 559
     527, 559, 547, 548, 560
     528, 561, 549, 550, 562
     529, 560, 548, 551, 563
     530, 563, 551, 552, 564
     531, 564, 552, 553, 565
     532, 565, 553, 554, 566
     533, 566, 554, 555, 567
     534, 562, 550, 545, 557
     535, 568, 556, 549, 561
     536, 567, 555, 556, 568
     537, 569, 557, 558, 570
     538, 570, 558, 559, 571
     539, 571, 559, 560, 572
     540, 573, 561, 562, 574
     541, 572, 560, 563, 575
     542, 575, 563, 564, 576
     543, 576, 564, 565, 577
     544, 577, 565, 566, 578
     545, 578, 566, 567, 579
     546, 574, 562, 557, 569
     547, 580, 568, 561, 573
     548, 579, 567, 568, 580
     549, 581, 569, 570, 582
     550, 582, 570, 571, 583
     551, 583, 571, 572, 584
     552, 585, 573, 574, 586
     553, 584, 572, 575, 587
     554, 587, 575, 576, 588
     555, 588, 576, 577, 589
     556, 589, 577, 578, 590
     557, 590, 578, 579, 591
     558, 586, 574, 569, 581
     559, 592, 580, 573, 585
     560, 591, 579, 580, 592
     561, 593, 581, 582, 594
     562, 594, 582, 583, 595
     563, 595, 583, 584, 596
     564, 597, 585, 586, 598
     565, 596, 584, 587, 599
     566, 599, 587, 588, 600
     567, 600, 588, 589, 601
     568, 601, 589, 590, 602
     569, 602, 590, 591, 603
     570, 598, 586, 581, 593
     571, 604, 592, 585, 597
     572, 603, 591, 592, 604
     573, 605, 593, 594, 606
     574, 606, 594, 595, 607
     575, 607, 595, 596, 608
     576, 609, 597, 598, 610
     577, 608, 596, 599, 611
     578, 611, 599, 600, 612
     579, 612, 600, 601, 613
     580, 613, 601, 602, 614
     581, 614, 602, 603, 615
     582, 610, 598, 593, 605
     583, 616, 604, 597, 609
     584, 615, 603, 604, 616
     585, 617, 605, 606, 618
     586, 618, 606, 607, 619
     587, 619, 607, 608, 620
     588, 621, 609, 610, 622
     589, 620, 608, 611, 623
     590, 623, 611, 612, 624
     591, 624, 612, 613, 625
     592, 625, 613, 614, 626
     593, 626, 614, 615, 627
     594, 622, 610, 605, 617
     595, 628, 616, 609, 621
     596, 627, 615, 616, 628
     597, 629, 617, 618, 630
     598, 630, 618, 619, 631
     599, 631, 619, 620, 632
     600, 633, 621, 622, 634
     601, 632, 620, 623, 635
     602, 635, 623, 624, 636
     603, 636, 624, 625, 637
     604, 637, 625, 626, 638
     605, 638, 626, 627, 639
     606, 634, 622, 617, 629
     607, 640, 628, 621, 633
     608, 639, 627, 628, 640
     609, 641, 629, 630, 642
     610, 642, 630, 631, 643
     611, 643, 631, 632, 644
     612, 645, 633, 634, 646
     613, 644, 632, 635, 647
     614, 647, 635, 636, 648
     615, 648, 636, 637, 649
     616, 649, 637, 638, 650
     617, 650, 638, 639, 651
     618, 646, 634, 629, 641
     619, 652, 640, 633, 645
     620, 651, 639, 640, 652
     621, 653, 641, 642, 654
     622, 654, 642, 643, 655
     623, 655, 643, 644, 656
     624, 657, 645, 646, 658
     625, 656, 644, 647, 659
     626, 659, 647, 648, 660
     627, 660, 648, 649, 661
     628, 661, 649, 650, 662
     629, 662, 650, 651, 663
     630, 658, 646, 641, 653
     631, 664, 652, 645, 657
     632, 663, 651, 652, 664
     633, 665, 653, 654, 666
     634, 666, 654, 655, 667
     635, 667, 655, 656, 668
     636, 669, 657, 658, 670
     637, 668, 656, 659, 671
     638, 671, 659, 660, 672
     639, 672, 660, 661, 673
     640, 673, 661, 662, 674
     641, 674, 662, 663, 675
     642, 670, 658, 653, 665
     643, 676, 664, 657, 669
     644, 675, 663, 664, 676
     645, 677, 665, 666, 678
     646, 678, 666, 667, 679
     647, 679, 667, 668, 680
     648, 681, 669, 670, 682
     649, 680, 668, 671, 683
     650, 683, 671, 672, 684
     651, 684, 672, 673, 685
     652, 685, 673, 674, 686
     653, 686, 674, 675, 687
     654, 682, 670, 665, 677
     655, 688, 676, 669, 681
     656, 687, 675, 676, 688
     657, 689, 677, 678, 690
     658, 690, 678, 679, 691
     659, 691, 679, 680, 692
     660, 693, 681, 682, 694
     661, 692, 680, 683, 695
     662, 695, 683, 684, 696
     663, 696, 684, 685, 697
     664, 697, 685, 686, 698
     665, 698, 686, 687, 699
     666, 694, 682, 677, 689
     667, 700, 688, 681, 693
     668, 699, 687, 688, 700
     669, 701, 689, 690, 702
     670, 702, 690, 691, 703
     671, 703, 691, 692, 704
     672, 705, 693, 694, 706
     673, 704, 692, 695, 707
     674, 707, 695, 696, 708
     675, 708, 696, 697, 709
     676, 709, 697, 698, 710
     677, 710, 698, 699, 711
     678, 706, 694, 689, 701
     679, 712, 700, 693, 705
     680, 711, 699, 700, 712
     681, 713, 701, 702, 714
     682, 714, 702, 703, 715
     683, 715, 703, 704, 716
     684, 717, 705, 706, 718
     685, 716, 704, 707, 719
     686, 719, 707, 708, 720
     687, 720, 708, 709, 721
     688, 721, 709, 710, 722
     689, 722, 710, 711, 723
     690, 718, 706, 701, 713
     691, 724, 712, 705, 717
     692, 723, 711, 712, 724
     693, 725, 713, 714, 726
     694, 726, 714, 715, 727
     695, 727, 715, 716, 728
     696, 729, 717, 718, 730
     697, 728, 716, 719, 731
     698, 731, 719, 720, 732
     699, 732, 720, 721, 733
     700, 733, 721, 722, 734
     701, 734, 722, 723, 735
     702, 730, 718, 713, 725
     703, 736, 724, 717, 729
     704, 735, 723, 724, 736
     705, 737, 725, 726, 738
     706, 738, 726, 727, 739
     707, 739, 727, 728, 740
     708, 741, 729, 730, 742
     709, 740, 728, 731, 743
     710, 743, 731, 732, 744
     711, 744, 732, 733, 745
     712, 745, 733, 734, 746
     713, 746, 734, 735, 747
     714, 742, 730, 725, 737
     715, 748, 736, 729, 741
     716, 747, 735, 736, 748
     717, 749, 737, 738, 750
     718, 750, 738, 739, 751
     719, 751, 739, 740, 752
     720, 753, 741, 742, 754
     721, 752, 740, 743, 755
     722, 755, 743, 744, 756
     723, 756, 744, 745, 757
     724, 757, 745, 746, 758
     725, 758, 746, 747, 759
     726, 754, 742, 737, 749
     727, 760, 748, 741, 753
     728, 759, 747, 748, 760
     729, 761, 749, 750, 762
     730, 762, 750, 751, 763
     731, 763, 751, 752, 764
     732, 765, 753, 754, 766
     733, 764, 752, 755, 767
     734, 767, 755, 756, 768
     735, 768, 756, 757, 769
     736, 769, 757, 758, 770
     737, 770, 758, 759, 771
     738, 766, 754, 749, 761
     739, 772, 760, 753, 765
     740, 771, 759, 760, 772
     741, 773, 761, 762, 774
     742, 774, 762, 763, 775
     743, 775, 763, 764, 776
     744, 777, 765, 766, 778
     745, 776, 764, 767, 779
     746, 779, 767, 768, 780
     747, 780, 768, 769, 781
     748, 781, 769, 770, 782
     749, 782, 770, 771, 783
     750, 778, 766, 761, 773
     751, 784, 772, 765, 777
     752, 783, 771, 772, 784
     753, 785, 773, 774, 786
     754, 786, 774, 775, 787
     755, 787, 775, 776, 788
     756, 789, 777, 778, 790
     757, 788, 776, 779, 791
     758, 791, 779, 780, 792
     759, 792, 780, 781, 793
     760, 793, 781, 782, 794
     761, 794, 782, 783, 795
     762, 790, 778, 773, 785
     763, 796, 784, 777, 789
     764, 795, 783, 784, 796
*Elset, elset=PIPE_WALL_HELPER_ALL, generate
1, 764, 1
*Surface, type=ELEMENT, name=PIPE_WALL_HELPER_SURF
PIPE_WALL_HELPER_ALL, SPOS
*End Part
** Robot-only terminal stop; not included in CEL material contact
*Part, name=Pipe_TERMINAL_STOP
*Node
       1, -17.8120422, -16.0254612, -1.98043847
       2, -18.0087299, -16.4204502, -1.75030053
       3, -18.288311, -16.5256882, -2.16986728
       4, -18.0916214, -16.1306992, -2.40000534
       5, -18.3395977, -16.7643833, -2.62337637
       6, -18.1429081, -16.3693943, -2.85351443
       7, -18.1488495, -17.0725784, -2.9893105
       8, -17.9521599, -16.6775894, -3.21944857
       9, -17.7671776, -17.367691, -3.16961789
      10, -17.570488, -16.972702, -3.39975595
      11, -17.6153526, -15.6304722, -2.21057653
      12, -17.8949337, -15.7357101, -2.63014317
      13, -17.9462204, -15.9744062, -3.08365226
      14, -17.7554722, -16.2826004, -3.44958639
      15, -17.3737984, -16.577713, -3.62989378
      16, -17.4186649, -15.2354832, -2.44071436
      17, -17.6982441, -15.3407211, -2.86028123
      18, -17.7495308, -15.5794172, -3.31379032
      19, -17.5587826, -15.8876114, -3.67972445
      20, -17.1771107, -16.182724, -3.86003184
      21, -17.2219753, -14.8404942, -2.67085242
      22, -17.5015564, -14.9457321, -3.09041905
      23, -17.5528431, -15.1844282, -3.54392815
      24, -17.3620949, -15.4926224, -3.90986228
      25, -16.9804211, -15.787735, -4.09016991
      26, -17.0252876, -14.4455051, -2.90099025
      27, -17.3048668, -14.5507431, -3.32055712
      28, -17.3561535, -14.7894392, -3.77406621
      29, -17.1654053, -15.0976334, -4.14000034
      30, -16.7837334, -15.392746, -4.32030773
      31, -16.828598, -14.0505161, -3.13112831
      32, -17.1081791, -14.1557541, -3.55069494
      33, -17.1594658, -14.3944502, -4.00420427
      34, -16.9687176, -14.7026443, -4.37013817
      35, -16.5870438, -14.997757, -4.55044556
      36, -16.6319103, -13.6555271, -3.36126614
      37, -16.9114895, -13.7607651, -3.78083301
      38, -16.9627762, -13.9994612, -4.2343421
      39, -16.772028, -14.3076553, -4.60027599
      40, -16.3903561, -14.6027679, -4.78058338
      41, -16.4352207, -13.2605381, -3.5914042
      42, -16.7148018, -13.3657761, -4.01097107
      43, -16.7660885, -13.6044722, -4.46447992
      44, -16.5753403, -13.9126663, -4.8304143
      45, -16.1936665, -14.2077789, -5.01072168
      46, -16.238533, -12.8655491, -3.82154202
      47, -16.5181122, -12.970787, -4.24110889
      48, -16.5693989, -13.2094831, -4.69461775
      49, -16.3786507, -13.5176773, -5.06055212
      50, -15.9969788, -13.8127899, -5.24085951
      51, -16.0418434, -12.4705601, -4.05168009
      52, -16.3214245, -12.575798, -4.47124672
      53, -16.3727112, -12.8144941, -4.92475605
      54, -16.181963, -13.1226883, -5.29068995
      55, -15.8002901, -13.4178009, -5.47099733
      56, -15.8451548, -12.0755711, -4.28181791
      57, -16.1247349, -12.180809, -4.70138454
      58, -16.1760216, -12.4195051, -5.15489388
      59, -15.9852734, -12.7276993, -5.52082777
      60, -15.6036015, -13.0228119, -5.70113516
      61, -15.6484661, -11.680582, -4.51195574
      62, -15.9280462, -11.78582, -4.93152285
      63, -15.9793329, -12.0245161, -5.3850317
      64, -15.7885847, -12.3327103, -5.75096607
      65, -15.4069118, -12.6278229, -5.93127346
      66, -15.4517775, -11.285593, -4.74209404
      67, -15.7313576, -11.390831, -5.16166067
      68, -15.7826443, -11.6295271, -5.61516953
      69, -15.5918961, -11.9377213, -5.9811039
      70, -15.2102232, -12.2328339, -6.16141129
      71, -15.2550888, -10.890604, -4.97223186
      72, -15.5346689, -10.995842, -5.3917985
      73, -15.5859556, -11.2345381, -5.84530783
      74, -15.3952074, -11.5427322, -6.21124172
      75, -15.0135345, -11.8378448, -6.39154911
      76, -15.0584002, -10.495615, -5.20236969
      77, -15.3379803, -10.600853, -5.62193632
      78, -15.389267, -10.8395491, -6.07544565
      79, -15.1985188, -11.1477432, -6.44137955
      80, -14.8168459, -11.4428558, -6.62168694
      81, -15.1412916, -10.205864, -5.85207462
      82, -15.1925783, -10.4445601, -6.30558348
      83, -15.0018301, -10.7527542, -6.67151785
      84, -14.6201572, -11.0478668, -6.85182524
      85, -14.944603, -9.81087494, -6.08221245
      86, -14.9958897, -10.049571, -6.5357213
      87, -14.8051414, -10.3577652, -6.90165567
      88, -14.7479143, -9.41588593, -6.31235027
      89, -14.799201, -9.65458202, -6.7658596
      90, -14.6084528, -9.96277618, -7.1317935
      91, -14.5512257, -9.02089691, -6.5424881
      92, -14.6025124, -9.25959301, -6.99599743
      93, -14.4117641, -9.56778717, -7.36193132
      94, -14.354537, -8.6259079, -6.7726264
      95, -14.4058237, -8.864604, -7.22613525
      96, -14.2150755, -9.17279816, -7.59206963
      97, -14.1578484, -8.23091888, -7.00276423
      98, -14.2091351, -8.46961498, -7.45627308
      99, -14.0183868, -8.77780914, -7.82220745
     100, -13.9611597, -7.83593035, -7.23290205
     101, -14.0124464, -8.07462597, -7.68641138
     102, -13.8216982, -8.38282013, -8.05234528
*Element, type=R3D4
       1, 1, 2, 3, 4
       2, 4, 3, 5, 6
       3, 6, 5, 7, 8
       4, 8, 7, 9, 10
       5, 11, 1, 4, 12
       6, 12, 4, 6, 13
       7, 13, 6, 8, 14
       8, 14, 8, 10, 15
       9, 16, 11, 12, 17
      10, 17, 12, 13, 18
      11, 18, 13, 14, 19
      12, 19, 14, 15, 20
      13, 21, 16, 17, 22
      14, 22, 17, 18, 23
      15, 23, 18, 19, 24
      16, 24, 19, 20, 25
      17, 26, 21, 22, 27
      18, 27, 22, 23, 28
      19, 28, 23, 24, 29
      20, 29, 24, 25, 30
      21, 31, 26, 27, 32
      22, 32, 27, 28, 33
      23, 33, 28, 29, 34
      24, 34, 29, 30, 35
      25, 36, 31, 32, 37
      26, 37, 32, 33, 38
      27, 38, 33, 34, 39
      28, 39, 34, 35, 40
      29, 41, 36, 37, 42
      30, 42, 37, 38, 43
      31, 43, 38, 39, 44
      32, 44, 39, 40, 45
      33, 46, 41, 42, 47
      34, 47, 42, 43, 48
      35, 48, 43, 44, 49
      36, 49, 44, 45, 50
      37, 51, 46, 47, 52
      38, 52, 47, 48, 53
      39, 53, 48, 49, 54
      40, 54, 49, 50, 55
      41, 56, 51, 52, 57
      42, 57, 52, 53, 58
      43, 58, 53, 54, 59
      44, 59, 54, 55, 60
      45, 61, 56, 57, 62
      46, 62, 57, 58, 63
      47, 63, 58, 59, 64
      48, 64, 59, 60, 65
      49, 66, 61, 62, 67
      50, 67, 62, 63, 68
      51, 68, 63, 64, 69
      52, 69, 64, 65, 70
      53, 71, 66, 67, 72
      54, 72, 67, 68, 73
      55, 73, 68, 69, 74
      56, 74, 69, 70, 75
      57, 76, 71, 72, 77
      58, 77, 72, 73, 78
      59, 78, 73, 74, 79
      60, 79, 74, 75, 80
      61, 81, 77, 78, 82
      62, 82, 78, 79, 83
      63, 83, 79, 80, 84
      64, 85, 81, 82, 86
      65, 86, 82, 83, 87
      66, 88, 85, 86, 89
      67, 89, 86, 87, 90
      68, 91, 88, 89, 92
      69, 92, 89, 90, 93
      70, 94, 91, 92, 95
      71, 95, 92, 93, 96
      72, 97, 94, 95, 98
      73, 98, 95, 96, 99
      74, 100, 97, 98, 101
      75, 101, 98, 99, 102
*Elset, elset=PIPE_TERMINAL_STOP_ALL, generate
1, 75, 1
*Surface, type=ELEMENT, name=PIPE_TERMINAL_STOP_SURF
PIPE_TERMINAL_STOP_ALL, SPOS
*End Part
** Robot-only HIGH terminal stop; CEL material remains open
*Part, name=Pipe_TERMINAL_STOP_HIGH
*Node
       1, 6.27608633, -5.94825697, -5.65262365
       2, 6.23722649, -5.56458235, -5.31121445
       3, 6.34579229, -5.31667519, -5.61977959
       4, 6.38327122, -5.54258728, -5.87859058
       5, 6.42685938, -5.04812479, -5.80939579
       6, 6.46756983, -5.20532656, -6.0474062
       7, 6.27052021, -5.06325388, -5.19791079
       8, 6.33665085, -5.0666728, -5.4613657
       9, 6.36704683, -4.57860231, -5.34307146
      10, 6.40535831, -4.81330633, -5.60947752
      11, 6.58144331, -4.56312513, -6.18421125
      12, 6.53330231, -4.8993721, -6.15803194
      13, 6.48639822, -4.85262394, -5.94950342
      14, 6.49429512, -4.60639381, -5.86038208
      15, 6.58811331, -4.99606991, -6.42228222
      16, 6.52141619, -5.31991053, -6.3165822
      17, 6.44574213, -5.67432833, -6.19029665
      18, 6.65065527, -4.65971994, -6.50541687
      19, 6.5850873, -5.45662498, -6.63546896
      20, 6.51303816, -5.71766949, -6.47788239
      21, 6.51207399, -6.01049471, -6.61722803
      22, 6.37668753, -6.11147213, -6.13065815
      23, 6.50094175, -4.24048901, -5.70780182
      24, 6.63632822, -4.13951206, -6.1943717
      25, 6.73692942, -4.30272722, -6.67240572
      26, 6.77578926, -4.68640137, -7.01381493
      27, 6.69572878, -4.81666231, -6.76057386
      28, 6.74249554, -5.18772984, -7.12711906
      29, 6.65333557, -5.12154388, -6.74181366
      30, 6.64596891, -5.67238188, -6.98195791
*Element, type=R3D4
       1, 1, 2, 3, 4
       2, 4, 3, 5, 6
       3, 2, 7, 8, 3
       4, 9, 10, 8, 7
       5, 11, 12, 13, 14
       6, 6, 12, 15, 16
       7, 6, 16, 17, 4
       8, 18, 15, 12, 11
       9, 13, 5, 10, 14
      10, 16, 19, 20, 17
      11, 21, 22, 17, 20
      12, 9, 23, 14, 10
      13, 14, 23, 24, 11
      14, 24, 25, 18, 11
      15, 18, 25, 26, 27
      16, 27, 26, 28, 29
      17, 12, 6, 5, 13
      18, 22, 1, 4, 17
      19, 20, 19, 30, 21
      20, 18, 27, 29, 15
      21, 29, 28, 30, 19
      22, 29, 19, 16, 15
      23, 5, 3, 8, 10
*Elset, elset=PIPE_TERMINAL_STOP_HIGH_ALL, generate
1, 23, 1
*Surface, type=ELEMENT, name=PIPE_TERMINAL_STOP_HIGH_SURF
PIPE_TERMINAL_STOP_HIGH_ALL, SPOS
*End Part
*Part, name=Pipe_SOLID
*Node
      1,  -16.5284824,  -17.2844334,  -1.96806526
      2,  -18.3441372,  -16.7630806,  -2.62501884
      3,  -13.0335417,  -6.09837723,  -8.83874321
      4,  -11.2178869,  -6.61973047,   -8.1817894
      5,  -6.19710016,  -2.70104122,  -9.94260216
      6,   6.73808718,  -4.29859257,  -6.67496824
      7,   6.27492857,  -5.95239115,  -5.65006161
      8,  -6.66025925,   -4.3548398,    -8.917696
      9,  -16.7201881,  -16.9746914,  -1.60029233
     10,  -17.1037788,  -16.6780949,  -1.41907883
     11,  -17.5764713,  -16.4741192,  -1.47298098
     12,  -18.0116062,  -16.4174194,  -1.74755561
     13,   -18.292593,  -16.5231857,   -2.1692307
     14,  -18.1524296,  -17.0728245,  -2.99279189
     15,  -17.7688389,  -17.3694191,  -3.17400527
     16,  -17.2961483,  -17.5733948,  -3.12010312
     17,  -16.8610115,  -17.6300964,  -2.84552836
     18,  -16.5800266,  -17.5243282,   -2.4238534
     19,  -18.1474476,  -16.3680916,  -2.85515666
     20,  -17.9507599,  -15.9731026,  -3.08529472
     21,  -17.7540703,  -15.5781136,  -3.31543255
     22,  -17.5573826,  -15.1831245,  -3.54557061
     23,   -17.360693,  -14.7881355,  -3.77570844
     24,  -17.1640053,  -14.3931465,   -4.0058465
     25,  -16.9673157,  -13.9981575,  -4.23598433
     26,   -16.770628,  -13.6031685,  -4.46612215
     27,  -16.5739384,  -13.2081795,  -4.69626045
     28,  -16.3772507,  -12.8131905,  -4.92639828
     29,  -16.1805611,  -12.4182014,   -5.1565361
     30,  -15.9838724,  -12.0232124,  -5.38667393
     31,  -15.7871838,  -11.6282234,  -5.61681223
     32,  -15.5904951,  -11.2332344,  -5.84695005
     33,  -15.3938065,  -10.8382454,  -6.07708788
     34,  -15.1971178,  -10.4432564,   -6.3072257
     35,  -15.0004292,  -10.0482674,  -6.53736401
     36,  -14.8037405,  -9.65327835,  -6.76750183
     37,  -14.6070518,  -9.25828934,  -6.99763966
     38,  -14.4103632,  -8.86330032,  -7.22777748
     39,  -14.2136745,  -8.46831131,  -7.45791578
     40,  -14.0169859,   -8.0733223,  -7.68805361
     41,  -13.8202972,  -7.67833328,  -7.91819143
     42,  -13.6236076,  -7.28334427,  -8.14832973
     43,   -13.426919,  -6.88835526,  -8.37846756
     44,  -13.2302303,  -6.49336624,  -8.60860538
     45,   -12.841835,  -6.40812016,  -9.20651627
     46,  -12.4582443,  -6.70471573,  -9.38772964
     47,  -11.9855528,  -6.90869188,  -9.33382797
     48,  -11.5504169,  -6.96539259,  -9.05925274
     49,  -11.2694321,  -6.85962534,  -8.63757801
     50,  -11.4145756,  -7.01471949,  -7.95165205
     51,  -11.6112642,   -7.4097085,  -7.72151375
     52,  -11.8079529,  -7.80469751,  -7.49137592
     53,  -12.0046415,    -8.199687,   -7.2612381
     54,  -12.2013302,  -8.59467602,  -7.03110027
     55,  -12.3980188,  -8.98966503,  -6.80096197
     56,  -12.5947084,  -9.38465405,  -6.57082415
     57,  -12.7913971,  -9.77964306,  -6.34068632
     58,  -12.9880857,  -10.1746321,   -6.1105485
     59,  -13.1847744,  -10.5696211,  -5.88041019
     60,  -13.3814631,  -10.9646101,  -5.65027237
     61,  -13.5781517,  -11.3595991,  -5.42013454
     62,  -13.7748404,  -11.7545881,  -5.18999672
     63,   -13.971529,  -12.1495771,  -4.95985842
     64,  -14.1682177,  -12.5445662,  -4.72972059
     65,  -14.3649063,  -12.9395552,  -4.49958277
     66,   -14.561595,  -13.3345442,  -4.26944494
     67,  -14.7582836,  -13.7295332,  -4.03930664
     68,  -14.9549723,  -14.1245222,  -3.80916882
     69,  -15.1516609,  -14.5195112,  -3.57903099
     70,  -15.3483496,  -14.9145002,  -3.34889293
     71,  -15.5450382,  -15.3094893,   -3.1187551
     72,  -15.7417269,  -15.7044783,  -2.88861704
     73,  -15.9384155,  -16.0994663,  -2.65847921
     74,  -16.1351051,  -16.4944553,  -2.42834115
     75,  -16.3317928,  -16.8894444,  -2.19820333
     76,  -5.71801949,   -2.7602098,  -9.82157898
     77,  -5.23893833,  -2.81937838,   -9.7005558
     78,  -4.75985718,  -2.87854695,  -9.57953167
     79,   -4.2807765,  -2.93771553,  -9.45850849
     80,  -3.80169535,  -2.99688411,  -9.33748531
     81,  -3.32261419,  -3.05605268,  -9.21646118
     82,  -2.84353328,  -3.11522126,    -9.095438
     83,  -2.36445212,  -3.17438984,  -8.97441483
     84,  -1.88537109,  -3.23355842,  -8.85339069
     85,  -1.40629005,  -3.29272699,  -8.73236752
     86, -0.927209079,  -3.35189557,  -8.61134434
     87, -0.448128045,  -3.41106415,  -8.49032021
     88, 0.0309529938,  -3.47023273,  -8.36929703
     89,  0.510034025,   -3.5294013,  -8.24827385
     90,  0.989115059,  -3.58856988,  -8.12724972
     91,   1.46819603,  -3.64773846,  -8.00622654
     92,   1.94727707,  -3.70690703,  -7.88520288
     93,   2.42635822,  -3.76607561,  -7.76417971
     94,   2.90543914,  -3.82524419,  -7.64315605
     95,   3.38452029,  -3.88441277,   -7.5221324
     96,   3.86360121,   -3.9435811,  -7.40110922
     97,   4.34268236,  -4.00274992,  -7.28008556
     98,   4.82176352,  -4.06191826,  -7.15906191
     99,   5.30084419,  -4.12108707,  -7.03803873
    100,   5.77992535,  -4.18025541,  -6.91701508
    101,    6.2590065,  -4.23942423,   -6.7959919
    102,   6.77714252,  -4.68419504,  -7.01809311
    103,   6.74368143,  -5.18804264,  -7.13196611
    104,   6.64666986,  -5.67512989,  -6.98607588
    105,   6.51210213,  -6.01494217,  -6.61951303
    106,   6.37603521,  -6.11642694,  -6.13049793
    107,   5.79584742,  -5.89322281,  -5.77108526
    108,   5.31676626,  -5.83405447,  -5.89210844
    109,   4.83768511,  -5.77488565,   -6.0131321
    110,   4.35860443,  -5.71571732,  -6.13415575
    111,   3.87952328,   -5.6565485,  -6.25517893
    112,   3.40044212,  -5.59738016,  -6.37620258
    113,   2.92136121,  -5.53821135,  -6.49722624
    114,   2.44228029,  -5.47904301,  -6.61824942
    115,   1.96319914,  -5.41987419,  -6.73927307
    116,    1.4841181,  -5.36070585,  -6.86029673
    117,   1.00503707,  -5.30153704,   -6.9813199
    118,  0.525956094,   -5.2423687,  -7.10234356
    119, 0.0468750373,  -5.18319988,  -7.22336674
    120, -0.432206005,  -5.12403154,  -7.34439039
    121,  -0.91128701,  -5.06486273,  -7.46541405
    122,   -1.3903681,  -5.00569439,  -7.58643723
    123,  -1.86944914,  -4.94652557,  -7.70746088
    124,  -2.34853005,  -4.88735723,  -7.82848454
    125,  -2.82761121,  -4.82818842,  -7.94950771
    126,  -3.30669212,  -4.76902008,  -8.07053185
    127,  -3.78577328,  -4.70985126,  -8.19155502
    128,  -4.26485443,  -4.65068293,   -8.3125782
    129,  -4.74393511,  -4.59151411,  -8.43360233
    130,  -5.22301626,  -4.53234577,  -8.55462551
    131,  -5.70209742,  -4.47317696,  -8.67564869
    132,  -6.18117857,  -4.41400862,  -8.79667282
    133,   -6.5591526,   -4.5188756,  -9.39813232
    134,  -6.42308569,  -4.41739082,  -9.88714695
    135,  -6.28851795,  -4.07757854,  -10.2537098
    136,  -6.19150639,  -3.59049129,   -10.399601
    137,  -6.15804529,   -3.0866437,  -10.2857275
    138,   6.63698053,  -4.13455725,  -6.19453192
    139,   6.50091362,  -4.23604202,  -5.70551682
    140,   6.36634588,   -4.5758543,  -5.33895397
    141,   6.26933432,  -5.06294155,  -5.19306326
    142,   6.23587322,  -5.56678915,  -5.30693674
    143,  -11.4095936,  -6.30998755,  -7.81401682
    144,  -11.7931843,  -6.01339197,  -7.63280344
    145,  -12.2658768,  -5.80941582,  -7.68670559
    146,  -12.7010117,  -5.75271511,  -7.96128035
    147,  -12.9819975,  -5.85848236,  -8.38295555
    148,  -12.7703638,  -5.63199282,  -9.10521412
    149,  -12.4556665,  -5.18578768,  -9.34944916
    150,  -12.0925779,   -4.7641964,  -9.56902218
    151,  -11.6847076,  -4.37140942,  -9.76174927
    152,  -11.2361078,  -4.01133013,  -9.92571545
    153,  -10.7512369,  -3.68753695,  -10.0592928
    154,  -10.2349148,  -3.40324831,  -10.1611509
    155,  -9.69227123,  -3.16128922,  -10.2302799
    156,  -9.12870121,  -2.96406484,  -10.2659922
    157,  -8.54980469,  -2.81353498,  -10.2679319
    158,  -7.96133518,  -2.71119547,  -10.2360811
    159,  -7.36914158,  -2.65806365,  -10.1707554
    160,  -6.77910852,  -2.65466785,  -10.0726042
    161,   -7.0482645,  -4.32392406,  -9.00436306
    162,  -7.44161987,  -4.32618809,  -9.06979752
    163,  -7.83641624,  -4.36160946,  -9.11334801
    164,  -8.22872925,   -4.4298358,  -9.13458252
    165,  -8.61466026,  -4.53018904,  -9.13328934
    166,  -8.99037361,  -4.66167212,  -9.10948086
    167,  -9.35213566,  -4.82297802,   -9.0633955
    168,   -9.6963501,  -5.01250362,  -8.99548912
    169,  -10.0195971,   -5.2283659,  -8.90643787
    170,  -10.3186646,   -5.4684186,  -8.79712677
    171,  -10.5905781,  -5.73027658,  -8.66864204
    172,  -10.8326368,  -6.01133728,  -8.52226067
    173,  -11.0424347,  -6.30880737,  -8.35943699
    174,  -6.29820728,  -2.53700566,  -9.46216583
    175,   -6.4342742,  -2.63849044,  -8.97315121
    176,  -6.56884193,  -2.97830272,  -8.60658836
    177,   -6.6658535,  -3.46538997,  -8.46069813
    178,  -6.69931459,  -3.96923757,  -8.57457066
    179,  -16.9367886,  -17.1639099,  -2.11016941
    180,  -17.1209431,  -17.3531113,  -2.59228754
    181,  -17.2510071,   -16.834156,  -1.81275749
    182,  -17.7513466,  -16.6892757,    -1.991714
    183,  -17.9320316,  -16.8792171,  -2.47213769
    184,  -17.6167412,  -17.2113457,  -2.77270818
    185,  -17.4348106,  -17.0218353,  -2.29196239
    186,  -17.9557419,  -16.6778355,  -3.22292972
    187,  -17.7590523,  -16.2828465,  -3.45306778
    188,  -17.5623646,  -15.8878565,   -3.6832056
    189,   -17.365675,  -15.4928675,  -3.91334367
    190,  -17.1689873,  -15.0978785,  -4.14348173
    191,  -16.9722977,  -14.7028894,  -4.37361956
    192,    -16.77561,  -14.3079004,  -4.60375738
    193,  -16.5789204,  -13.9129114,  -4.83389521
    194,  -16.3822327,  -13.5179224,  -5.06403351
    195,  -16.1855431,  -13.1229334,  -5.29417133
    196,  -15.9888544,  -12.7279444,  -5.52430916
    197,  -15.7921658,  -12.3329554,  -5.75444698
    198,  -15.5954771,  -11.9379663,  -5.98458529
    199,  -15.3987885,  -11.5429773,  -6.21472311
    200,  -15.2020998,  -11.1479883,  -6.44486094
    201,  -15.0054111,  -10.7529993,  -6.67499876
    202,  -14.8087225,  -10.3580103,  -6.90513706
    203,  -14.6120338,  -9.96302128,  -7.13527489
    204,  -14.4153452,  -9.56803226,  -7.36541271
    205,  -14.2186565,  -9.17304325,  -7.59555054
    206,  -14.0219669,  -8.77805424,  -7.82568884
    207,  -13.8252783,  -8.38306522,  -8.05582619
    208,  -13.6285896,  -7.98807621,  -8.28596497
    209,   -13.431901,   -7.5930872,  -8.51610279
    210,  -13.2352123,  -7.19809818,  -8.74624062
    211,  -13.0385237,  -6.80310917,  -8.97637844
    212,  -17.5721512,  -16.9744301,   -3.4041431
    213,  -17.3754616,  -16.5794411,  -3.63428116
    214,  -17.1787739,  -16.1844521,  -3.86441898
    215,  -16.9820843,   -15.789463,  -4.09455681
    216,  -16.7853966,   -15.394474,  -4.32469511
    217,   -16.588707,   -14.999485,  -4.55483294
    218,  -16.3920193,   -14.604496,  -4.78497076
    219,  -16.1953297,   -14.209507,  -5.01510859
    220,   -15.998641,   -13.814518,  -5.24524689
    221,  -15.8019524,   -13.419529,  -5.47538471
    222,  -15.6052637,  -13.0245399,  -5.70552254
    223,  -15.4085751,  -12.6295509,  -5.93566036
    224,  -15.2118864,  -12.2345619,  -6.16579866
    225,  -15.0151978,  -11.8395729,  -6.39593649
    226,  -14.8185091,  -11.4445839,  -6.62607431
    227,  -14.6218204,  -11.0495949,  -6.85621214
    228,  -14.4251318,  -10.6546059,  -7.08635044
    229,  -14.2284431,  -10.2596169,  -7.31648827
    230,  -14.0317545,  -9.86462784,  -7.54662609
    231,  -13.8350649,  -9.46963882,  -7.77676392
    232,  -13.6383762,  -9.07464981,  -8.00690174
    233,  -13.4416876,   -8.6796608,  -8.23703957
    234,  -13.2449989,  -8.28467178,  -8.46717834
    235,  -13.0483103,  -7.88968277,  -8.69731617
    236,  -12.8516216,  -7.49469376,  -8.92745399
    237,   -12.654933,  -7.09970474,  -9.15759182
    238,  -17.0994587,  -17.1784058,  -3.35024095
    239,   -16.902771,  -16.7834167,  -3.58037901
    240,  -16.7060814,  -16.3884277,  -3.81051683
    241,  -16.5093918,  -15.9934387,  -4.04065466
    242,  -16.3127041,  -15.5984497,  -4.27079296
    243,  -16.1160145,  -15.2034607,  -4.50093079
    244,  -15.9193268,  -14.8084717,  -4.73106861
    245,  -15.7226381,  -14.4134827,  -4.96120644
    246,  -15.5259495,  -14.0184937,  -5.19134474
    247,  -15.3292608,  -13.6235046,  -5.42148256
    248,  -15.1325722,  -13.2285156,  -5.65162039
    249,  -14.9358835,  -12.8335266,  -5.88175821
    250,  -14.7391939,  -12.4385376,  -6.11189651
    251,  -14.5425053,  -12.0435486,  -6.34203434
    252,  -14.3458166,  -11.6485596,  -6.57217216
    253,   -14.149128,  -11.2535706,  -6.80230999
    254,  -13.9524393,  -10.8585815,  -7.03244829
    255,  -13.7557507,  -10.4635925,  -7.26258612
    256,   -13.559062,  -10.0686035,  -7.49272394
    257,  -13.3623734,   -9.6736145,  -7.72286177
    258,  -13.1656847,  -9.27862549,  -7.95300007
    259,   -12.968996,  -8.88363647,  -8.18313789
    260,  -12.7723074,  -8.48864746,  -8.41327572
    261,  -12.5756187,  -8.09365845,  -8.64341354
    262,  -12.3789301,  -7.69866991,  -8.87355137
    263,  -12.1822414,   -7.3036809,  -9.10368919
    264,  -16.6643238,  -17.2351074,  -3.07566643
    265,  -16.4676342,  -16.8401184,  -3.30580425
    266,  -16.2709465,  -16.4451294,  -3.53594232
    267,  -16.0742569,  -16.0501404,  -3.76608014
    268,  -15.8775682,  -15.6551514,   -3.9962182
    269,  -15.6808796,  -15.2601624,  -4.22635603
    270,  -15.4841909,  -14.8651733,  -4.45649385
    271,  -15.2875023,  -14.4701843,  -4.68663216
    272,  -15.0908136,  -14.0751953,  -4.91676998
    273,   -14.894125,  -13.6802063,  -5.14690781
    274,  -14.6974363,  -13.2852173,  -5.37704563
    275,  -14.5007477,  -12.8902283,  -5.60718393
    276,   -14.304059,  -12.4952393,  -5.83732176
    277,  -14.1073704,  -12.1002502,  -6.06745958
    278,  -13.9106817,  -11.7052612,  -6.29759741
    279,  -13.7139931,  -11.3102722,  -6.52773571
    280,  -13.5173044,  -10.9152832,  -6.75787354
    281,  -13.3206158,  -10.5202942,  -6.98801136
    282,  -13.1239262,  -10.1253052,  -7.21814919
    283,  -12.9272375,  -9.73031616,  -7.44828749
    284,  -12.7305489,  -9.33532715,  -7.67842531
    285,  -12.5338602,  -8.94033813,  -7.90856314
    286,  -12.3371716,  -8.54534912,  -8.13870144
    287,  -12.1404829,  -8.15036011,  -8.36883926
    288,  -11.9437943,  -7.75537062,  -8.59897709
    289,  -11.7471056,   -7.3603816,  -8.82911491
    290,  -16.3833389,  -17.1293392,  -2.65399122
    291,  -16.1866493,  -16.7343502,  -2.88412929
    292,  -15.9899607,  -16.3393612,  -3.11426711
    293,   -15.793272,  -15.9443731,  -3.34440517
    294,  -15.5965834,  -15.5493841,    -3.574543
    295,  -15.3998947,  -15.1543951,  -3.80468106
    296,  -15.2032061,  -14.7594061,  -4.03481913
    297,  -15.0065174,  -14.3644171,  -4.26495695
    298,  -14.8098288,  -13.9694281,  -4.49509478
    299,  -14.6131401,   -13.574439,   -4.7252326
    300,  -14.4164515,    -13.17945,   -4.9553709
    301,  -14.2197628,   -12.784461,  -5.18550873
    302,  -14.0230742,   -12.389472,  -5.41564655
    303,  -13.8263855,   -11.994483,  -5.64578438
    304,  -13.6296959,   -11.599494,  -5.87592268
    305,  -13.4330072,   -11.204505,   -6.1060605
    306,  -13.2363186,   -10.809516,  -6.33619833
    307,  -13.0396299,  -10.4145269,  -6.56633615
    308,  -12.8429413,  -10.0195379,  -6.79647446
    309,  -12.6462526,  -9.62454891,  -7.02661228
    310,   -12.449564,   -9.2295599,  -7.25675011
    311,  -12.2528753,  -8.83457088,  -7.48688793
    312,  -12.0561867,  -8.43958187,  -7.71702623
    313,   -11.859498,  -8.04459286,  -7.94716406
    314,  -11.6628094,  -7.64960337,  -8.17730236
    315,  -11.4661207,  -7.25461435,  -8.40744019
    316,  -5.67896414,  -3.14581227,  -10.1647034
    317,  -5.19988298,  -3.20498085,  -10.0436802
    318,  -4.72080231,  -3.26414943,  -9.92265701
    319,  -4.24172115,    -3.323318,  -9.80163288
    320,     -3.76264,  -3.38248658,   -9.6806097
    321,  -3.28355908,  -3.44165516,  -9.55958652
    322,  -2.80447793,  -3.50082374,  -9.43856239
    323,  -2.32539701,  -3.55999231,  -9.31753922
    324,  -1.84631586,  -3.61916089,  -9.19651604
    325,  -1.36723483,  -3.67832947,  -9.07549191
    326, -0.888153851,  -3.73749804,  -8.95446873
    327, -0.409072816,  -3.79666662,  -8.83344555
    328, 0.0700082108,   -3.8558352,  -8.71242142
    329,  0.549089253,  -3.91500378,  -8.59139824
    330,   1.02817023,  -3.97417235,  -8.47037506
    331,   1.50725126,  -4.03334093,  -8.34935093
    332,    1.9863323,  -4.09250927,  -8.22832775
    333,   2.46541333,  -4.15167809,  -8.10730457
    334,   2.94449449,  -4.21084642,  -7.98628092
    335,    3.4235754,  -4.27001524,  -7.86525726
    336,   3.90265656,  -4.32918358,  -7.74423409
    337,   4.38173771,  -4.38835239,  -7.62321043
    338,   4.86081839,  -4.44752073,  -7.50218678
    339,   5.33989954,  -4.50668955,   -7.3811636
    340,   5.81898069,  -4.56585789,  -7.26013994
    341,   6.29806137,   -4.6250267,  -7.13911629
    342,  -5.71242523,  -3.64965987,  -10.2785769
    343,  -5.23334408,  -3.70882845,  -10.1575537
    344,   -4.7542634,  -3.76799703,  -10.0365305
    345,  -4.27518225,   -3.8271656,  -9.91550636
    346,  -3.79610109,  -3.88633418,  -9.79448318
    347,  -3.31702018,  -3.94550276,  -9.67346001
    348,  -2.83793902,   -4.0046711,  -9.55243587
    349,  -2.35885811,  -4.06383991,   -9.4314127
    350,  -1.87977707,  -4.12300825,  -9.31038952
    351,  -1.40069604,  -4.18217707,  -9.18936539
    352, -0.921615005,  -4.24134541,  -9.06834221
    353,  -0.44253394,  -4.30051422,  -8.94731903
    354, 0.0365470834,  -4.35968256,   -8.8262949
    355,  0.515628099,  -4.41885138,  -8.70527172
    356,  0.994709134,  -4.47801971,  -8.58424854
    357,   1.47379017,  -4.53718853,  -8.46322441
    358,    1.9528712,  -4.59635687,  -8.34220123
    359,   2.43195224,  -4.65552568,  -8.22117805
    360,   2.91103315,  -4.71469402,  -8.10015392
    361,   3.39011431,  -4.77386284,  -7.97913074
    362,   3.86919522,  -4.83303118,  -7.85810709
    363,   4.34827614,  -4.89219999,  -7.73708391
    364,   4.82735729,  -4.95136833,  -7.61606026
    365,   5.30643845,  -5.01053715,   -7.4950366
    366,    5.7855196,  -5.06970549,  -7.37401342
    367,   6.26460028,   -5.1288743,  -7.25298977
    368,   -5.8094368,  -4.13674688,  -10.1326866
    369,  -5.33035564,   -4.1959157,  -10.0116634
    370,  -4.85127497,  -4.25508404,  -9.89063931
    371,  -4.37219381,  -4.31425285,  -9.76961613
    372,  -3.89311266,  -4.37342119,  -9.64859295
    373,  -3.41403174,  -4.43259001,  -9.52756882
    374,  -2.93495059,  -4.49175835,  -9.40654564
    375,  -2.45586967,  -4.55092716,  -9.28552246
    376,  -1.97678864,   -4.6100955,  -9.16449833
    377,  -1.49770761,  -4.66926432,  -9.04347515
    378,  -1.01862657,  -4.72843266,  -8.92245197
    379, -0.539545536,  -4.78760147,  -8.80142784
    380,  -0.06046452,  -4.84676981,  -8.68040466
    381,  0.418616503,  -4.90593863,  -8.55938148
    382,  0.897697568,  -4.96510696,  -8.43835831
    383,    1.3767786,  -5.02427578,  -8.31733418
    384,   1.85585964,  -5.08344412,    -8.196311
    385,   2.33494067,  -5.14261293,  -8.07528782
    386,   2.81402159,  -5.20178127,  -7.95426369
    387,   3.29310274,  -5.26095009,  -7.83324051
    388,   3.77218366,  -5.32011843,  -7.71221685
    389,   4.25126457,  -5.37928724,   -7.5911932
    390,   4.73034573,  -5.43845558,  -7.47017002
    391,   5.20942688,   -5.4976244,  -7.34914637
    392,   5.68850803,  -5.55679274,  -7.22812271
    393,   6.16758871,  -5.61596155,  -7.10709953
    394,  -5.94400454,  -4.47655916,  -9.76612377
    395,  -5.46492386,  -4.53572798,  -9.64510059
    396,   -4.9858427,  -4.59489632,  -9.52407646
    397,  -4.50676155,  -4.65406513,  -9.40305328
    398,  -4.02768087,  -4.71323347,  -9.28203011
    399,  -3.54859972,  -4.77240229,  -9.16100597
    400,  -3.06951857,  -4.83157063,   -9.0399828
    401,  -2.59043765,  -4.89073944,  -8.91895962
    402,   -2.1113565,  -4.94990778,  -8.79793549
    403,  -1.63227546,  -5.00907612,  -8.67691231
    404,  -1.15319443,  -5.06824493,  -8.55588913
    405, -0.674113452,  -5.12741327,    -8.434865
    406, -0.195032418,  -5.18658209,  -8.31384182
    407,  0.284048617,  -5.24575043,  -8.19281864
    408,  0.763129652,  -5.30491924,  -8.07179451
    409,   1.24221063,  -5.36408758,  -7.95077133
    410,   1.72129166,   -5.4232564,  -7.82974815
    411,    2.2003727,  -5.48242474,   -7.7087245
    412,   2.67945385,  -5.54159355,  -7.58770084
    413,   3.15853477,  -5.60076189,  -7.46667767
    414,   3.63761592,  -5.65993071,  -7.34565401
    415,   4.11669683,  -5.71909904,  -7.22463036
    416,   4.59577799,  -5.77826786,  -7.10360718
    417,   5.07485914,   -5.8374362,  -6.98258352
    418,   5.55393982,  -5.89660501,  -6.86155987
    419,   6.03302097,  -5.95577335,  -6.74053669
    420,  -6.08007145,  -4.57804394,  -9.27710819
    421,  -5.60099077,  -4.63721275,  -9.15608501
    422,  -5.12190962,  -4.69638109,  -9.03506184
    423,  -4.64282846,  -4.75554943,   -8.9140377
    424,  -4.16374731,  -4.81471825,  -8.79301453
    425,   -3.6846664,  -4.87388659,  -8.67199135
    426,  -3.20558548,   -4.9330554,  -8.55096722
    427,  -2.72650433,  -4.99222374,  -8.42994404
    428,  -2.24742341,  -5.05139256,  -8.30892086
    429,  -1.76834238,  -5.11056089,  -8.18789673
    430,  -1.28926134,  -5.16972971,  -8.06687355
    431, -0.810180247,  -5.22889805,  -7.94585037
    432, -0.331099242,  -5.28806686,  -7.82482672
    433,  0.147981793,   -5.3472352,  -7.70380306
    434,  0.627062798,  -5.40640402,  -7.58277988
    435,   1.10614383,  -5.46557236,  -7.46175623
    436,   1.58522487,  -5.52474117,  -7.34073257
    437,   2.06430602,  -5.58390951,   -7.2197094
    438,   2.54338694,  -5.64307833,  -7.09868574
    439,   3.02246785,  -5.70224667,  -6.97766209
    440,   3.50154901,  -5.76141548,  -6.85663891
    441,   3.98062992,  -5.82058382,  -6.73561525
    442,   4.45971107,  -5.87975264,   -6.6145916
    443,   4.93879223,  -5.93892097,  -6.49356842
    444,   5.41787291,  -5.99808979,  -6.37254477
    445,   5.89695406,  -6.05725813,  -6.25152111
    446,   6.63325882,   -4.6661377,  -6.43969011
    447,    6.6359005,  -5.15575457,  -6.68952179
    448,   6.50400925,  -4.63386059,  -5.91226435
    449,    6.3761282,  -5.08798599,  -5.62806034
    450,   6.37960291,  -5.57410288,  -5.87947702
    451,   6.50954962,  -5.60815048,  -6.41052771
    452,   6.50640821,  -5.12099886,  -6.15992355
    453,  -11.6062822,  -6.70497656,  -7.58387899
    454,  -11.9898729,  -6.40838099,  -7.40266562
    455,  -12.4625654,  -6.20440483,  -7.45656776
    456,  -12.8977013,  -6.14770412,  -7.73114204
    457,  -13.1786861,  -6.25347137,  -8.15281773
    458,  -11.8029709,  -7.09996557,  -7.35374069
    459,  -12.1865625,     -6.80337,  -7.17252731
    460,  -12.6592541,  -6.59939384,  -7.22642946
    461,  -13.0943899,  -6.54269314,  -7.50100422
    462,  -13.3753748,  -6.64846039,  -7.92267942
    463,  -11.9996605,  -7.49495459,  -7.12360287
    464,  -12.3832512,  -7.19835901,  -6.94238949
    465,  -12.8559427,  -6.99438286,  -6.99629164
    466,  -13.2910786,  -6.93768215,  -7.27086639
    467,  -13.5720634,   -7.0434494,   -7.6925416
    468,  -12.1963491,   -7.8899436,  -6.89346504
    469,  -12.5799398,  -7.59334803,  -6.71225166
    470,  -13.0526314,  -7.38937187,  -6.76615381
    471,  -13.4877672,  -7.33267117,  -7.04072857
    472,  -13.7687521,  -7.43843842,   -7.4624033
    473,  -12.3930378,  -8.28493309,  -6.66332722
    474,  -12.7766285,  -7.98833704,  -6.48211384
    475,    -13.24932,  -7.78436089,  -6.53601599
    476,  -13.6844559,  -7.72766018,  -6.81059027
    477,  -13.9654408,  -7.83342743,  -7.23226547
    478,  -12.5897264,   -8.6799221,  -6.43318892
    479,  -12.9733171,  -8.38332558,  -6.25197554
    480,  -13.4460087,   -8.1793499,  -6.30587769
    481,  -13.8811445,  -8.12264919,  -6.58045244
    482,  -14.1621294,  -8.22841644,  -7.00212765
    483,  -12.7864151,  -9.07491112,  -6.20305109
    484,  -13.1700058,  -8.77831459,  -6.02183771
    485,  -13.6426973,  -8.57433891,  -6.07573986
    486,  -14.0778332,  -8.51763821,  -6.35031462
    487,  -14.3588181,  -8.62340546,  -6.77198982
    488,  -12.9831038,  -9.46990013,  -5.97291327
    489,  -13.3666945,   -9.1733036,  -5.79169989
    490,   -13.839386,  -8.96932793,  -5.84560204
    491,  -14.2745218,  -8.91262722,  -6.12017679
    492,  -14.5555067,  -9.01839447,  -6.54185152
    493,  -13.1797924,  -9.86488914,  -5.74277544
    494,  -13.5633831,  -9.56829262,  -5.56156206
    495,  -14.0360746,  -9.36431694,  -5.61546421
    496,  -14.4712105,  -9.30761623,  -5.89003849
    497,  -14.7521954,  -9.41338348,   -6.3117137
    498,  -13.3764811,  -10.2598782,  -5.51263714
    499,  -13.7600718,  -9.96328163,  -5.33142376
    500,  -14.2327633,  -9.75930595,  -5.38532591
    501,  -14.6678991,  -9.70260525,  -5.65990067
    502,   -14.948884,   -9.8083725,  -6.08157587
    503,  -13.5731697,  -10.6548672,  -5.28249931
    504,  -13.9567604,  -10.3582706,  -5.10128593
    505,  -14.4294519,   -10.154295,  -5.15518808
    506,  -14.8645878,  -10.0975943,  -5.42976284
    507,  -15.1455727,  -10.2033615,  -5.85143805
    508,  -13.7698584,  -11.0498562,  -5.05236149
    509,  -14.1534491,  -10.7532597,  -4.87114811
    510,  -14.6261406,   -10.549284,  -4.92505026
    511,  -15.0612764,  -10.4925833,  -5.19962502
    512,  -15.3422613,  -10.5983505,  -5.62129974
    513,   -13.966547,  -11.4448452,  -4.82222366
    514,  -14.3501377,  -11.1482487,  -4.64101028
    515,  -14.8228292,   -10.944273,  -4.69491243
    516,  -15.2579651,  -10.8875723,  -4.96948671
    517,    -15.53895,  -10.9933395,  -5.39116192
    518,  -14.1632357,  -11.8398342,  -4.59208536
    519,  -14.5468264,  -11.5432377,  -4.41087198
    520,  -15.0195179,   -11.339262,  -4.46477413
    521,  -15.4546537,  -11.2825613,  -4.73934889
    522,  -15.7356386,  -11.3883286,  -5.16102409
    523,  -14.3599243,  -12.2348232,  -4.36194754
    524,   -14.743515,  -11.9382267,  -4.18073416
    525,  -15.2162075,   -11.734251,  -4.23463631
    526,  -15.6513424,  -11.6775503,  -4.50921106
    527,  -15.9323273,  -11.7833176,  -4.93088627
    528,   -14.556613,  -12.6298122,  -4.13180971
    529,  -14.9402037,  -12.3332157,  -3.95059633
    530,  -15.4128962,    -12.12924,  -4.00449848
    531,   -15.848031,  -12.0725393,  -4.27907324
    532,  -16.1290169,  -12.1783066,  -4.70074797
    533,  -14.7533016,  -13.0248013,  -3.90167165
    534,  -15.1368923,  -12.7282047,  -3.72045827
    535,  -15.6095848,   -12.524229,  -3.77436042
    536,  -16.0447197,  -12.4675283,  -4.04893494
    537,  -16.3257046,  -12.5732956,  -4.47061014
    538,  -14.9499903,  -13.4197903,  -3.67153382
    539,   -15.333581,  -13.1231937,  -3.49032044
    540,  -15.8062735,  -12.9192181,  -3.54422259
    541,  -16.2414093,  -12.8625174,  -3.81879711
    542,  -16.5223942,  -12.9682846,  -4.24047232
    543,  -15.1466789,  -13.8147793,  -3.44139576
    544,  -15.5302696,  -13.5181828,  -3.26018238
    545,  -16.0029621,  -13.3142071,  -3.31408453
    546,   -16.438097,  -13.2575064,  -3.58865929
    547,  -16.7190819,  -13.3632736,  -4.01033449
    548,  -15.3433676,  -14.2097683,  -3.21125793
    549,  -15.7269583,  -13.9131718,  -3.03004456
    550,  -16.1996498,  -13.7091961,   -3.0839467
    551,  -16.6347866,  -13.6524954,  -3.35852122
    552,  -16.9157715,  -13.7582626,  -3.78019643
    553,  -15.5400562,  -14.6047573,  -2.98111987
    554,  -15.9236469,  -14.3081608,  -2.79990649
    555,  -16.3963394,  -14.1041851,  -2.85380864
    556,  -16.8314743,  -14.0474844,   -3.1283834
    557,  -17.1124592,  -14.1532516,  -3.55005836
    558,  -15.7367449,  -14.9997463,  -2.75098205
    559,  -16.1203365,  -14.7031498,  -2.56976867
    560,  -16.5930271,  -14.4991741,  -2.62367082
    561,  -17.0281639,  -14.4424734,  -2.89824533
    562,  -17.3091488,  -14.5482407,  -3.31992054
    563,  -15.9334335,  -15.3947353,  -2.52084398
    564,  -16.3170242,  -15.0981388,   -2.3396306
    565,  -16.7897167,  -14.8941631,  -2.39353275
    566,  -17.2248516,  -14.8374624,  -2.66810751
    567,  -17.5058365,  -14.9432297,  -3.08978248
    568,  -16.1301231,  -15.7897243,  -2.29070616
    569,  -16.5137138,  -15.4931278,  -2.10949278
    570,  -16.9864044,  -15.2891521,  -2.16339493
    571,  -17.4215412,  -15.2324514,  -2.43796945
    572,  -17.7025261,  -15.3382187,  -2.85964465
    573,  -16.3268108,  -16.1847134,  -2.06056809
    574,  -16.7104015,  -15.8881168,  -1.87935472
    575,   -17.183094,  -15.6841412,  -1.93325686
    576,  -17.6182289,  -15.6274405,  -2.20783162
    577,  -17.8992138,  -15.7332077,  -2.62950659
    578,  -16.5235004,  -16.5797024,  -1.83043027
    579,  -16.9070911,  -16.2831059,  -1.64921677
    580,  -17.3797836,  -16.0791302,  -1.70311892
    581,  -17.8149185,  -16.0224304,  -1.97769356
    582,  -18.0959034,  -16.1281967,  -2.39936876
    583,  -12.5836515,  -5.95944548,  -9.46800804
    584,   -12.275238,  -5.52872562,  -9.70844746
    585,  -11.9193916,  -5.12044859,  -9.92512798
    586,  -11.5194921,  -4.73890924,  -10.1155968
    587,  -11.0794783,  -4.38814783,  -10.2776899
    588,  -10.6037846,   -4.0718832,  -10.4095783
    589,  -10.0972958,  -3.79345894,  -10.5097942
    590,  -9.56526279,  -3.55579448,  -10.5772648
    591,  -9.01323986,    -3.361341,  -10.6113186
    592,  -8.44699574,  -3.21204758,  -10.6117039
    593,  -7.87243414,  -3.10933256,   -10.578578
    594,  -7.29550266,  -3.05407023,  -10.5125093
    595,   -6.7221117,  -3.04658246,  -10.4144535
    596,  -12.2121696,  -6.28487301,  -9.63100529
    597,  -11.9198608,   -5.8825202,  -9.85421658
    598,  -11.5840912,  -5.50165129,  -10.0550499
    599,  -11.2080975,  -5.14605188,   -10.231432
    600,   -10.795537,  -4.81925583,  -10.3815498
    601,  -10.3504496,    -4.524508,  -10.5038738
    602,  -9.87720776,  -4.26472807,  -10.5971642
    603,  -9.38047504,  -4.04248428,  -10.6604919
    604,  -8.86515331,  -3.85996175,   -10.693243
    605,  -8.33633804,  -3.71894479,  -10.6951256
    606,  -7.79925156,  -3.62079382,  -10.6661758
    607,  -7.25920486,  -3.56643033,  -10.6067581
    608,  -6.72152662,  -3.55632496,  -10.5175629
    609,  -11.7662373,  -6.52003813,  -9.55588627
    610,  -11.5039902,  -6.14820051,  -9.75941658
    611,   -11.201416,  -5.79687452,   -9.9423933
    612,  -10.8615236,  -5.46955204,  -10.1029987
    613,  -10.4876909,  -5.16948557,  -10.2396383
    614,  -10.0836315,   -4.8996582,  -10.3509521
    615,  -9.65336323,   -4.6627512,  -10.4358339
    616,  -9.20116043,   -4.4611187,  -10.4934416
    617,  -8.73151875,  -4.29676485,  -10.5232019
    618,   -8.2491045,   -4.1713233,  -10.5248184
    619,  -7.75871372,   -4.0860405,  -10.4982758
    620,  -7.26521873,  -4.04176378,  -10.4438372
    621,  -6.77352476,  -4.03893375,  -10.3620443
    622,  -11.3567181,  -6.61241817,  -9.26681709
    623,  -11.1235123,  -6.27511454,  -9.45667553
    624,  -10.8532639,  -5.95676565,  -9.62693501
    625,  -10.5487728,  -5.66048002,  -9.77589989
    626,    -10.21315,  -5.38915968,  -9.90208721
    627,  -9.84980202,  -5.14547873,  -10.0042381
    628,  -9.46239376,  -4.93185282,  -10.0813332
    629,  -9.05481911,   -4.7504158,  -10.1326017
    630,   -8.6311636,  -4.60299921,   -10.157526
    631,  -8.19566441,  -4.49111509,  -10.1558485
    632,  -7.75267315,  -4.41594267,  -10.1275778
    633,  -7.30661106,  -4.37832355,   -10.072979
    634,   -6.8619318,  -4.37875557,   -9.9925766
    635,  -11.0876074,  -6.53643084,  -8.82832336
    636,  -10.8702774,  -6.22845221,  -9.00235081
    637,  -10.6198978,  -5.93840742,  -9.15807533
    638,  -10.3391275,  -5.66882563,   -9.2940979
    639,  -10.0308094,  -5.42205095,  -9.40920258
    640,  -9.69795513,  -5.20024252,  -9.50235748
    641,  -9.34373569,  -5.00537205,   -9.5727253
    642,   -8.9714632,  -4.83921576,  -9.61966228
    643,  -8.58458042,  -4.70335436,  -9.64272118
    644,  -8.18664837,  -4.59916115,  -9.64165306
    645,  -7.78133488,   -4.5277977,  -9.61641026
    646,  -7.37240314,    -4.490201,  -9.56714153
    647,  -6.96370125,  -4.48707581,  -9.49419785
    648,   5.75679207,  -5.50762033,   -5.4279604
    649,   5.79025316,  -5.00377274,  -5.31408691
    650,   5.88726473,  -4.51668549,  -5.45997715
    651,   6.02183294,  -4.17687321,  -5.82653999
    652,   6.15789938,  -4.07538843,  -6.31555557
    653,   5.27771091,    -5.448452,  -5.54898357
    654,   5.31117249,   -4.9446044,  -5.43511057
    655,   5.40818405,  -4.45751715,   -5.5810008
    656,   5.54275179,  -4.11770487,  -5.94756365
    657,    5.6788187,  -4.01622009,  -6.43657875
    658,   4.79863024,  -5.38928318,  -5.67000723
    659,   4.83209133,  -4.88543558,  -5.55613375
    660,    4.9291029,  -4.39834833,  -5.70202446
    661,   5.06367064,  -4.05853605,   -6.0685873
    662,   5.19973755,  -3.95705152,  -6.55760241
    663,   4.31954908,  -5.33011484,  -5.79103088
    664,   4.35301018,  -4.82626724,   -5.6771574
    665,   4.45002174,  -4.33917999,  -5.82304764
    666,   4.58458948,  -3.99936771,  -6.18961048
    667,   4.72065639,  -3.89788294,  -6.67862606
    668,   3.84046793,  -5.27094603,  -5.91205406
    669,   3.87392926,  -4.76709843,  -5.79818106
    670,   3.97094083,  -4.28001118,  -5.94407129
    671,    4.1055088,  -3.94019914,  -6.31063414
    672,   4.24157572,  -3.83871436,  -6.79964924
    673,   3.36138701,  -5.21177769,  -6.03307772
    674,   3.39484811,  -4.70793009,  -5.91920424
    675,   3.49185967,  -4.22084284,  -6.06509495
    676,   3.62642765,  -3.88103056,  -6.43165779
    677,   3.76249456,  -3.77954578,  -6.92067289
    678,    2.8823061,  -5.15260887,  -6.15410137
    679,   2.91576719,  -4.64876127,  -6.04022789
    680,   3.01277876,  -4.16167402,  -6.18611813
    681,    3.1473465,  -3.82186198,  -6.55268097
    682,   3.28341341,  -3.72037721,  -7.04169655
    683,   2.40322495,  -5.09344053,  -6.27512455
    684,   2.43668604,  -4.58959293,  -6.16125154
    685,   2.53369761,  -4.10250568,  -6.30714178
    686,   2.66826558,  -3.76269341,  -6.67370462
    687,   2.80433249,  -3.66120863,  -7.16271973
    688,   1.92414391,  -5.03427172,   -6.3961482
    689,     1.957605,  -4.53042412,  -6.28227472
    690,   2.05461669,  -4.04333687,  -6.42816544
    691,   2.18918467,  -3.70352483,  -6.79472828
    692,   2.32525134,  -3.60204005,  -7.28374338
    693,   1.44506288,  -4.97510338,  -6.51717186
    694,   1.47852409,  -4.47125578,  -6.40329838
    695,   1.57553566,  -3.98416853,  -6.54918861
    696,   1.71010351,  -3.64435625,  -6.91575146
    697,   1.84617031,  -3.54287148,  -7.40476704
    698,  0.965981901,  -4.91593456,  -6.63819504
    699,  0.999442995,  -4.41208696,  -6.52432203
    700,   1.09645462,  -3.92499995,  -6.67021227
    701,   1.23102248,  -3.58518767,  -7.03677511
    702,   1.36708927,   -3.4837029,  -7.52579021
    703,  0.486900836,  -4.85676622,  -6.75921869
    704,   0.52036196,  -4.35291862,  -6.64534521
    705,  0.617373586,  -3.86583138,  -6.79123592
    706,  0.751941442,   -3.5260191,  -7.15779877
    707,  0.888008296,  -3.42453432,  -7.64681387
    708, 0.00781981554,  -4.79759741,  -6.88024235
    709, 0.0412809476,  -4.29374981,  -6.76636887
    710,  0.138292551,   -3.8066628,   -6.9122591
    711,  0.272860438,  -3.46685052,  -7.27882195
    712,  0.408927262,  -3.36536574,  -7.76783752
    713, -0.471261203,  -4.73842907,  -7.00126553
    714,  -0.43780008,  -4.23458147,  -6.88739252
    715, -0.340788484,  -3.74749422,  -7.03328276
    716, -0.206220582,  -3.40768194,   -7.3998456
    717, -0.0701537654,  -3.30619717,   -7.8888607
    718, -0.950342238,  -4.67926025,  -7.12228918
    719, -0.916881084,  -4.17541265,   -7.0084157
    720, -0.819869518,  -3.68832564,  -7.15430641
    721, -0.685301602,  -3.34851336,  -7.52086926
    722, -0.549234807,  -3.24702859,  -8.00988388
    723,  -1.42942321,  -4.62009192,  -7.24331284
    724,  -1.39596212,  -4.11624432,  -7.12943935
    725,  -1.29895055,  -3.62915707,  -7.27532959
    726,   -1.1643827,  -3.28934479,  -7.64189243
    727,  -1.02831578,  -3.18786001,  -8.13090801
    728,  -1.90850425,   -4.5609231,  -7.36433601
    729,  -1.87504315,   -4.0570755,  -7.25046301
    730,  -1.77803159,  -3.56998849,  -7.39635324
    731,  -1.64346373,  -3.23017621,  -7.76291609
    732,  -1.50739682,  -3.12869143,  -8.25193119
    733,   -2.3875854,  -4.50175476,  -7.48535967
    734,  -2.35412431,  -3.99790692,  -7.37148619
    735,   -2.2571125,  -3.51081991,   -7.5173769
    736,  -2.12254477,  -3.17100763,  -7.88393974
    737,  -1.98647785,  -3.06952286,  -8.37295437
    738,  -2.86666632,  -4.44258595,  -7.60638332
    739,  -2.83320522,  -3.93873835,  -7.49250984
    740,  -2.73619366,  -3.45165133,  -7.63840008
    741,  -2.60162568,  -3.11183906,  -8.00496292
    742,  -2.46555901,  -3.01035428,   -8.4939785
    743,  -3.34574747,  -4.38341761,   -7.7274065
    744,  -3.31228614,  -3.87957001,   -7.6135335
    745,  -3.21527457,  -3.39248276,  -7.75942373
    746,  -3.08070683,  -3.05267048,   -8.1259861
    747,  -2.94463992,   -2.9511857,  -8.61500168
    748,  -3.82482839,  -4.32424879,  -7.84843016
    749,  -3.79136729,  -3.82040143,  -7.73455667
    750,  -3.69435573,  -3.33331418,  -7.88044691
    751,  -3.55978775,   -2.9935019,  -8.24701023
    752,  -3.42372108,  -2.89201713,  -8.73602486
    753,   -4.3039093,  -4.26508045,  -7.96945381
    754,  -4.27044821,  -3.76123285,  -7.85558033
    755,  -4.17343664,   -3.2741456,  -8.00147057
    756,   -4.0388689,  -2.93433332,  -8.36803341
    757,  -3.90280199,  -2.83284855,  -8.85704899
    758,  -4.78299046,  -4.20591164,  -8.09047699
    759,  -4.74952936,  -3.70206428,  -7.97660351
    760,   -4.6525178,  -3.21497703,  -8.12249374
    761,  -4.51795006,  -2.87516475,  -8.48905659
    762,  -4.38188314,  -2.77367997,  -8.97807217
    763,  -5.26207161,   -4.1467433,  -8.21150017
    764,  -5.22861052,   -3.6428957,  -8.09762764
    765,  -5.13159895,  -3.15580845,  -8.24351788
    766,  -4.99703074,  -2.81599617,  -8.61008072
    767,  -4.86096382,  -2.71451139,  -9.09909534
    768,  -5.74115276,  -4.08757448,   -8.3325243
    769,  -5.70769119,  -3.58372712,  -8.21865082
    770,  -5.61067963,  -3.09663987,  -8.36454105
    771,  -5.47611189,  -2.75682759,   -8.7311039
    772,  -5.34004498,  -2.65534282,  -9.22011948
    773,  -6.22023344,  -4.02840614,  -8.45354748
    774,  -6.18677235,  -3.52455854,    -8.339674
    775,  -6.08976078,  -3.03747129,  -8.48556423
    776,  -5.95519304,  -2.69765902,  -8.85212708
    777,  -5.81912613,  -2.59617424,  -9.34114265
    778,  -7.10524654,  -3.93201208,  -8.66250706
    779,  -7.10584354,   -3.4222672,  -8.55940247
    780,  -7.05384874,  -2.93965793,   -8.7149229
    781,  -6.96543837,  -2.59983802,  -9.08439064
    782,  -6.86365652,  -2.49152088,  -9.58276558
    783,  -7.51521206,  -3.93018389,   -8.7280283
    784,  -7.55154657,  -3.41782093,  -8.63379002
    785,  -7.54554272,  -2.94248796,  -8.79671574
    786,  -7.50413942,  -2.60593104,  -9.16757393
    787,  -7.43831015,  -2.49405813,  -9.67340469
    788,  -7.92524338,  -3.96346736,  -8.77083397
    789,  -7.99848413,  -3.45200849,  -8.68324757
    790,   -8.0390377,  -2.98676467,  -8.85115337
    791,  -8.04506111,  -2.65686393,   -9.2218523
    792,  -8.01634121,  -2.54500937,   -9.7330122
    793,  -8.33145523,  -4.03130913,  -8.79080009
    794,  -8.44217873,  -3.52442145,  -8.70738411
    795,  -8.52942848,  -3.07204747,  -8.87769604
    796,  -8.58285046,   -2.7522552,  -9.24666691
    797,  -8.59180069,  -2.64420104,  -9.76085854
    798,  -8.73005199,  -4.13289356,   -8.7879591
    799,  -8.87819195,  -3.63428736,  -8.70603657
    800,  -9.01184273,  -3.19748902,  -8.87607956
    801,  -9.11218262,  -2.89125204,  -9.24175739
    802,  -9.15871048,  -2.79088378,  -9.75656319
    803,  -9.11734295,  -4.26715231,  -8.76249886
    804,  -9.30216217,  -3.78047395,  -8.67926979
    805,  -9.48148441,  -3.36184311,   -8.8463192
    806,  -9.62781811,  -3.07254291,  -9.20716095
    807,  -9.71114349,  -2.98373175,  -9.72010326
    808,  -9.48975372,  -4.43276739,   -8.7147522
    809,  -9.70984173,  -3.96149802,  -8.62738228
    810,  -9.93368721,  -3.56347513,   -8.7887125
    811,  -10.1246567,  -3.29437351,  -9.14321327
    812,  -10.2433138,  -3.22085428,  -9.65182114
    813,  -9.84383583,  -4.62817907,  -8.64519405
    814,  -10.0971451,  -4.17553711,  -8.55090618
    815,  -10.3639555,  -3.80038238,  -8.70382977
    816,  -10.5977917,  -3.55456686,  -9.05054188
    817,  -10.7496662,  -3.49982023,   -9.5524168
    818,   -10.176281,  -4.85159016,  -8.55444145
    819,  -10.4601793,  -4.42044783,  -8.45059776
    820,  -10.7680149,  -4.07020998,  -8.59251595
    821,  -11.0425663,  -3.85054636,   -8.9300642
    822,  -11.2249489,  -3.81769061,  -9.42293358
    823,  -10.4839344,  -5.10097313,  -8.44324589
    824,  -10.7952862,  -4.69378662,  -8.32743549
    825,  -11.1418476,  -4.37027597,   -8.4558773
    826,  -11.4546099,   -4.1793623,  -8.78297234
    827,  -11.6642981,  -4.17106342,  -9.26475334
    828,  -10.7638073,   -5.3740778,      -8.3125
    829,  -11.0990753,  -4.99283171,  -8.18260479
    830,    -11.48174,  -4.69759846,  -8.29527092
    831,  -11.8299007,  -4.53772116,   -8.6107254
    832,  -12.0632982,  -4.55612469,  -9.07956314
    833,  -11.0130863,  -5.66843462,  -8.16323662
    834,  -11.3684483,  -5.31461191,  -8.01748657
    835,  -11.7843142,  -5.04892445,   -8.1122942
    836,  -12.1647949,  -4.92202044,  -8.41503239
    837,   -12.418046,  -4.96871376,   -8.8693409
    838,  -11.2291527,  -5.98136711,  -7.99663305
    839,  -11.6006298,  -5.65592957,  -7.83364296
    840,  -12.0465612,  -5.42076206,  -7.90876436
    841,  -12.4560814,  -5.32838583,  -8.19783401
    842,  -12.7251959,  -5.40438414,  -8.63632107
    843,  -10.9936361,  -4.39642286,  -9.62744141
    844,  -10.3627052,  -4.35934925,  -10.0400238
    845,  -10.3738508,  -3.90222144,  -9.81771278
    846,   -10.435461,  -4.33111334,  -9.58098412
    847,    3.6815958,  -4.46310377,  -6.43616962
    848,   3.97813129,  -4.26917124,  -6.76678562
    849,  -9.94153786,  -4.25552416,  -9.45052719
    850,  -10.1263514,  -3.74799776,  -9.33864307
    851,  -10.3772612,  -4.13658571,  -9.08961296
    852,  -10.4535694,  -4.69758558,  -9.38119316
    853,  -10.0735712,  -4.62485123,  -9.05657005
    854,  -10.7979918,  -4.03466415,  -9.39614487
    855,  -10.7038269,  -4.27534866,  -9.00790882
    856,  -13.4302444,  -10.1661224,  -6.10813618
    857,  -13.7261419,  -10.0952749,  -5.88490343
    858,  -13.7547607,  -10.6847229,   -5.8394022
    859, -0.127503976,  -4.33985901,  -7.83738089
    860,  0.200742528,  -4.77090263,  -8.19087124
    861, -0.226819068,  -4.84202957,  -7.87921095
    862, -0.0289304033,   -4.3927598,  -8.39801788
    863,  0.386123717,  -4.48407078,  -8.13251591
    864, -0.766009152,  -4.77453995,  -7.76049995
    865, -0.477156401,   -4.4756465,  -7.32918596
    866, -0.528102875,  -4.20667839,  -7.98473692
    867,  -14.0475569,  -9.86550713,  -5.77069998
    868, -0.394104213,  -3.89273429,  -7.43715429
    869,  0.321142137,  -4.47533131,  -7.65135193
    870, -0.0388854668,  -4.79288769,  -7.42264032
    871,  -17.1750393,  -15.6362524,  -3.23496008
    872,  -17.4699726,  -15.8728743,  -3.12628508
    873,  -17.3132381,  -15.3637609,  -3.12113237
    874,  0.274558932,  -3.95480061,   -8.0661087
    875, -0.305737108,   -3.7219739,  -7.96045065
    876,  0.190641075,  -3.74672771,  -7.85059643
    877,  -11.1019945,  -4.98070669,  -9.83375549
    878,  -14.5173473,  -10.1941833,  -5.69857979
    879,  -14.1165638,  -10.2702255,  -6.16291618
    880,  -14.0138197,    -10.20508,  -5.59558582
    881,   2.88368559,  -4.08073139,  -7.03364658
    882,  -9.84140491,     -4.75737,  -9.72311401
    883,  -9.64799881,  -4.60923767,  -9.24802208
    884,  -10.0569267,  -4.93399954,   -9.2435751
    885,  -10.3419638,  -4.53321886,  -8.86195469
    886,   -10.526062,  -5.10672998,  -9.06044483
    887,   4.31062984,  -4.40577316,  -7.03528738
    888,    3.8999548,  -4.45935154,  -7.27834749
    889,  -9.90767193,  -4.04863548,  -8.97526836
    890,   2.26728988,  -4.69496965,  -6.61142397
    891,     1.940781,   -4.2851634,  -6.86264563
    892,   1.90322983,  -4.73682356,  -6.76559019
    893,   2.73917818,  -4.71935463,   -6.4428339
    894,   2.41832781,  -5.04532528,  -6.90136003
    895,   2.58901191,  -4.56480265,  -7.03321075
    896,  -14.1009359,  -9.32372665,  -6.94210482
    897,  -14.1357603,  -8.99364662,  -6.82889462
    898,  -13.8821335,  -9.13637829,  -7.26651144
    899,  -9.16095066,  -3.67285085,  -10.2621355
    900,  -8.83080578,  -3.30481601,  -10.0564814
    901,  -8.41609383,  -3.44130349,  -10.2164907
    902,  -9.37970734,  -3.42580438,  -9.94188976
    903,  -9.57440662,  -4.10695887,  -9.94664097
    904,   -9.8133173,  -3.89742851,  -10.1628714
    905,  -4.01160431,  -4.18435907,  -8.28556442
    906,  -8.91084576,  -3.81207228,   -9.7147007
    907,   -8.9681139,  -4.14797592,  -10.1906347
    908, -0.842473388,  -4.09486866,  -7.42691946
    909,  -1.08637881,  -3.82952547,  -7.93991661
    910, -0.744354963,  -3.63256931,  -8.10409927
    911,  -14.4531431,  -9.71692562,  -6.38552856
    912,   3.47218323,   -4.4108429,  -7.45598412
    913,  -1.14465785,  -3.74698234,  -8.37501335
    914, -0.370979697,  -3.95539594,  -8.42803955
    915,  -15.7093315,  -13.9967871,  -4.13129425
    916,  -15.5494919,  -14.0826082,   -3.6101048
    917,  -16.0083866,  -13.6819191,  -3.65461612
    918,  -16.1561508,  -14.4116344,  -3.97256398
    919,  -15.3353224,  -13.7405691,  -3.83397603
    920,  -15.8610134,  -13.5927687,   -4.3564415
    921,  -15.2812471,   -13.868331,  -4.22226477
    922,  -14.5694399,  -12.5869226,   -5.1336813
    923,  -15.8348322,   -13.901474,  -4.73841619
    924,  -16.2148991,  -14.0358324,  -4.40483904
    925,  -16.0463009,  -14.5423346,  -4.42555094
    926,  -15.3533993,  -13.9723406,  -4.56680298
    927,   5.45016909,  -4.89599657,  -6.32226562
    928,    4.9734149,  -4.71584082,  -5.97710514
    929,   5.22722101,  -5.19495678,  -5.90731478
    930,   5.60666847,  -4.75146961,  -5.88348389
    931,   4.88638735,  -4.84572124,  -6.59017372
    932,   5.30050611,  -5.12689447,  -6.76230574
    933,   4.97916555,  -5.29263639,  -6.31054592
    934,  -17.1944466,  -17.0778923,  -2.99906206
    935,   5.80384445,  -4.99213839,  -6.45632935
    936,   5.94683075,  -4.46663046,   -6.3926034
    937,   5.23929262,  -4.47097445,  -6.16285706
    938,  -12.5850248,  -8.48449993,  -7.16993046
    939,   5.50761461,   -4.5924592,  -6.67816544
    940,  -14.9914045,  -12.7427235,  -5.45811796
    941,  -14.9336863,  -12.0643501,  -5.16518211
    942,   -14.919137,  -12.3665838,  -5.70798111
    943,  -15.4093952,  -12.4081278,  -5.53553391
    944,   3.24137092,  -4.88994932,  -6.37963772
    945,   3.29583097,  -4.71992111,   -6.9681654
    946,   3.69650626,  -5.07104397,   -6.3353076
    947,   2.81457949,   -5.1595192,  -6.72007799
    948,   3.33079147,  -5.20515394,  -6.57551193
    949,  -17.4578724,  -16.0175953,  -2.48256373
    950,   -16.967144,  -16.3729362,  -2.84968209
    951,  -17.0323086,   -15.775176,  -2.54846811
    952,  -16.9480476,  -16.4241791,  -2.41070127
    953,  -17.6917667,  -16.1925735,  -2.76812553
    954,   -17.400753,  -16.7099113,  -2.69829702
    955,  -17.0067863,   -16.848156,  -2.33687544
    956,  -16.4985771,  -16.3100128,  -3.19422007
    957,  -16.4038925,  -16.1706963,  -2.67404914
    958,  -16.6304073,  -16.7467384,  -2.88820052
    959,  -16.9464073,  -16.4251213,  -3.32615972
    960,  -15.7230339,  -12.9063997,   -5.2256093
    961,  -13.8534889,  -9.90731335,  -6.98174524
    962,  -13.9298801,  -9.74117374,  -6.27986717
    963,   -13.961236,  -10.1223841,  -6.54936218
    964,  -13.4166689,  -10.0835714,  -6.89308214
    965,  -13.3165503,  -9.80334187,  -6.45477152
    966,  -13.5023403,   -9.5634594,  -7.25921583
    967,  -14.5167475,  -10.4773197,  -6.47315741
    968,  -14.2144585,  -10.6440115,  -6.70946598
    969,  -13.5801077,  -10.5321875,    -6.422575
    970,  -14.3498144,  -10.1181965,  -6.81546593
    971,  -9.48556995,  -4.36623287,   -10.185463
    972,  -9.26789379,  -4.05315161,  -9.49847603
    973,  -9.86668873,  -3.54811668,  -9.65134716
    974,  -9.05800819,  -3.89313841,  -9.06749439
    975,  -9.31445312,  -3.67683864,  -9.23410034
    976,  -9.51132488,  -4.05918884,  -9.04617786
    977,  -6.64635372,  -4.09736681,  -9.52456379
    978,  -13.9022284,  -8.93171406,  -6.49196005
    979,  -13.6736021,  -9.31193829,  -6.72431564
    980,  -13.7379122,  -8.91413307,  -7.29975986
    981,  -9.03866386,  -4.39818287,  -9.87367821
    982,   -8.5835247,  -4.27994728,  -9.56768036
    983,  -9.21682644,  -3.29206347,  -9.66113186
    984,  -8.46036148,  -3.13779187,  -9.40108013
    985,  -7.96623468,  -3.02306032,  -9.82493401
    986,  -8.08742046,   -3.4006207,  -9.14182663
    987,  -3.93327498,  -3.50234818,  -8.35021114
    988,  -4.20644093,  -3.88092375,  -8.48920631
    989,  -4.18899059,  -3.75519347,  -9.08249569
    990,  -3.54446101,  -3.75751352,  -8.50395489
    991,  -4.31546259,  -3.27221704,  -8.59820175
    992,  -4.37896442,  -3.67622757,  -8.28783798
    993,  -4.84762859,  -3.65933466,  -8.90832043
    994,  -4.49004221,  -4.27320337,  -8.64852715
    995,  -4.82899809,  -3.94446683,  -8.44111538
    996,    3.9820714,  -4.82461452,  -7.07016516
    997,   3.60776687,  -5.10124636,  -7.40227032
    998,   -3.7608912,  -3.99525428,   -8.8241291
    999,  -13.5816326,  -9.57005692,  -6.02017975
   1000,  -3.51367927,  -4.19947958,  -8.15853691
   1001,  -2.85241246,  -4.00207472,  -8.50577164
   1002,  -3.06152606,   -4.2771244,  -8.05275345
   1003,  -3.51229167,  -4.41796541,  -8.47153378
   1004,  -4.06301212,  -3.25183582,  -8.97497749
   1005,  -3.51863122,  -3.30633092,  -8.53712463
   1006,  -3.01204348,  -3.69680285,  -8.02960014
   1007,  -3.06013203,  -3.43524718,  -8.69152832
   1008,  -3.36420369,  -3.44741082,  -8.21263599
   1009,  -2.73918629,   -3.4519906,  -8.27781105
   1010,  -2.35320497,  -3.45332718,     -8.44312
   1011,  -2.33752751,  -4.04279232,  -8.45833778
   1012,  -2.27335429,  -4.54706335,  -8.33718967
   1013,  -2.46863008,   -4.4869318,  -8.02705193
   1014,  -2.86505985,  -4.56819868,  -8.43376827
   1015,  -3.07070136,  -4.47869205,  -8.86998463
   1016,  -2.35616779,  -4.51503372,  -8.77340221
   1017,  -2.62329316,  -4.08174706,  -9.08081722
   1018,  -3.97423458,  -4.40992022,  -8.58570671
   1019,  -3.28763127,  -4.17804813,  -9.18456173
   1020,  -6.87684917,   -3.5506978,   -9.5331583
   1021,  -6.69245958,  -3.49117112,  -10.0519876
   1022,  -6.22223091,   -3.5589087,  -9.56940556
   1023,  -6.35291338,  -3.87045956,   -9.9208231
   1024,  -7.40778065,  -4.11029768,  -9.65656662
   1025,  -7.00127172,   -3.8007009,  -10.0327663
   1026,  -6.41450071,  -3.13191056,  -9.70656013
   1027,  -14.1385984,  -9.35978794,  -6.22089148
   1028,   -12.443656,  -6.80016899,  -8.88128757
   1029,   -11.996994,  -7.19814587,  -8.45569229
   1030,  -12.4335489,  -6.89054775,  -8.07715225
   1031,  -12.4214544,  -7.33973169,   -8.6172142
   1032,  -11.7055359,  -6.71627998,  -8.72677231
   1033,  -11.9109516,  -6.64300442,   -9.0376358
   1034,  -12.6603022,  -7.23025751,  -8.86418629
   1035,  -12.7877436,  -6.92272663,  -8.62038422
   1036,  -12.5434084,  -6.39290619,  -8.94879913
   1037,  -12.7541513,  -6.47290945,  -8.50204563
   1038,  -12.1282825,  -6.48804855,  -8.60012054
   1039,  -9.74656296,  -3.54532242,   -9.1508379
   1040,  -11.6399164,  -5.70701265,     -8.93048
   1041,  -10.8557615,  -5.40844631,  -8.92141533
   1042,  -11.3358126,  -5.16540384,  -9.02871037
   1043,  -11.1452971,  -5.36503315,  -8.50360584
   1044,   -11.571208,  -4.99463367,  -8.56915092
   1045,  -11.1521587,  -4.80087566,  -8.71498871
   1046,  -11.6119642,  -5.78405905,  -8.45753098
   1047,  -11.1682673,  -5.95167542,  -8.81377125
   1048,  -16.1864395,  -15.7066441,  -2.88915849
   1049,  -15.9752855,  -15.2380381,  -3.26220608
   1050,  -11.8569565,  -5.35760164,  -8.40689468
   1051,  -13.2418556,  -9.14110756,  -7.47099304
   1052,  -13.2334213,  -8.73096371,  -7.11323118
   1053,  -13.3638496,  -8.74517441,  -6.49744797
   1054,  -13.4134579,  -9.15484047,  -6.24838066
   1055,  -16.0869923,  -14.5785313,  -3.51836419
   1056,  -16.5630016,  -15.2661867,  -3.32867718
   1057,  -16.3880348,  -14.8017864,  -2.93565273
   1058,  -16.6531105,  -14.7001543,   -3.5879097
   1059,  -15.6269674,  -14.6578741,    -3.602072
   1060,  -16.0263538,  -14.2155457,  -3.28678179
   1061,  -16.5504494,  -14.3609781,  -3.40048528
   1062,  -16.4636135,   -14.010087,  -3.53741503
   1063,  -15.9638357,  -14.8767166,  -3.11090374
   1064,  -9.14698982,  -4.48015594,  -9.43330193
   1065,  -8.77038574,  -3.53920555,  -9.20465469
   1066,  -8.36587238,  -3.94018006,  -9.20234489
   1067,   -6.3949914,  -4.03870916,   -8.8545599
   1068,  -6.30561733,  -4.10351896,  -9.34798527
   1069,  -6.72252178,  -4.04993057,  -9.20761776
   1070,  -6.60898733,  -3.55874658,  -8.88663292
   1071,  -6.20855379,  -3.74528933,  -8.78450775
   1072,  -5.95431614,  -4.02187967,   -9.0117588
   1073,  -7.35296392,  -3.13154125,   -10.056881
   1074,  -7.39930725,  -3.51509452,  -9.62197971
   1075,  -7.39587307,  -3.96467304,  -9.27272701
   1076,  -13.2214489,    -7.692554,  -7.26086903
   1077,  -11.7180567,  -6.58832169,  -8.28787613
   1078,  -12.1038132,  -7.56494904,  -8.08171749
   1079,  -12.2384758,  -7.95331097,  -7.77241516
   1080,  -12.3575163,  -7.60482025,  -7.30310011
   1081,  -11.8230267,  -6.27113771,  -8.82139301
   1082,  -12.9826593,  -7.32930231,  -8.41027641
   1083,   4.68414497,   -4.7290802,   -7.2285533
   1084,  -11.1173935,  -4.27198792,  -9.15001011
   1085,   -11.800168,  -4.95811033,  -9.08413029
   1086,  -12.0358591,  -5.12626123,  -8.73872757
   1087,  -10.9244566,  -5.15482807,  -9.47376823
   1088,  -10.8781986,  -5.57146692,  -9.37590122
   1089,  -12.1236954,  -5.55480003,  -9.06854439
   1090,   -11.604001,  -4.87578392,   -9.4631815
   1091,   5.44616556,  -5.56440496,  -6.45371485
   1092,  -11.6800346,  -5.49957275,  -9.52487087
   1093,  -11.8044329,  -6.01131344,   -8.0741272
   1094,  -12.3387251,  -5.60439062,  -8.67298031
   1095,  -10.3152122,  -4.73993921,   -10.017664
   1096,    -10.41574,  -5.25028563,   -9.5085268
   1097,  -16.3617325,  -13.5135336,  -4.35836697
   1098,  -15.8895473,  -13.1392822,  -4.72975969
   1099,  -15.9044476,   -12.969511,   -4.0880146
   1100,  -15.4194984,  -13.2814455,  -4.14088964
   1101,  -12.4922132,  -5.90289307,   -8.4840641
   1102,  -15.2423944,  -13.6453476,  -4.80680656
   1103,  -15.9111309,  -13.2485838,  -3.89633203
   1104,  -12.2084637,  -6.42349339,  -7.93638086
   1105,  -10.7345457,  -4.62593985,  -8.69952488
   1106,  -16.9470692,   -16.595665,  -1.99277973
   1107,  -17.2895908,  -16.0301552,  -2.19660401
   1108,  -17.3775272,  -16.5822716,  -2.14970255
   1109,  -14.3660135,  -10.6977329,  -5.86690569
   1110,  -14.0864115,  -10.9759912,  -6.37686729
   1111,  -1.96604908,  -3.57723403,  -7.97324467
   1112,  -1.92991114,  -3.99319196,  -7.64948559
   1113,   -2.2400775,  -4.16262531,  -7.77790976
   1114,  -1.72726452,  -4.03226089,  -8.13553429
   1115,  -2.40243268,  -3.65517807,  -7.84154844
   1116,  -1.57596219,  -3.86346102,  -7.65760565
   1117,  -1.81867731,  -3.58958244,   -8.5544672
   1118,  -1.48976564,  -3.54503918,  -8.18420887
   1119,   5.61874962,  -5.30667448,  -5.85633659
   1120,   6.14077282,  -5.39736462,  -6.41021395
   1121,     6.200634,  -5.68991566,  -6.08724403
   1122,    6.1111784,  -5.22987938,  -5.92871141
   1123,   2.45427179,  -4.32276583,  -6.67637825
   1124,   3.07882142,  -4.41587448,  -6.45403814
   1125,  -14.8239498,  -12.3702936,   -4.4738431
   1126,  -14.9052114,  -12.7799482,  -4.72369671
   1127,  -14.9663801,  -12.9427128,  -4.24634743
   1128,  -15.5912209,  -12.4450579,  -4.48758554
   1129,  -15.4224882,   -12.743556,  -4.10803604
   1130,  -15.2205715,  -12.4817152,  -4.95899677
   1131,    -15.02075,  -11.8695421,  -4.60689354
   1132,  -14.6090565,  -12.4433422,  -4.75339651
   1133,  -1.08836794,  -4.47979975,  -7.53098106
   1134,  -1.49634719,  -4.72926807,  -7.99659491
   1135,  -1.56654501,  -4.42050838,  -7.63049698
   1136,  -1.23469579,  -4.29392529,  -7.90368319
   1137,   4.38437271,   -5.1244154,  -7.24398708
   1138,   4.98438835,  -5.21404934,  -7.02837324
   1139,   5.00643396,   -4.4943347,   -6.9428196
   1140,   4.16821003,  -5.06104088,  -6.71579123
   1141,  -2.51239681,  -3.90069079,  -8.05780411
   1142,  -1.84268975,  -4.36561584,  -8.79512882
   1143,   6.25012922,  -5.28522062,  -6.79623842
   1144,   5.58867741,  -5.20620108,  -6.94876289
   1145,    6.0206151,  -4.83785105,  -6.90088749
   1146,   6.27588558,  -4.81124163,  -6.42488718
   1147,  -5.15149355,  -3.07672167,  -9.13942719
   1148,  -5.00184965,   -3.2362287,  -9.45728588
   1149,  -5.40849829,  -3.39515638,  -8.61995602
   1150,  -5.55422831,  -3.51297164,  -9.09092617
   1151,  -4.67887354,  -3.15433478,  -9.00946045
   1152,  -5.67830658,  -3.00433421,  -9.22848129
   1153,  -16.7151928,  -15.3701496,  -2.79277778
   1154,  -17.3285332,  -16.4989777,  -3.17657924
   1155,  -1.21395183,  -4.17346525,  -8.41001797
   1156, -0.818798304,  -4.28599405,  -8.61528587
   1157,  -5.65505791,  -3.91466212,  -9.75156116
   1158,  -5.51909256,  -4.22176361,  -9.32631493
   1159,     5.414114,  -4.65527058,   -6.9688673
   1160,  -15.4912891,  -13.3860416,   -5.1139431
   1161,  -16.5715027,  -15.5631838,  -2.52722788
   1162,  -5.15378523,  -3.64272475,  -9.70451069
   1163,  -5.15112782,  -4.20715237,   -9.6005888
   1164,   -6.0467205,  -3.25813746,  -9.28603458
   1165,  -6.07860327,  -2.96634722,  -9.43715763
   1166,  -5.45693731,  -3.21236897,  -9.51497269
   1167,  -5.88452101,  -3.31992674,  -8.74660587
   1168,  -5.16324377,  -3.82250142,  -8.55455399
   1169,  -4.96127796,   -4.2467947,  -8.77686882
   1170,  -4.48631859,  -3.51638341,   -9.4945879
   1171,  -4.86892319,  -3.93868732,  -9.28715515
   1172,   -1.9389751,  -4.55241632,  -7.90242481
   1173,  -1.55328643,  -4.72562075,  -8.24668217
   1174,  -14.2853231,  -9.76039982,  -6.97508097
   1175, -0.531530499,  -4.68753529,  -8.31975269
   1176,  0.573688149,  -4.95317125,  -7.87902021
   1177,  0.343766987,  -4.87702179,  -7.42697334
   1178,  -11.4521961,  -6.27180624,   -8.4094677
   1179,  -13.1035576,  -8.33368778,  -7.38810778
   1180,   -12.792614,  -8.43961334,  -6.81692362
   1181,  -12.7071962,  -8.02533913,  -7.04485893
   1182,  -13.0835466,  -8.18829536,  -6.77867365
   1183,  -13.4143772,   -8.7217598,  -7.77662277
   1184,  -13.6880474,   -8.3377676,  -7.51624107
   1185,    -13.26367,  -8.35815239,  -7.98660517
   1186,  -12.7242308,    -8.289711,  -7.62718391
   1187,  -13.0445366,  -7.94008732,  -7.76342916
   1188,  -13.5313416,  -7.87581205,  -7.30660725
   1189,   4.45261669,  -4.96860981,  -6.10968113
   1190,  -12.6608973,   -7.3869195,   -7.9808445
   1191,  -13.1445932,  -7.12335205,  -7.82306242
   1192,  -12.6976433,  -6.80116224,  -7.65589046
   1193,  -12.4448109,  -7.97201157,  -7.47161674
   1194,  -12.9218149,  -7.34326124,  -7.26809025
   1195,  -12.3952951,  -7.21887684,  -7.38880014
   1196,  -11.9620848,  -7.17961025,  -7.99286175
   1197,  -13.3260498,  -7.50374508,  -7.63483286
   1198,  -12.4598627,  -7.63967228,   -8.4379034
   1199,  -16.3897285,  -15.0151701,  -3.87360835
   1200,  -16.8703365,  -15.5387735,   -3.7221694
   1201,  -16.8117256,  -15.0529327,  -3.80698156
   1202,  -11.2310686,  -5.86050749,  -9.33784676
   1203,  -16.6873169,  -14.6870461,  -4.07204151
   1204,   -16.024725,  -15.3108273,  -3.73582244
   1205,   -7.7299962,  -3.03025937,  -9.55547428
   1206,  -7.83664083,  -3.47088861,  -10.1802826
   1207,  -7.93444729,  -3.69551086,  -9.51974964
   1208,   4.13880301,   -4.6152401,  -6.19493294
   1209,   4.44502926,  -4.31139135,  -6.47497272
   1210,  -13.0128288,  -8.68921185,  -6.53872919
   1211,   4.36236858,  -5.30158234,  -6.27738667
   1212,  -17.8211861,  -16.6134853,   -2.8959024
   1213,  -14.5301876,  -11.1895304,  -6.46131802
   1214,    -14.51752,  -11.4470787,  -5.90730858
   1215,  -17.0424595,  -16.0018005,  -2.91021132
   1216,    -17.78578,  -16.3432751,  -2.33405566
   1217,   1.95537937,  -4.47076416,  -7.24222088
   1218,   2.29117799,  -5.20154476,  -7.27734661
   1219,   1.41197562,  -3.99879003,  -7.12081861
   1220,   1.83469975,  -4.03096914,  -7.55823803
   1221,   2.23049927,  -4.00507259,  -7.06351995
   1222,   2.58310843,  -5.00522184,  -7.63149929
   1223,   2.30993605,  -4.13048124,  -7.52974939
   1224,  -13.8359079,  -8.51268196,  -6.94662237
   1225,  -13.6160994,  -8.13583088,  -7.01858997
   1226,  -16.3634834,   -13.602972,  -3.87750387
   1227,  -16.6592903,  -14.1310043,  -3.81934881
   1228,  -3.69146037,  -4.20267773,  -9.21670628
   1229,  -16.1595325,  -12.8592052,  -4.43065929
   1230,  -12.8683167,  -9.11382675,  -6.82619905
   1231,  -12.7446165,  -8.92743015,  -7.37165546
   1232,  -13.0923691,  -9.48662949,   -7.0227561
   1233,  -13.0390768,   -8.6088171,  -7.77135706
   1234,  -16.1648846,  -15.7215843,   -3.4253602
   1235,  -16.6758652,  -16.0246429,  -3.37882471
   1236,  -13.1389236,  -7.73329687,  -8.19779873
   1237,  -12.7659845,  -8.12468243,  -8.14191055
   1238,  -11.9908819,  -6.94734049,  -7.74173069
   1239,  -14.4942102,  -10.5166578,  -5.42638159
   1240,  -13.9600935,  -10.8719749,  -5.44758368
   1241,  -16.2843857,  -15.1731901,  -2.78299451
   1242,  -13.2520542,  -7.13209486,  -7.48382521
   1243,  -4.88200378,  -3.42639637,  -8.51117897
   1244,  -5.61559772,  -3.77052379,  -8.67453194
   1245,  -5.38296175,  -4.15582085,  -8.87172508
   1246,  -7.18375015,   -2.9286561,  -9.57582474
   1247,   3.80343723,  -5.25234509,  -6.95679235
   1248,   -7.4817977,  -3.19493794,  -9.12025547
   1249,  -8.40690708,  -3.62332082,   -9.6463871
   1250,  -8.06364536,  -3.93698788,  -10.1942368
   1251,  -7.85801792,  -4.05579948,  -9.84306526
   1252,  -7.57119894,  -3.85150409,  -10.1414537
   1253,  -6.43118668,  -3.02923775,  -9.17249203
   1254,   -6.8624115,  -3.11603904,  -9.75109673
   1255,  -5.82175589,    -3.337641,  -9.80779552
   1256,   3.25771642,  -5.34253883,  -7.03115463
   1257,   2.75366831,  -5.20341301,  -7.20454693
   1258,  -17.0612564,   -15.186451,  -3.44328117
   1259,  -16.7482281,  -14.6079683,  -3.17491794
   1260,  -12.1942272,   -6.2551837,  -9.16941166
   1261,   1.79209471,  -5.06675386,  -7.03554678
   1262,  -9.88354015,  -4.49064922,  -10.1152334
   1263,  -17.1421242,  -15.9788218,  -3.49361038
   1264,  -12.9160547,  -6.61870575,  -8.18077946
   1265,  -12.3921938,  -6.03868341,  -9.02323341
   1266,  -11.4596605,  -6.16642523,  -9.17692852
   1267,  -2.68858671,  -3.43996358,  -8.94106197
   1268,  -6.85510778,  -3.21955514,  -8.97594643
   1269,  -7.94634533,  -3.64900708,  -9.07003403
   1270,  -7.22358656,  -3.58262849,  -9.14663696
   1271,  -3.92402005,  -3.72406483,  -9.39003658
   1272,  -4.44785738,  -3.97755933,  -9.53148556
   1273,  -4.41774702,  -4.24971294,  -9.11297989
   1274,  -4.91357803,  -4.34874487,  -9.16174316
   1275,  -8.00813198,  -4.13904905,  -9.42102623
   1276,    -8.417799,  -4.18614769,  -9.83447361
   1277,   -15.226326,  -11.8086233,  -5.38900566
   1278,  -14.6652269,  -11.9391193,  -5.91516924
   1279,  -14.5128841,  -12.0727968,  -5.55797434
   1280,  -15.0463953,  -12.0843906,  -5.75381994
   1281,  -11.9330626,  -5.83290195,  -9.38165474
   1282,  -11.8438978,  -6.11425638,   -9.4085474
   1283,   2.74356055,  -4.46305323,  -7.70588875
   1284,   3.07717609,  -4.68308258,   -7.7557354
   1285,  -8.48551178,  -3.94973087,  -10.2326899
   1286,  -3.24213004,  -3.62098145,  -9.14968395
   1287,  -14.8410845,  -10.7415285,  -6.17958164
   1288,   1.10173929,  -3.91666412,  -7.70227146
   1289,  0.896804392,  -4.07026434,  -7.14465761
   1290,   1.25528836,  -4.65983105,  -6.95810366
   1291,  0.646435201,  -4.11221027,  -8.21335602
   1292,  0.639331698,  -3.82823324,  -7.73377752
   1293,  0.804691434,  -4.59555912,   -7.7652607
   1294,   1.14686167,  -4.49137449,  -8.13146877
   1295,   6.09263325,  -4.79459667,  -5.72839737
   1296,  0.755743563,  -4.75808954,  -7.09440517
   1297,   1.23349416,  -4.96104813,  -7.31486273
   1298,  -14.4067011,  -10.9938068,  -5.14172649
   1299,  0.217193216,  -4.49421024,  -7.11632633
   1300,  -15.0418234,  -13.4894466,  -4.30609989
   1301,  -15.4002018,  -12.9801779,  -4.69899702
   1302,   3.06835723,  -4.99039745,  -7.50155497
   1303,   3.10828876,  -4.28109312,  -7.41404104
   1304,  -15.8309793,  -14.8865747,  -3.92959285
   1305,  -16.9562321,  -14.6992922,  -3.65357232
   1306,  -15.9185734,  -13.4108534,  -5.02635241
   1307,   1.49645996,  -4.76544142,  -7.97951746
   1308,  -3.58162069,  -3.44295216,  -9.03252125
   1309,   1.92807615,  -4.60081339,  -7.69279242
   1310,    3.3709712,  -4.14128637,  -6.92143726
   1311,   1.04491138,  -4.98105335,  -7.86255169
   1312,  0.839728236,  -5.02476311,  -7.60713196
   1313,  0.340361625,   -4.1001358,  -7.17351055
   1314,  -2.11954737,  -4.05688763,  -8.94949341
   1315,  -5.46635771,  -3.41756797,  -9.83629894
   1316,  -15.3275175,  -12.8696356,  -5.21236372
   1317,  -15.8522139,  -12.6580877,  -4.90877247
   1318,  -14.8983946,   -11.181983,  -6.04344559
   1319,  -15.1323195,  -11.6940985,  -5.89191103
   1320,  -14.4492455,  -11.4887323,  -5.31008768
   1321,  -14.1293612,  -11.6841307,  -5.73286915
   1322,  -14.3303804,  -11.7332907,  -6.02999783
   1323,  -13.9264717,  -11.2877827,  -5.96104622
   1324,   -14.905818,   -10.983695,  -5.20260906
   1325,  -14.7459784,  -11.3489046,  -4.96393919
   1326,  -14.2577457,  -11.8431473,  -5.19353867
   1327,  -14.9631948,  -10.9861231,  -5.63374472
   1328,  -15.1899538,  -11.4007215,  -5.12125301
   1329,  -1.03181052,  -4.72377491,  -8.26574135
   1330,   1.45058644,  -4.49132681,  -7.52604485
   1331,   1.72982144,  -5.06943989,  -7.58399487
   1332,  -13.1469212,  -9.37108612,  -6.48141146
   1333,  -16.9759941,  -15.0319033,  -2.85277224
   1334,    4.6479435,  -5.49241209,  -6.69072866
   1335,   4.92234087,  -4.36573362,  -6.35297728
   1336,   -15.334342,  -11.6766243,  -4.91240406
   1337,  -4.09974194,  -3.38950729,  -9.40911388
   1338,  -15.4303951,  -14.3221397,  -4.08892155
   1339,   1.59387505,  -4.19760799,   -7.9463315
   1340,  -13.3804913,  -7.80715179,  -7.99312449
   1341,  -1.39781177,   -3.9348619,  -8.72356319
   1342,  -1.35954142,  -4.45811987,  -8.71008778
   1343,  -15.5371227,  -12.0574503,  -4.71304798
   1344,  -15.1271267,  -13.2857504,  -4.96049547
   1345,   -15.672617,  -12.2970943,  -5.22640181
*Element, type=C3D4
   1,  843,  844,  845,  846
   2,  847,  671,  848,  676
   3,  846,  849,  845,  850
   4,  846,  851,  849,  850
   5,  849,  852,  851,  846
   6,  853,  849,  852,  851
   7,  846,  854,  855,  851
   8,  846,  852,  851,  855
   9,  856,  498,  857,  858
  10,  859,  860,  861,  862
  11,  859,  863,  860,  862
  12,  859,  864,  865,  866
  13,  867,  499,  494,  495
  14,  868,  869,  870,  859
  15,  871,  872,  873,   21
  16,  859,  869,  863,  874
  17,  859,  875,  862,  866
  18,  859,  876,  875,  868
  19,  877,  586,  843,  587
  20,  876,  869,  868,  859
  21,  867,  501,  878,  500
  22,  867,  879,  880,  878
  23,  881,   95,  687,  682
  24,  867,  880,  857,  499
  25,  853,  849,  882,  852
  26,  853,  883,  168,  884
  27,  885,  853,  818,  886
  28,  853,  849,  883,  882
  29,  337,  887,   97,  888
  30,  885,  889,  813,  853
  31,   22,   21,  873,  572
  32,  853,  849,  851,  889
  33,  890,  689,  891,  892
  34,  890,  892,  688,  689
  35,  890,  893,  894,  895
  36,  896,  897,  898,   38
  37,  890,  688,  892,  894
  38,  899,  591,  900,  901
  39,  899,  902,  900,  156
  40,  155,  902,  590,  156
  41,  902,  590,  156,  899
  42,  902,  903,  904,  899
  43,  905,  127,  748,  128
  44,  903,  899,  906,  907
  45,  721,  908,  909,  910
  46,  911,  497,  492,   37
  47,  362,  912,  888,  336
  48,  910,  727,  909,  726
  49,  910,   86,  913,  727
  50,  910,  913,  914,  866
  51,  910,  866,  908,  909
  52,  910,  914,   87,  875
  53,  915,  916,  917,  918
  54,  919,  920,  921,  915
  55,  922,   64,  300,  301
  56,  915,  920,  923,  924
  57,  915,  925,  924,  923
  58,  915,  926,  920,  921
  59,  927,  928,  929,  930
  60,  927,  931,  932,  933
  61,  934,   17,  180,   16
  62,  927,  930,  935,  936
  63,  927,  928,  937,  931
  64,  938,  311,   54,  310
  65,  927,  936,  935,  939
  66,  940,  941,  942,  943
  67,  944,  945,  847,  946
  68,  944,  946,  674,  673
  69,  944,  678,  893,  947
  70,  944,  948,  946,  673
  71,  949,  950,  951,  952
  72,  953,  954,  950,  949
  73,  950,  955,  952,  954
  74,  950,  956,  957,  958
  75,  950,  958,  952,  955
  76,  950,  934,  959,  958
  77,  196,  943,  960,  222
  78,  961,  962,  911,  963
  79,  961,  964,  965,  963
  80,  965,  966,  964,  961
  81,  963,  967,  879,  911
  82,  963,  879,  968,  969
  83,  255,  963,  970,  968
  84,  963,  255,  969,  968
  85,  963,  968,  879,  967
  86,  903,  603,  971,  602
  87,  903,  849,  883,  972
  88,  903,  972,  902,  973
  89,  903,  972,  973,  849
  90,  972,  974,  975,  976
  91,  975,  849,  973,  972
  92,  977,  647,  634,  134
  93,  978,  979,  897,  980
  94,  973,  845,  904,  903
  95,  882,  849,  883,  903
  96,  899,  903,  904,  603
  97,  972,  981,  906,  982
  98,  972,  983,  906,  902
  99,  972,  983,  973,  975
 100,  902,  903,  899,  906
 101,  791,  984,  985,  986
 102,  987,  988,  989,  990
 103,  991,  988,  989,  987
 104,  988,  991,  992,  987
 105,  988,  993,  991,  989
 106,  988,  993,  994,  995
 107,  988,  994,  905,  753
 108,  996,  997,  362,  389
 109,  990,  988,  989,  998
 110,  989,  994,  998,  988
 111,  999,  962,  856,  857
 112, 1000, 1001, 1002, 1003
 113,  987, 1004,  757, 1005
 114, 1006,  990, 1007, 1001
 115, 1008, 1006,  990, 1007
 116, 1009, 1007, 1010, 1011
 117, 1001, 1012, 1013, 1014
 118, 1015, 1014, 1016, 1001
 119, 1011, 1001, 1012, 1013
 120, 1001, 1011, 1016, 1017
 121,  905, 1018,  127,  128
 122, 1016, 1001, 1012, 1011
 123, 1011, 1007, 1010, 1017
 124, 1001, 1019, 1007, 1017
 125, 1020, 1021, 1022, 1023
 126, 1020,  977, 1024, 1025
 127, 1020, 1022, 1021, 1026
 128,  492,  897, 1027,  896
 129, 1028, 1029, 1030, 1031
 130,  289, 1032, 1033, 1028
 131, 1028, 1034, 1035,  237
 132,   47, 1036,   46, 1028
 133, 1028, 1037, 1030, 1038
 134,  850,  889, 1039,  810
 135, 1028, 1037, 1038, 1036
 136, 1040, 1041, 1042, 1043
 137, 1043, 1044,  829, 1045
 138, 1043, 1046, 1040, 1047
 139, 1043, 1044,  834,  829
 140, 1048,  293, 1049,   72
 141, 1043, 1046,  834, 1050
 142,  979, 1051,  980, 1052
 143, 1027,  897,  979,  896
 144,  979, 1052,  980, 1053
 145,  978, 1027,  897,  979
 146,  979, 1054, 1053,  978
 147, 1055, 1056, 1057, 1058
 148, 1055,  548, 1059,  916
 149,  918, 1060, 1061, 1055
 150, 1062,  918, 1060, 1061
 151,  553,  548, 1059, 1055
 152, 1055, 1059,  553, 1063
 153, 1055, 1061, 1057, 1060
 154,  974,  804,  976,  803
 155,  972,  974,  976, 1064
 156,  974,  906, 1065,  982
 157,  972,  906,  974,  982
 158,  982,  798, 1066, 1065
 159,  798,  974, 1065,  982
 160,  974,  975,  804,  799
 161,  974,  975,  799, 1065
 162, 1067, 1068,    8, 1069
 163, 1067, 1068, 1070, 1071
 164, 1067,  773, 1071,  178
 165, 1067, 1071,  773, 1072
 166, 1067, 1072, 1068, 1071
 167, 1073, 1025, 1021, 1074
 168, 1025, 1021, 1023,  621
 169, 1025,  634, 1023,  977
 170, 1074, 1020, 1075, 1024
 171, 1020, 1069, 1075,  977
 172,  647, 1024,  977,  634
 173, 1024,  977,  634, 1025
 174, 1014, 1015,  426, 1003
 175, 1014,  401, 1016,  427
 176, 1014, 1015,  400,  426
 177, 1076,  470,  471,  475
 178, 1077,   50,  315,    4
 179,   52, 1078, 1079, 1080
 180, 1014, 1016, 1001, 1012
 181, 1001, 1002, 1014, 1013
 182, 1040, 1046, 1081, 1047
 183, 1034,  210, 1082, 1035
 184, 1014,  125, 1013, 1002
 185,  365,  364, 1083,  338
 186,  851,  850,  846,  854
 187,  854,  855,  816,  821
 188,  854,  821, 1084,  855
 189,  854,  153,  845,  843
 190,  854,  843,  822,  152
 191,  854,  153,  843,  152
 192,  854,  843, 1084,  822
 193, 1043, 1044, 1050,  834
 194, 1044, 1085,  831, 1045
 195, 1044, 1042, 1086, 1085
 196, 1043, 1045,  828, 1041
 197, 1042, 1087, 1041, 1088
 198, 1043, 1044, 1042, 1050
 199, 1086, 1089, 1085, 1042
 200, 1042, 1040, 1050, 1086
 201, 1042, 1087, 1090, 1045
 202,  935,  932, 1091,  927
 203,  886, 1041, 1045, 1087
 204, 1044,  836, 1086, 1050
 205, 1044, 1050,  835,  836
 206, 1092, 1087, 1090, 1042
 207, 1093,  841, 1050, 1094
 208, 1087,  852, 1095,  843
 209, 1096, 1095,  613, 1087
 210, 1087,  611,  877,  612
 211, 1092,  611,  877, 1087
 212,  920, 1097, 1098,  194
 213,  920, 1099, 1100, 1098
 214, 1101,    3,  147,  148
 215,  920, 1100, 1102, 1098
 216,  920, 1099, 1097, 1103
 217,  983,  900,  156,  802
 218,  983, 1065,  906,  900
 219,  983,  800,  975, 1065
 220,  983,  984, 1065,  900
 221,  983,  805,  975,  800
 222,  972,  906,  983,  975
 223,  900,  984,  797,  983
 224,  805,  983, 1039,  806
 225,  850,  975, 1039,  976
 226, 1039,  850,  973,  975
 227, 1039,  850,  811,  973
 228,  975,  805,  983, 1039
 229,  877,  600,  612,  599
 230,  889, 1039,  810,  809
 231,  849,  883,  976,  889
 232,  972,  974, 1064,  982
 233,  982,  974,  803,  798
 234,  976, 1064,  803,  883
 235,  975,  804, 1039,  976
 236,  974,  975,  976,  804
 237, 1104,  457,  455, 1101
 238,  820,  855,  815,  819
 239,  885,  819,  851,  855
 240, 1092,  150, 1090,  585
 241,  855,  825, 1084, 1045
 242,  825, 1105,  855,  820
 243, 1105,  886,  885,  823
 244,   44, 1037, 1036,    3
 245, 1105, 1045,  886,  823
 246,  823, 1105,  819,  885
 247,  952,  578,  574, 1106
 248, 1106,  952, 1107,  574
 249, 1106,  952,   75,  955
 250, 1106, 1108,  952,  955
 251, 1106, 1108,  181,  580
 252, 1106,   10,  580,  181
 253, 1106,  181,    9,   10
 254, 1106,  179,  578,    9
 255,  879, 1109, 1110,  858
 256,  879,  858,  880, 1109
 257,  879,  880,  878, 1109
 258,  879,  857,  969,  963
 259,  879,  969, 1110,  968
 260,  878,  911,  867,  879
 261,   59,  305,  858,  306
 262, 1111, 1112, 1113, 1114
 263, 1115, 1112, 1113, 1111
 264, 1111,  730, 1112, 1116
 265, 1111, 1115, 1112,  735
 266, 1111, 1112,  730,  735
 267, 1111, 1116, 1112, 1114
 268,  732, 1111, 1117, 1118
 269, 1111,  731, 1118,  732
 270,  108,  107, 1091, 1119
 271, 1120, 1121,  445,  451
 272, 1121,  106,  451,  450
 273, 1121,  106,  450,    7
 274, 1121,    7,  450,  107
 275, 1121,  648, 1119,  107
 276, 1121,  450, 1122,  648
 277,  893, 1123,  685, 1124
 278, 1069,    8,  178,  161
 279, 1124,  893,  945,  944
 280,  944,  893,  679, 1124
 281,  893,  947,  678,  683
 282,  893,  945,  947,  895
 283,  893,  945,  944,  947
 284,  685, 1124,  680,  893
 285,  893, 1124,  680,  679
 286, 1125, 1126,  528, 1127
 287, 1126, 1128, 1129, 1125
 288, 1125, 1126, 1128, 1130
 289, 1128,  530,  529, 1131
 290,  524,  529,  525, 1131
 291, 1125, 1131,  523, 1132
 292, 1125, 1132, 1126, 1130
 293, 1133, 1134, 1135, 1136
 294, 1133,  719,  908,  724
 295, 1133,  908,  719,  865
 296, 1133,  866,  908,  865
 297, 1133,  864,  718,  121
 298, 1133,  122,  864,  121
 299, 1083,  887,   98,   97
 300, 1083,  337,  888,  887
 301, 1083,  931, 1137, 1138
 302, 1083,  365, 1139, 1138
 303, 1083, 1139,   98,  887
 304, 1137, 1083, 1140,  931
 305, 1083,  337,  887,   97
 306, 1011, 1113, 1141, 1013
 307,  915,  916,  919,  917
 308, 1001, 1141, 1002, 1013
 309, 1001, 1017, 1016, 1015
 310, 1011, 1016, 1142, 1012
 311,  103,  447,  367,  104
 312, 1120, 1143,  393, 1144
 313, 1143, 1144,  935, 1145
 314, 1143,  935, 1120, 1146
 315,  367,  447,  341, 1145
 316,  451, 1143,  393, 1120
 317, 1086,  832,  837,  836
 318, 1143,  104,  451,  393
 319, 1147, 1148,   77,   78
 320, 1147,  993, 1149, 1150
 321,  909,  727, 1118,  726
 322, 1147,  993, 1148, 1151
 323, 1147,   78, 1151, 1148
 324, 1147,  771, 1152, 1149
 325,  767, 1147,   78, 1151
 326,  867,  500,  496,  501
 327,  951, 1153,  871,  873
 328,  871,  951,  873,  872
 329,  872,  873,   21,  572
 330,  872, 1154,  953,   20
 331,  872,  871,  188,   21
 332,  872,  949,  572,  577
 333,  872,  577,  953,  949
 334,  909,  721,  726,  725
 335,  910,  721,  726,  909
 336,  913,  909,  866,  910
 337,  914,   86,  327,  326
 338,  909, 1114, 1155, 1136
 339,  866, 1156, 1155,  914
 340,  910,  721,  875,  722
 341, 1068, 1072,  132,  420
 342, 1068, 1157, 1072, 1158
 343, 1067,  132, 1068, 1072
 344, 1068, 1022, 1070, 1071
 345, 1068, 1022, 1023,  977
 346,  365, 1144, 1159,  932
 347,  923, 1102,  246, 1160
 348,  927,  935,  932,  939
 349,  939,  932, 1144,  935
 350, 1144,  939, 1145, 1159
 351,  932,  931,  939, 1139
 352,  950,  955,  934,  958
 353,  952,  958,   75,  955
 354,  951,  957,  573,  952
 355, 1161,  957,  573,  951
 356,  952,  951,  574,  573
 357,  573,  952,  578,  574
 358, 1106, 1107,  952, 1108
 359, 1106,  955,  181, 1108
 360, 1006,  741, 1009,  746
 361, 1006,  746, 1008,  745
 362, 1006, 1009, 1007, 1008
 363, 1006, 1008,  990,  744
 364, 1006,  741, 1115, 1009
 365, 1009, 1141, 1115, 1006
 366, 1006, 1141,  739, 1002
 367,  923,  920,  194,  193
 368, 1162, 1163, 1158, 1157
 369,  776, 1164, 1165, 1152
 370, 1152, 1166,   76,   77
 371, 1152, 1150, 1167, 1164
 372, 1152,   77, 1147, 1166
 373,  993, 1168, 1169,  995
 374,  993, 1149, 1150, 1168
 375, 1147,  993, 1150, 1148
 376,  993, 1148, 1170, 1171
 377, 1134, 1172, 1173,  429
 378, 1134, 1135, 1172,  123
 379,  970, 1174,  911,  961
 380,  970,  911,   35,  967
 381,  961,  255,  963,  970
 382,  970,  968,  229,  255
 383,  970,  961,  229, 1174
 384,  970,  228,  968,  967
 385,  970,  229,  968,  228
 386,  861,  406, 1175,  862
 387,  860,  433, 1176, 1177
 388,  860,  869, 1176,  863
 389,  860,  862,  863,  381
 390,  406,  860,  862,  861
 391,  860, 1176,  433,  407
 392,  937,  657,  936,  939
 393, 1046, 1081, 1047, 1178
 394,  840, 1093, 1050,  839
 395, 1093, 1050,  839, 1046
 396, 1043,  834, 1046,  833
 397, 1046, 1050,  839,  834
 398, 1046, 1093, 1178,  838
 399, 1043,  833, 1046, 1047
 400, 1094,  837,  842,  841
 401, 1043, 1040, 1046, 1050
 402, 1179, 1180, 1181, 1182
 403, 1179, 1183, 1052, 1184
 404, 1183, 1185, 1184, 1179
 405, 1186, 1187, 1185, 1179
 406, 1179, 1188, 1184, 1182
 407, 1179, 1180, 1182, 1052
 408,  928,  654,  929,  930
 409, 1189,  928,  659,  933
 410,  927,  929,  928,  933
 411,  928, 1189,  931,  933
 412,  933,  928,  659,  929
 413, 1190, 1030, 1191, 1192
 414, 1193, 1194, 1080, 1190
 415, 1194, 1080, 1190, 1195
 416, 1190, 1196, 1030, 1195
 417, 1190, 1196, 1029, 1030
 418, 1190, 1197, 1187, 1194
 419, 1190, 1198, 1031, 1078
 420, 1199,  216, 1200, 1201
 421, 1202,  624,  636,  623
 422, 1199, 1058,  918, 1203
 423, 1199, 1056, 1200, 1204
 424, 1097,  542, 1103, 1099
 425, 1199,  243, 1204,  242
 426, 1112, 1113, 1114, 1172
 427, 1115, 1010,  736, 1111
 428, 1112,  728, 1135,  729
 429, 1202,  623,  611,  624
 430, 1111, 1116,  731,  730
 431, 1112, 1113,  734, 1115
 432, 1112,  734, 1113,  729
 433, 1114, 1135, 1172, 1136
 434, 1114, 1111, 1141, 1113
 435, 1141, 1111, 1011, 1010
 436, 1111, 1114, 1011, 1117
 437, 1112, 1135, 1114, 1116
 438, 1140, 1083,  887,  931
 439,  887,  848,  996, 1140
 440, 1205, 1206, 1074, 1207
 441, 1140,  847,  946, 1208
 442, 1140, 1209, 1208, 1189
 443,  479, 1053, 1182, 1210
 444, 1189, 1140,  931, 1211
 445, 1140,  848,  996,  847
 446,  953, 1212, 1154,  954
 447,  917,  549, 1060,  916
 448,   20, 1212, 1154,  953
 449, 1213, 1110, 1214,  252
 450,  872, 1215,  953, 1154
 451,  953, 1216,  582, 1212
 452,  953, 1212,  582,   19
 453,  953,   20, 1212,   19
 454, 1217,  895,  894, 1218
 455, 1219, 1220, 1221,  891
 456, 1217,  895, 1218, 1222
 457,  891, 1220, 1221, 1223
 458, 1217,  895, 1222, 1223
 459,  895,  891, 1223, 1217
 460, 1224,  482,  481, 1225
 461, 1123,  891, 1221,  895
 462, 1226, 1227,  552, 1097
 463, 1097,  924, 1226, 1227
 464,  955,  290,   75,  179
 465,  542, 1103, 1226, 1097
 466, 1228,  346,  347,  373
 467,  920, 1103, 1097, 1226
 468, 1097, 1226,  542,  547
 469, 1097, 1099, 1229,  542
 470, 1097, 1229, 1098,   27
 471,   55,  938,  310, 1230
 472,  877,  600,  613,  612
 473, 1231, 1051,  284, 1232
 474, 1041,  638,  171,  637
 475, 1231, 1186,  285, 1233
 476, 1231, 1052, 1233, 1051
 477, 1179, 1186, 1231, 1233
 478, 1080,  464, 1195, 1194
 479, 1080,  469, 1194, 1181
 480, 1193, 1181,  468, 1080
 481, 1080, 1194, 1193, 1181
 482, 1080,  464, 1194,  469
 483, 1106,  574, 1107,  579
 484, 1106,  579, 1107,  580
 485, 1107,  952, 1108, 1216
 486, 1107,  951,  949,  576
 487, 1107,  581, 1216,  580
 488, 1107,  576,  949,  581
 489,  956,  293, 1234, 1048
 490,  240,  959,  266, 1235
 491,  959,  266, 1235,  956
 492,  956,  958,  291,  957
 493, 1235, 1048,  957,  956
 494, 1092,  611,  610,  598
 495, 1093,  144,  840,  145
 496,   73,  292,  957, 1048
 497, 1198,  236, 1031,  262
 498, 1190, 1197, 1191, 1236
 499, 1237, 1190, 1187, 1079
 500, 1190, 1079, 1193, 1187
 501, 1190, 1080, 1193, 1079
 502, 1198, 1078,  288, 1031
 503, 1198, 1079,  287, 1078
 504, 1198, 1078,  287,  288
 505, 1078, 1196, 1029, 1190
 506,  453, 1104, 1077, 1238
 507,  880, 1239, 1109,  858
 508, 1238, 1104, 1077, 1030
 509, 1238, 1196, 1077,   50
 510, 1238, 1196,   50,   51
 511,  458, 1238,   51, 1195
 512, 1238,   51, 1195, 1196
 513, 1239, 1240,  858,  880
 514,  867,  878,  880,  500
 515,  867,  857,  494,  499
 516,  867,  880,  879,  857
 517,  880,  857,  498,  858
 518,  880, 1240,  858,  503
 519, 1049, 1241, 1056, 1048
 520, 1241, 1153, 1048, 1161
 521, 1241,  559, 1063, 1057
 522, 1241,  564, 1153, 1161
 523, 1241,  565, 1153,  564
 524, 1241, 1153,  565, 1057
 525, 1241, 1057,  564,  559
 526, 1076,  470, 1182, 1181
 527, 1076,  475, 1182,  470
 528, 1076, 1188, 1182,  476
 529, 1197, 1242,  471, 1076
 530, 1242, 1194,  471, 1076
 531,  466, 1242, 1194,  471
 532, 1239,  506,  510,  505
 533, 1191, 1197, 1194, 1242
 534, 1076,  472, 1188,  471
 535, 1076, 1187, 1188, 1197
 536,  993, 1168, 1243, 1149
 537, 1150, 1071, 1072, 1244
 538, 1150, 1162, 1148, 1171
 539, 1152, 1150, 1149, 1167
 540, 1147, 1150, 1166, 1148
 541,  772, 1152,   77, 1147
 542, 1150, 1168, 1244, 1245
 543, 1205, 1246, 1074, 1073
 544, 1093,  840,  841,  145
 545, 1247,  111,  440,  441
 546, 1150, 1167, 1244, 1149
 547,  986,  791, 1205,  985
 548, 1205, 1248,  790,  986
 549, 1246,  782,  787,  786
 550,  791,  787, 1205,  792
 551,  787,  792,  159, 1205
 552, 1205,  786, 1246,  787
 553,  935, 1119, 1091, 1120
 554,  935, 1122, 1119, 1120
 555,  935, 1145,  936, 1146
 556, 1206, 1207,  985, 1249
 557, 1008,  746, 1005,  751
 558, 1250, 1249, 1251, 1206
 559, 1206, 1074, 1207, 1251
 560, 1205, 1073, 1206,  985
 561, 1206, 1250,  606, 1252
 562, 1247,  441,  414,  415
 563, 1022, 1253, 1070, 1164
 564, 1020, 1253, 1022, 1026
 565, 1020, 1254, 1074, 1246
 566, 1020, 1074, 1248, 1246
 567, 1022, 1157, 1023, 1255
 568, 1068, 1023, 1022, 1157
 569,  890,  893,  683,  894
 570,  947,  894,  114,  683
 571,  947, 1256,  945,  948
 572,  947,  895,  945, 1257
 573,  944,  947,  945,  948
 574, 1056, 1058, 1258, 1259
 575,  911,  967,  502,   35
 576, 1056, 1153, 1258,  871
 577, 1056, 1235, 1153,  871
 578,  851,  815,  819,  814
 579, 1056, 1153, 1235, 1048
 580, 1056, 1234, 1235, 1200
 581, 1056, 1234, 1200, 1204
 582,   46, 1260,  583,   45
 583, 1045, 1105,  886,  855
 584,  843,  855, 1084, 1087
 585,  892, 1261,  688,  693
 586, 1087,  852,  886, 1096
 587,  852, 1096,  884,  886
 588,  882,  846,  844, 1095
 589, 1095,  882, 1262,  844
 590,  135,  621, 1023,  136
 591,  844,  882, 1262,  849
 592,  846,  849,  844,  845
 593,  852,  851,  855,  885
 594,  872, 1215,  871,  951
 595,  952,  954,  949,  950
 596,  951,  873,  872,  572
 597, 1215,  951, 1161, 1153
 598,  872, 1215, 1263,  871
 599, 1215, 1263,  959, 1154
 600, 1215,  871,  951, 1153
 601, 1093, 1104,  145, 1101
 602, 1264,  457, 1192, 1104
 603, 1238, 1104, 1030, 1192
 604, 1081, 1040, 1265, 1094
 605, 1081, 1033, 1038, 1260
 606, 1046, 1094, 1081, 1093
 607, 1040, 1260, 1266, 1081
 608, 1007,  747, 1267,   82
 609, 1081, 1040, 1260, 1265
 610, 1081, 1038, 1032, 1077
 611, 1077, 1081, 1093, 1178
 612, 1046, 1093, 1081, 1178
 613, 1025,  608,  621,  620
 614, 1081, 1266, 1040, 1047
 615,  854,  822, 1084,  821
 616, 1045, 1105,  855,  825
 617, 1090,  826, 1085, 1045
 618,  826, 1084, 1090,  827
 619,  854,  855, 1084,  843
 620, 1084, 1087, 1090,  843
 621,  846,  882,  849,  852
 622,  846,  852,  843, 1095
 623,  902,  972,  983,  973
 624,  883,  889,  813,  808
 625,  972,  849,  976,  975
 626,  877,  587,  600,  599
 627,  883,  640,  884,  882
 628,  883,  882,  641,  640
 629,  849,  976,  975,  850
 630,  853,  851,  852,  885
 631,  883, 1064,  641,  882
 632, 1021, 1025, 1023, 1020
 633, 1020, 1268, 1253, 1254
 634, 1025, 1252, 1073,  607
 635, 1205, 1206, 1207,  985
 636, 1074, 1251, 1024, 1207
 637, 1074, 1269, 1207, 1075
 638, 1074, 1251, 1252, 1024
 639, 1020, 1270, 1075, 1069
 640, 1271, 1272,  372,  989
 641,  372,  989, 1228, 1271
 642, 1273,  371,  398,  397
 643, 1274, 1272,  370, 1171
 644,  372,  371,  398, 1273
 645, 1272,  989, 1170, 1171
 646, 1205, 1073,  159, 1246
 647, 1248, 1020, 1268, 1270
 648, 1246, 1254, 1073,  160
 649, 1254,  781, 1253,  782
 650, 1270, 1074, 1248, 1020
 651, 1268,  781, 1253, 1254
 652, 1074, 1269, 1270, 1248
 653, 1207, 1251, 1024, 1275
 654, 1207, 1249, 1066,  986
 655, 1275,  645, 1251, 1024
 656, 1207, 1269, 1275, 1075
 657, 1275, 1251,  645,  644
 658, 1207, 1066, 1275, 1269
 659, 1275,  644,  982, 1276
 660, 1251, 1249, 1275, 1207
 661, 1275, 1066, 1249, 1276
 662, 1275,  982, 1066, 1276
 663,  168,  883,  640,  884
 664,  976, 1039,  889,  809
 665,  889,  810,  850,  815
 666,  850,  976, 1039,  889
 667,  853,  818,  886,  169
 668,  889,  815,  850,  851
 669, 1210,  478, 1180,  479
 670, 1277, 1278, 1279, 1280
 671,  889,  851,  885,  814
 672, 1096, 1095,  626,  613
 673, 1096,  638,  886, 1088
 674,  627, 1096,  639,  882
 675,  884,  882,  640,  639
 676, 1096,  882,  852,  884
 677, 1096,  627, 1095,  882
 678, 1179, 1076, 1188, 1182
 679, 1096,  886,  638,  639
 680, 1134, 1135,  123,  122
 681, 1136, 1135,  724, 1116
 682, 1133, 1135,  724, 1136
 683, 1135, 1172,  123,  728
 684, 1113, 1172, 1112,  728
 685, 1172, 1112,  728, 1135
 686, 1135, 1116,  729,  724
 687, 1050, 1094, 1040, 1046
 688, 1040, 1281, 1282, 1260
 689, 1216,  581,  182,  580
 690, 1260, 1040, 1266, 1282
 691, 1283, 1284,  334,  335
 692, 1202, 1281, 1282, 1040
 693,  903,  971,  603,  907
 694,  903,  882,  971,  981
 695,  971,  981,  628,  629
 696,  971,  981,  629,  907
 697,  971,  603,  907,  616
 698,  903, 1262,  844,  602
 699,  603,  899,  590,  904
 700, 1285,  618,  617,  605
 701,  924,  193,  923,  219
 702, 1096,  612,  613,  625
 703,  907,  906,  903,  981
 704,  906,  974,  975,  972
 705,  807,  902,  156,  983
 706,  972,  982, 1064,  981
 707,  906, 1276, 1249,  982
 708,  900, 1249,  906,  901
 709,  906,  901,  899,  900
 710, 1249,  982, 1065,  906
 711, 1066, 1249,  982, 1065
 712,  984, 1249, 1065,  900
 713, 1249, 1065,  900,  906
 714, 1065,  906,  974,  975
 715, 1030, 1038, 1077, 1029
 716, 1104, 1038, 1030, 1037
 717, 1282, 1260,  609, 1266
 718, 1281, 1260,  596, 1282
 719,  322, 1286, 1007,   82
 720, 1282,  609, 1260,  596
 721, 1287,   34,  201,   33
 722, 1176,  407,  434,  433
 723, 1282, 1281,  610,  597
 724, 1219, 1220, 1288,  702
 725, 1219, 1220,  702,  697
 726, 1219, 1221, 1220,  697
 727, 1220, 1217,  891, 1219
 728, 1219,  700, 1289, 1290
 729, 1291, 1292,   90,   89
 730, 1291,  874,  863, 1292
 731, 1291,  863,  355,  356
 732, 1291,  862,  329,  355
 733, 1293, 1294,  382,  863
 734, 1291,  863, 1293, 1292
 735, 1288, 1291, 1293, 1292
 736, 1250,  619,  618,  606
 737,  863, 1294,  382,  356
 738,  935, 1119, 1295,  930
 739, 1121, 1119, 1120, 1091
 740,  923,  926,  245,  246
 741, 1114, 1135, 1136, 1116
 742,  927, 1119,  930,  929
 743, 1290,  117, 1296, 1297
 744,  927,  933, 1091,  929
 745,  447,  367,  104, 1143
 746, 1119,  108,  929, 1091
 747,  651,  936,  448, 1295
 748, 1298,  515,  514,  510
 749, 1295,  930,  649,  650
 750,  449, 1295,  649,  140
 751, 1176,  408,  381,  382
 752, 1119, 1295,  649, 1122
 753, 1295, 1122,  452,  449
 754,  935,  930, 1295,  936
 755, 1295, 1146,  452, 1122
 756,  920,  917, 1103, 1226
 757,  539, 1103, 1129, 1100
 758, 1177, 1299,  708,  703
 759,  814,  885,  889,  813
 760, 1100,  538,  919, 1300
 761,  920, 1103,  917,  919
 762,  920, 1098, 1102,  923
 763, 1100, 1301, 1127, 1300
 764, 1100, 1301, 1102, 1098
 765,  859,  866,  865,  868
 766,  864, 1175,  866,  859
 767, 1299,  869,  870,  868
 768,  869,  876, 1292,  874
 769, 1141, 1013,  738, 1002
 770,  903, 1262,  849,  844
 771, 1001, 1014, 1003, 1015
 772, 1115, 1113,  739, 1141
 773, 1178,  635,  173,    4
 774,  740, 1006,  741, 1115
 775, 1006, 1141, 1115,  739
 776,  997, 1302, 1284,  387
 777,  912, 1302, 1284,  997
 778, 1302,  945,  912, 1303
 779, 1302,  895, 1283, 1222
 780, 1302, 1256,  945, 1257
 781, 1204, 1055, 1304, 1199
 782, 1199, 1056, 1058, 1201
 783, 1061, 1058, 1305, 1227
 784, 1055, 1059, 1304,  918
 785, 1055, 1199,  918, 1304
 786, 1058, 1227,  918, 1203
 787, 1305, 1227,  557, 1061
 788, 1058, 1259, 1305, 1258
 789, 1061, 1058, 1227,  918
 790,  992,  995,  759, 1243
 791,  988,  753,  905,  754
 792, 1240,  508,  503,  504
 793,  992,  987,  991,  755
 794,  988,  990,  905,  998
 795,  992,  758,  754,  759
 796, 1306,  960, 1098, 1160
 797,  246, 1160,  220,  923
 798,  983,  902,  156,  900
 799, 1307,  384,  357,  358
 800, 1306,  923, 1098,  194
 801, 1306, 1160,  220,  221
 802,  989,  990, 1308,  987
 803,  990, 1007, 1005, 1008
 804,  990, 1308, 1007, 1286
 805, 1272,  345,  371,  344
 806,  988,  905,  990,  987
 807,  990,  987,  749, 1008
 808,  749,  990,  905,  987
 809, 1001,  990, 1000, 1006
 810, 1217, 1309, 1223, 1222
 811,  893, 1124,  895, 1123
 812,  893,  895,  947,  894
 813,  945, 1124, 1310,  895
 814, 1302,  895, 1222, 1257
 815, 1302, 1283,  895, 1303
 816, 1302,  895, 1257,  945
 817, 1141,  739, 1002,  738
 818,  845,  589,  588,  154
 819, 1013, 1113,  738,  733
 820, 1013,  733, 1172, 1113
 821, 1013,  427,  125, 1014
 822, 1013, 1172,  124, 1012
 823, 1311, 1307,  383, 1294
 824,  408, 1312,  435, 1311
 825,  984,  900,  797,  901
 826, 1311, 1307,  409,  383
 827, 1311, 1176,  408, 1312
 828,  876, 1313, 1292,  711
 829, 1313,  869,  868,  876
 830,  876,  716,  875,  868
 831,  876,  874,   88,   89
 832,  712,  876,   89, 1292
 833,  876,   89, 1292,  874
 834, 1020, 1025, 1024, 1074
 835, 1270,  784, 1248, 1269
 836, 1020, 1268, 1270, 1070
 837, 1270, 1269,  783,  784
 838, 1074, 1075, 1270, 1269
 839, 1270, 1268,  784,  779
 840, 1270, 1070, 1268,  779
 841, 1038, 1077, 1081, 1093
 842, 1104, 1030, 1192, 1264
 843, 1104, 1030, 1264, 1037
 844, 1038, 1029, 1028, 1032
 845, 1028, 1036, 1038, 1033
 846,  947, 1256,  948,  113
 847, 1256,  414, 1247,  440
 848, 1264, 1191, 1030, 1192
 849, 1302,  945, 1256,  997
 850, 1256, 1247,  945,  948
 851, 1256,  997, 1247,  414
 852,  997,  996,  888,  945
 853,  944,  947,  948,  678
 854,  947, 1257,  439,  438
 855,  944,  847,  945, 1124
 856, 1215,  951,  957, 1161
 857,  950,  959, 1215, 1235
 858,  950,  953, 1215, 1154
 859,  569,  951,  574,  570
 860,  570, 1161,  569,  951
 861,   74,  952,   75,  573
 862,  952,  951, 1107,  574
 863, 1179, 1076, 1187, 1188
 864, 1186, 1079,  286, 1237
 865, 1237, 1187, 1185, 1186
 866, 1186, 1187, 1181, 1193
 867,  880,  505,  504,  500
 868, 1192,  465,  461,  466
 869, 1186, 1079, 1193,  312
 870,  628,  616,  971,  629
 871, 1142,  402,  428, 1016
 872, 1016, 1012,  427,  428
 873, 1016, 1314,  375, 1017
 874, 1011, 1314, 1016, 1017
 875, 1016, 1142, 1012,  428
 876, 1014,  427, 1016, 1012
 877, 1162, 1170, 1148, 1171
 878, 1162,  369, 1163, 1157
 879, 1162, 1171, 1158, 1163
 880, 1162, 1166,  317, 1315
 881, 1150, 1162, 1171, 1158
 882, 1162, 1315, 1157, 1166
 883,  867,  495, 1027,  496
 884,  978,  492,  897, 1027
 885,  867,  494, 1027,  495
 886,  494, 1027,  490,  999
 887,  467, 1242,  471, 1197
 888,  999, 1027,  490, 1054
 889,  979,  962, 1027,  896
 890,   17,  934,  290,  264
 891,  934,   16,  264,   17
 892,  910,  908,  875,  721
 893,   16,   15,  184,  934
 894,  934,  958,  264,  265
 895,  934,  290,  958,  955
 896,  950,  954,  934,  955
 897,  934,  264,  958,  290
 898, 1001, 1019, 1015, 1003
 899,  641,  882,  981,  628
 900, 1007,  322, 1267, 1017
 901, 1007, 1001, 1011, 1009
 902, 1007, 1008, 1009,  746
 903,  747,  746, 1005, 1007
 904,  990, 1007, 1019, 1286
 905,  990,  744, 1000, 1006
 906, 1007, 1019, 1286, 1017
 907, 1001, 1007, 1006, 1009
 908, 1301, 1160,  960, 1316
 909, 1301, 1317, 1098, 1128
 910, 1301, 1126, 1127, 1300
 911, 1301, 1126, 1316, 1130
 912, 1214, 1318,  225, 1319
 913, 1214, 1320, 1319, 1278
 914, 1214, 1320, 1321, 1240
 915, 1214, 1321, 1322, 1323
 916, 1216,   13,  582,  183
 917, 1107, 1216, 1108,  580
 918, 1216,  182,   12,   13
 919, 1216, 1108,  580,  182
 920, 1216,  582,   12,  581
 921, 1109, 1240, 1239, 1298
 922,  879, 1109,  878,  967
 923, 1109, 1240, 1323,  858
 924, 1109, 1318, 1287, 1110
 925, 1109,  967, 1287,  878
 926, 1320, 1240,   61, 1321
 927, 1277, 1278, 1319, 1320
 928, 1320, 1324, 1325, 1298
 929, 1320,  508, 1240, 1298
 930, 1320, 1326, 1279, 1321
 931, 1320,   62, 1326, 1321
 932, 1326, 1325,  513, 1320
 933,  518, 1326, 1325,  513
 934, 1216,  183, 1108,  182
 935, 1216,  952, 1108,  954
 936, 1212,  184,   14,  186
 937, 1212,    2,  186,   14
 938, 1212,  954,  184,  212
 939, 1212,   19,  186,    2
 940,  187,   20, 1212, 1154
 941, 1212,  954,  212, 1154
 942, 1212,  187, 1154,  186
 943, 1324, 1298, 1327, 1239
 944, 1324, 1327,  517,  512
 945,  511, 1324,  512, 1239
 946, 1324, 1328,  517, 1327
 947, 1324,  512, 1239, 1327
 948, 1320, 1324, 1328, 1325
 949, 1324, 1298,  515, 1325
 950, 1318, 1213,  200, 1287
 951, 1214, 1318, 1213,  226
 952, 1109, 1287, 1318, 1327
 953, 1214, 1110, 1109, 1323
 954, 1318, 1110, 1213, 1287
 955,  952,  949, 1107,  951
 956,  949,  953, 1215,  950
 957,  958,  957,   74,  291
 958,  956,  265,  958,  959
 959,  956,  959,  266,  265
 960,  934,  959,  265,  239
 961,  934,  954,  212,  184
 962,  956,  957,  291,  292
 963, 1280,  198,  943, 1277
 964,  224,  943,  942, 1280
 965,  983,  807,  902,  973
 966, 1280,  942,  224,  250
 967, 1280, 1278, 1319, 1277
 968, 1279,  942,  941, 1280
 969,  922, 1279,  940,  941
 970, 1280, 1279,  250, 1278
 971,  366,  393, 1143, 1144
 972, 1133, 1329, 1134, 1136
 973, 1145, 1146,  101,  936
 974, 1145,  447,  341, 1146
 975,  340,  100, 1159, 1145
 976, 1146, 1143, 1145,  447
 977, 1027,  911,  496,  497
 978, 1027,  492,  896,  911
 979,  867, 1027,  999,  962
 980,  867, 1027,  911,  496
 981, 1311, 1297, 1307, 1330
 982, 1311,  382, 1176, 1293
 983, 1293, 1311, 1294, 1330
 984, 1311, 1307, 1331,  409
 985, 1307, 1297, 1331, 1330
 986, 1307, 1331,  409,  410
 987, 1311,  382, 1293, 1294
 988, 1297,  409,  435, 1311
 989, 1053,  483, 1054, 1332
 990,  484,  483, 1054, 1053
 991, 1210, 1332, 1053, 1230
 992,  983,  802,  156,  807
 993, 1210, 1180, 1230, 1052
 994, 1182, 1210, 1052, 1180
 995, 1210,  479, 1180, 1182
 996,  227, 1287,  201,  200
 997, 1224,  980, 1052, 1053
 998, 1250,  632,  631,  619
 999, 1053,  481,  485,  480
1000, 1224,  980,   39, 1184
1001, 1182, 1225, 1184, 1224
1002,  481, 1224, 1225, 1182
1003,  486,  481,  485, 1053
1004, 1266,  622,  609,  610
1005, 1224,  978,  980, 1053
1006, 1224,  978,  486,  487
1007, 1249,  984,  986,  985
1008, 1249, 1251, 1276, 1250
1009, 1249, 1285, 1250, 1276
1010, 1272, 1171, 1274, 1273
1011, 1249,  982, 1276, 1066
1012, 1279, 1321,  303,  277
1013, 1100, 1300,  533,  538
1014, 1300, 1102,  299,  298
1015, 1126, 1300,  299,   66
1016, 1300,  921, 1102,  298
1017, 1300, 1127,  533,   66
1018, 1058, 1258, 1305, 1201
1019,  190, 1258, 1200, 1201
1020, 1200,  871, 1056, 1258
1021, 1259, 1057, 1333, 1056
1022, 1258, 1201,  190,   23
1023, 1258, 1200,  871,  189
1024,  873, 1333, 1258,  567
1025,  873, 1153,  871, 1258
1026, 1179, 1181, 1180,  938
1027, 1179, 1180, 1052,  938
1028, 1210, 1053, 1052, 1230
1029, 1180,  474, 1182,  479
1030, 1180, 1182,  474, 1181
1031, 1180,  478, 1230,   55
1032,  893, 1123,  684,  685
1033, 1124, 1123,  685,  881
1034,  971,  616,  615,  603
1035,  675,  674, 1124,  847
1036,  895, 1124, 1310,  881
1037,  893,  947,  683,  894
1038,  863,  859,  860,  869
1039,  866,  908,  865,  868
1040,  910,  914,  875,  866
1041,  909, 1136,  866,  908
1042,  862,  861,  859, 1175
1043,  864, 1329,  866, 1175
1044,  922,  301,  300,  274
1045, 1132,  922,   64,  300
1046, 1280,  943,  941, 1277
1047, 1075,  162,  163,  646
1048, 1320, 1326, 1325,  941
1049, 1326,  518, 1132,   63
1050, 1140,  931, 1211, 1334
1051, 1189,  933, 1211,  931
1052, 1209, 1189,  931, 1335
1053,  927, 1091,  935, 1119
1054,  932,  933,  931, 1138
1055,  928,  937,  931, 1335
1056,  927,  933,  928,  931
1057,   31, 1277,   30,  198
1058, 1214, 1109, 1298, 1240
1059, 1223,   93,   94,  334
1060, 1214,  226, 1213,  252
1061, 1318, 1327,   33,   32
1062, 1318, 1287,   33, 1327
1063, 1214, 1109, 1327, 1298
1064, 1214, 1318, 1319, 1327
1065, 1328, 1320,  941, 1277
1066, 1277, 1336,  522,  527
1067,  961,  979,  965,  966
1068, 1179, 1052, 1231,  938
1069, 1053, 1230, 1332, 1232
1070, 1179, 1184, 1052, 1182
1071, 1231, 1052, 1230,  938
1072, 1232, 1052, 1231, 1051
1073,  980, 1183, 1052, 1051
1074, 1224, 1053, 1052, 1182
1075,  935, 1144, 1120, 1091
1076,  928, 1189,  665, 1335
1077, 1143, 1120,  935, 1144
1078, 1146,  341,  101,  102
1079, 1143, 1146, 1120,  447
1080, 1146,  446,  102,  101
1081, 1146, 1120,  447,  452
1082,  573,  957,   74,  952
1083,  934,  959,  239, 1154
1084,  950, 1215,  959, 1154
1085,  955,  185,  954,  180
1086,  955,  181, 1108,  185
1087,  958,   75,  955,  290
1088, 1086,  837, 1094,  841
1089, 1044, 1086, 1042, 1050
1090, 1092, 1040, 1202, 1088
1091, 1085,  149, 1092, 1089
1092, 1044,  831, 1086,  836
1093,  837, 1089, 1085, 1086
1094,  445, 1120,  419, 1091
1095, 1121, 1120, 1122,  450
1096,  448,  652,  446, 1146
1097,  935, 1146, 1295, 1122
1098, 1144, 1120,  419,  393
1099, 1144,  366, 1145, 1143
1100, 1120,  452, 1122,  450
1101, 1337, 1004, 1308,   80
1102, 1221,  895,  881, 1123
1103, 1123, 1221,  685,  881
1104,  891, 1123,  690,  689
1105,  881, 1124,  680,  685
1106,  895,  891, 1221, 1223
1107, 1164, 1071, 1022, 1150
1108, 1150, 1171, 1245, 1158
1109,  371, 1274, 1272,  370
1110, 1274, 1171, 1169, 1273
1111, 1241, 1049, 1056, 1057
1112, 1273, 1169,  993, 1171
1113,  993,  991,  992,  988
1114, 1128,  536,  532,  537
1115, 1274, 1171, 1245, 1169
1116, 1162, 1163,  369,  370
1117,  319, 1170,  345, 1271
1118, 1178,    4,  838,  143
1119, 1271, 1286,  321, 1308
1120,  989, 1272,  372, 1273
1121, 1170,  345, 1271, 1272
1122, 1271, 1286, 1228,  347
1123, 1271,  998, 1286, 1308
1124, 1271,  998,  989, 1228
1125, 1003,  425,  126,  127
1126, 1252,  620,  633,  632
1127, 1059,  916,  918, 1055
1128,  925, 1203, 1199,  918
1129,  973,  155,  812,  807
1130,  918,  925, 1304, 1199
1131,  915,  918, 1338,  916
1132, 1059,  918, 1338, 1304
1133,  982,  643, 1276,  644
1134,  906,  982,  981, 1276
1135,  972,  849,  883,  976
1136, 1275,  164,  982,  644
1137,  164,  165,  793, 1066
1138,  982,  981,  643, 1064
1139,  950,  956,  959, 1235
1140,  934,  955,  180,  290
1141,  953,  582, 1216,  949
1142,  952,  957,   74,  958
1143,  924,  923,  925,  219
1144,  954,  949, 1216,  952
1145,  955,  954,  185, 1108
1146, 1227, 1062, 1061,  918
1147, 1259, 1061,  555, 1057
1148, 1227, 1062, 1226,  552
1149,  889,  851,  814,  815
1150,  850,  816,  851,  815
1151,  983,  975, 1039,  973
1152,  873, 1333,  571,  951
1153,  856,  962,  963,  857
1154,  857,  962,  963,  879
1155,  962,  856,  965,  999
1156,  963,  857,  969,  856
1157,  963,  970,  911,  961
1158,  969,  964,  307,  281
1159,  969,  964,  965,  307
1160,  886, 1041,  638,  170
1161,  878,  505,  500,  501
1162,  626, 1096,  627, 1095
1163, 1250,  618,  619,  631
1164,  579, 1106,   10,  580
1165, 1096,  884,  886,  639
1166,  882, 1096,  639,  884
1167, 1330, 1297, 1296, 1293
1168, 1217, 1309, 1330, 1220
1169,  994,  129,  423,  128
1170, 1331, 1309, 1330, 1261
1171, 1219, 1220, 1330, 1288
1172, 1339, 1330, 1309, 1220
1173,  896,   37,  205,  204
1174,  927,  928,  930,  937
1175,  928,  659,  929,  654
1176,  933,  108,  443, 1091
1177,  927, 1119,  935,  930
1178,  928,  930,  655,  654
1179,  927, 1119,  929, 1091
1180,  659,  933,  658, 1189
1181, 1218,  895, 1257, 1222
1182,   92, 1223,  697, 1220
1183, 1223, 1217,  891, 1220
1184, 1024,  163,  645,  646
1185, 1223, 1220, 1221,  697
1186, 1223,  333, 1283,  359
1187, 1223, 1283,  333,  334
1188, 1223, 1283,  334,   94
1189,  895, 1222, 1223, 1283
1190, 1098, 1229,   28,   27
1191,  968,  229,  255,  228
1192, 1223,  359, 1222, 1309
1193,  881, 1223,   94, 1283
1194, 1326,  303, 1321,   62
1195,  482, 1184, 1225, 1224
1196, 1258, 1333,  873, 1153
1197, 1224, 1052, 1184, 1182
1198, 1179, 1185, 1184, 1187
1199,  907,  616,  603,  604
1200,  206, 1184,  980, 1183
1201, 1200,  241, 1235,  215
1202, 1185, 1233, 1179, 1183
1203,  632, 1024, 1252, 1251
1204,  959,  266,  239,  240
1205, 1296,  704, 1289, 1313
1206, 1296, 1289,  699, 1290
1207, 1023,  368, 1157,  394
1208, 1023,  342, 1255, 1157
1209, 1255,  137,  136, 1023
1210, 1023,  977,  634,  134
1211, 1068,  394, 1023, 1157
1212, 1025,  621, 1023,  634
1213, 1025, 1023, 1020,  977
1214, 1066,  164,  163,  788
1215,  903,  972,  906,  902
1216,  854,  850,  845,  817
1217,  976,  883,  808,  889
1218,  804,  809,  805, 1039
1219,  975, 1065,  800,  799
1220, 1033,   48,  289,  263
1221,  983, 1065,  801,  800
1222, 1064,  974,  803,  982
1223,  803,  883,  808,  976
1224,  849,  889,  976,  850
1225,  984, 1065,  795,  800
1226,  984,  801, 1065,  800
1227,  983,  984,  797,  801
1228,  797,  983,  802,  900
1229,  984,  985,  901,  797
1230,  985,  791, 1205,  792
1231,  984,  985,  797,  792
1232,  942,  276,  250, 1279
1233, 1214, 1318, 1110, 1213
1234, 1214, 1240, 1321, 1323
1235, 1321, 1323,   61,  304
1236, 1214, 1322, 1321, 1278
1237,  620,  633,  621, 1025
1238, 1320, 1324, 1327, 1328
1239, 1071, 1244,  768, 1072
1240, 1150, 1022, 1164, 1255
1241, 1168, 1244,  764, 1149
1242, 1071,  769, 1244, 1167
1243, 1020, 1070, 1270, 1069
1244, 1069, 1020, 1022,  977
1245, 1025, 1073, 1021,  608
1246, 1067,  178, 1069,    8
1247,  133, 1069, 1068,  977
1248, 1270, 1069, 1070,  778
1249, 1069,  178, 1070,  778
1250,  977, 1069, 1075,  647
1251, 1069,  977,  133,  647
1252, 1125,  523, 1131,  524
1253, 1103,  545,  541,  546
1254,  540, 1099,  536, 1129
1255, 1129,  530,  529, 1128
1256, 1100, 1127, 1301, 1129
1257, 1301, 1129, 1128, 1099
1258, 1100, 1129, 1301, 1099
1259, 1125, 1126, 1127, 1129
1260, 1129,  531,  535,  530
1261, 1129, 1128, 1099,  536
1262, 1095,  601,  614,  613
1263, 1193, 1187, 1181, 1194
1264, 1197, 1236,   42, 1191
1265, 1175,  861,  859,  864
1266,  914,  866, 1175,  862
1267,  860,  862,  381,  380
1268,  914,  353,  862, 1175
1269, 1056, 1058, 1259, 1057
1270, 1057, 1333, 1056, 1153
1271, 1259,  555, 1061,  556
1272,  565, 1057, 1333,  560
1273, 1057, 1333,  560, 1259
1274, 1062,  556, 1061,  555
1275, 1199, 1058, 1203, 1201
1276, 1259, 1258,  562, 1305
1277, 1259, 1061, 1305,  557
1278, 1044,  829, 1045,  830
1279, 1044,  830, 1045,  831
1280, 1089, 1040, 1042, 1086
1281, 1092, 1040, 1042, 1089
1282, 1042, 1089, 1085, 1092
1283, 1251,  644,  631,  632
1284,  904,  589,  155,  590
1285,  993,  995, 1169,  994
1286, 1274, 1245,  422, 1169
1287, 1168,  763, 1245, 1169
1288, 1168,  768, 1245,  763
1289, 1245,  421, 1072, 1158
1290, 1302, 1256,  413,  997
1291, 1222,  360, 1283, 1284
1292, 1222,  385, 1218, 1309
1293,  877,  586,  598,  585
1294, 1222,  359, 1283,  360
1295, 1222, 1218,  412, 1257
1296, 1104,  143,  144,  453
1297,  898,  966,  896,  231
1298,  385, 1218,  412, 1222
1299,  909, 1114, 1136, 1116
1300,   81,   80,  321, 1308
1301,  568, 1048,  957, 1161
1302, 1048, 1161,  568,  563
1303,  956,  293,  292,  266
1304, 1224,   39,  980,   38
1305,  957, 1235, 1215, 1048
1306, 1234, 1048,  293, 1049
1307, 1241, 1048, 1049,  563
1308,  997,  415,  388,  389
1309, 1283,  335,   94, 1303
1310, 1217, 1222, 1218, 1309
1311,  334, 1283,  335,   94
1312, 1302, 1283, 1303, 1284
1313, 1217, 1290, 1330, 1261
1314,  985,  901,  797,  157
1315,  985,  158,  901,  157
1316, 1252,  632,  619,  620
1317,  792,  984,  985,  791
1318,  985,  158, 1206,  901
1319,  985, 1073,  158,  159
1320, 1206, 1252,  606,  607
1321, 1206, 1252,  607, 1073
1322,  977,  647,  134,  133
1323, 1207, 1205,  986, 1074
1324, 1248, 1205, 1246, 1074
1325, 1199, 1304, 1204,  243
1326, 1204,   70,  294,  295
1327, 1234, 1204,  241, 1200
1328, 1199, 1200, 1056, 1201
1329, 1199, 1204, 1200,  242
1330, 1234, 1204, 1049,  294
1331, 1209,  670, 1208,  665
1332, 1140,  946,  847,  996
1333, 1287,  200,   33,  201
1334, 1208,  669,  847,  946
1335,  670,  847,  848, 1208
1336,  668, 1208, 1189,  946
1337, 1282,  597,  610,  609
1338, 1208,  946,  668,  669
1339, 1209, 1189,  665, 1208
1340,  988,  992,  754,  987
1341, 1004,  991,  757,  762
1342,  987,  757,  991,  756
1343,  993, 1151,  991,  989
1344,  989,  987, 1004,  991
1345,  987,  756,  991,  755
1346,  633,  621, 1025,  634
1347, 1040, 1094, 1086, 1089
1348, 1081, 1038, 1094, 1265
1349, 1101,  148, 1094, 1265
1350, 1094, 1265,  148, 1089
1351, 1086, 1094,  837, 1089
1352, 1094,  149,  842,  837
1353,  992,  991, 1243,  760
1354, 1168,  764,  995, 1243
1355,  988, 1018,  905,  994
1356,  758,  988,  753,  994
1357,  758,  995,  992,  988
1358,  992, 1243,  759,  760
1359, 1255, 1026,    5,  137
1360, 1022,  137, 1021, 1026
1361, 1166, 1165, 1255, 1164
1362, 1022, 1255,  137, 1026
1363, 1255, 1157,  342, 1315
1364, 1255, 1157, 1315, 1166
1365, 1063,   71,   70,  553
1366, 1067, 1069,  178, 1070
1367, 1070, 1020, 1022, 1069
1368, 1020, 1268, 1070, 1253
1369,  910,  722,  726,  721
1370, 1340,   41,  208,   40
1371, 1270, 1070,  779,  778
1372, 1070,  779,  176, 1268
1373, 1070, 1268,  176, 1253
1374, 1308, 1337,  320, 1271
1375,  890,  894,  683,  688
1376,  890,  893,  684,  683
1377, 1217, 1330, 1309, 1261
1378,  890, 1123,  891,  689
1379,  894, 1217, 1261,  892
1380,  115, 1261,  688,  894
1381, 1261,  688,  894,  892
1382,  869, 1296, 1312, 1293
1383, 1296,  699, 1289,  704
1384, 1289, 1290,  700,  699
1385, 1289, 1313,  706, 1292
1386,  706, 1288,  702, 1289
1387,  869, 1292, 1289, 1293
1388, 1217, 1290, 1219, 1330
1389, 1219, 1289, 1330, 1290
1390,  971,  882, 1262,  628
1391, 1262,  844,  602,  601
1392, 1262,  601, 1095,  844
1393, 1262,  882,  627,  628
1394, 1262, 1095,  627,  882
1395,  571,  873,  572,  567
1396,  993, 1168,  995, 1243
1397,  988,  905,  987,  754
1398,  993, 1169, 1168, 1245
1399, 1285, 1250,  605,  901
1400,  899,  604, 1285,  907
1401, 1285,  630, 1276,  907
1402,  877,  599,  598,  586
1403, 1024, 1207, 1075, 1074
1404, 1276, 1251, 1249, 1275
1405,  647,  977, 1024, 1075
1406, 1025, 1074, 1252, 1024
1407, 1205, 1206, 1073, 1074
1408, 1025, 1021,  621,  608
1409, 1025,  633, 1024, 1252
1410, 1024, 1075,  646,  647
1411, 1250,  619, 1252,  632
1412, 1250,  606, 1252,  619
1413, 1285,  604,  901,  605
1414, 1285, 1250, 1276,  631
1415, 1206, 1073, 1074, 1252
1416, 1251, 1276,  631,  644
1417, 1207,  985, 1249,  986
1418, 1275,  163, 1269, 1066
1419, 1206,  901,  605, 1250
1420, 1249, 1250, 1285,  901
1421, 1142, 1173,  402,  403
1422, 1314, 1142, 1341, 1011
1423, 1142,  350, 1314, 1341
1424, 1142,  376, 1314,  350
1425, 1342, 1173, 1142,  403
1426, 1114, 1011, 1117, 1341
1427, 1342, 1155, 1142, 1173
1428, 1329, 1342, 1173, 1155
1429,  911,  867,  879,  962
1430,  867,  880,  499,  500
1431,  880,  503,  858,  498
1432,  880,  878, 1239,  505
1433,  878, 1239,  505,  506
1434,  878, 1239,  506,  507
1435,  867,  878,  501,  911
1436, 1117, 1341,  324,  325
1437, 1114, 1173, 1172, 1012
1438, 1111,  737, 1010,  736
1439, 1117, 1341,  325,   85
1440, 1011, 1117, 1314, 1010
1441, 1117, 1314, 1010,  324
1442, 1114, 1142, 1155, 1173
1443, 1131, 1130, 1128, 1343
1444, 1343, 1317, 1130, 1128
1445, 1116, 1136,  908,  724
1446, 1128, 1317,  532, 1343
1447,  536,  531,  535, 1129
1448, 1129,  534, 1127,  529
1449, 1131, 1343,  530,  525
1450,  920, 1103, 1100, 1099
1451, 1068,  134, 1023,  394
1452,    8,  133, 1069, 1068
1453, 1068, 1158,  394, 1157
1454, 1245,  131, 1072,  421
1455, 1072,  420, 1158,  421
1456,  977, 1069, 1068, 1022
1457, 1067,  178, 1071, 1070
1458,  879,  968, 1110,  967
1459,  867,  911,  501,  496
1460,   59,  306,  858,  856
1461, 1109, 1110, 1287,  967
1462,  879,  967,  878,  911
1463,  962,  867, 1027,  911
1464,  857,  999,  493,  856
1465,  856,  858,  857,  969
1466,  858,   59,  856,  498
1467,  857,  493,  999,  494
1468,  867,  857,  999,  494
1469,  815,  816,  851,  855
1470,  305,  858,  306,  969
1471,  969,  964,  281,  255
1472, 1213,  968,  967, 1110
1473,  968,  254, 1110,  253
1474,  969, 1110,  279,  305
1475,  879, 1109,  967, 1110
1476, 1173,  402,  403,  429
1477, 1049,   70,  294, 1204
1478, 1038, 1101, 1094, 1265
1479, 1316,  274, 1344,  248
1480, 1046, 1093, 1050, 1094
1481, 1266, 1260, 1033, 1081
1482, 1328,  516,  517,  521
1483, 1104, 1038, 1101, 1093
1484, 1101,    3, 1036, 1037
1485, 1104,  457, 1101, 1037
1486, 1075,  162,  161,  778
1487,  231,  980,  966, 1051
1488, 1179, 1231, 1052, 1233
1489, 1183, 1233, 1051,  258
1490,  963,  961,  962,  965
1491,  844,  845,  588,  587
1492, 1179, 1052, 1183, 1233
1493,  979, 1052, 1232, 1051
1494,  122, 1329,  430, 1134
1495,  908,  725, 1116,  724
1496, 1202, 1088,  624,  611
1497,  611, 1088, 1092, 1202
1498, 1342, 1156,  352, 1155
1499, 1088, 1041, 1042, 1040
1500,  637, 1047, 1041, 1088
1501, 1040, 1266, 1202, 1047
1502, 1202,  610, 1281, 1092
1503, 1331, 1261,  436,  437
1504, 1050,  835,  839,  834
1505, 1331, 1218,  385, 1309
1506, 1218,  438, 1257,  894
1507, 1218, 1257,  438,  412
1508, 1307,  358, 1339, 1309
1509,  892,  895,  894, 1217
1510, 1331, 1309,  385,  384
1511, 1134, 1172, 1135, 1136
1512, 1112,  729, 1113,  728
1513, 1112,  729, 1135, 1116
1514, 1134, 1329, 1173, 1136
1515, 1172, 1113,  733,  728
1516, 1013,  124, 1172,  733
1517, 1020, 1026, 1254, 1253
1518, 1108,  185,  181,  182
1519, 1020, 1074, 1075, 1270
1520, 1345,  197,  196,   29
1521, 1205, 1207,  986,  985
1522, 1268,  784,  780, 1248
1523, 1270, 1268, 1248,  784
1524, 1270, 1075,  778,  783
1525, 1268, 1248,  780,  781
1526, 1268,  175,  780,  176
1527, 1238, 1195, 1030, 1196
1528, 1131, 1132,  518,  523
1529,   52,   51, 1078, 1195
1530, 1035, 1082, 1031, 1030
1531, 1162,  343, 1315,  317
1532, 1080, 1078, 1079, 1190
1533, 1195, 1194,  464,  465
1534, 1192, 1194, 1195,  465
1535, 1194, 1191, 1242, 1192
1536, 1238,  459, 1195,  458
1537, 1004,  991,  762, 1151
1538,   63,  922, 1132, 1326
1539, 1168,  995,  763, 1169
1540,  905,  753,  994,  128
1541,  993,  989,  994, 1273
1542,  988,  905, 1018,  998
1543, 1273,  989, 1228,  372
1544,  993, 1170, 1151,  989
1545, 1075,  162,  646,  647
1546, 1170,   78,  319,  318
1547, 1272,  370, 1171,  344
1548, 1282, 1266,  609,  610
1549,  149, 1089,  584, 1092
1550, 1032,   49,  622,  635
1551, 1260, 1036,   45,   46
1552, 1260, 1036,   46,   47
1553, 1282, 1281, 1202,  610
1554, 1040, 1202, 1281, 1092
1555, 1087,  877, 1090,  843
1556, 1100,  539,  919,  538
1557, 1125,  529, 1127,  528
1558,  919, 1300,   67,  921
1559,  919,   67, 1300,  538
1560,  919,  921,   68, 1338
1561,  919,  921,   67,   68
1562, 1126, 1344,  300,  299
1563,  540,  539, 1103, 1129
1564, 1328,  521, 1336,  520
1565,  529, 1128, 1125, 1129
1566, 1336,  521,  526,  525
1567, 1336, 1343,  526,  527
1568, 1047,  636,  173,  635
1569, 1179, 1184, 1188, 1187
1570, 1180, 1052,  938, 1230
1571, 1182,  480,  479,  475
1572, 1188, 1182,  476, 1225
1573, 1076, 1188,  476,  471
1574,  853,  813,  885,  818
1575, 1202, 1047,  636,  637
1576,  877, 1092, 1087, 1090
1577, 1087, 1088,  886, 1041
1578,  612, 1088, 1087,  611
1579, 1088, 1041,  637,  638
1580, 1087,  852, 1096, 1095
1581,  937,  661,  660,  656
1582,  954,  180,  185,  184
1583,  979,  980, 1051,  966
1584,  964,  963,  255,  969
1585, 1260,   46,  596,   47
1586,  978,  897,  492,  487
1587,  979,  978, 1027, 1054
1588, 1212,  183,   14,  184
1589, 1331,  384,  385,  411
1590,  832,  151, 1090,  150
1591,  276,  940,  942,  249
1592, 1027,  490,  978,  491
1593, 1224,  897,  487,   38
1594, 1224,  487,  486,  482
1595, 1097, 1227,  552,   26
1596, 1053,  485, 1054,  484
1597,  979,  962,  965,  999
1598, 1277,  198,  943, 1345
1599, 1188,  476,  477, 1225
1600,  880,  504,  499,  500
1601, 1145,  341,  367,  340
1602,  979,  999, 1027,  962
1603, 1238,  458,  453,  454
1604, 1017,  322,  349,  348
1605, 1010,  737,   84,  742
1606, 1186,  285, 1233,  286
1607,  480,  479, 1053, 1182
1608, 1190, 1197, 1194, 1191
1609, 1192,  466, 1194,  465
1610,  966,  230,  257,  256
1611, 1194, 1181,  469,  470
1612, 1080, 1193,   53,  468
1613, 1190, 1082, 1198, 1236
1614, 1228,  424,  398,  425
1615, 1000,  748,  743,  744
1616, 1216,  954, 1108,  183
1617, 1107,  949, 1216,  581
1618,  182,  580,  181, 1108
1619, 1096,  639,  638,  626
1620, 1278,  224,  251,  250
1621, 1106,   75,  952,  578
1622,  905,  994, 1018,  128
1623, 1106,  580, 1107, 1108
1624, 1212,   19,   20,  187
1625,  940, 1279,  942,  941
1626, 1198, 1237,  235,  261
1627, 1160,  960,  222,  221
1628, 1215,  950,  951,  949
1629,  950,  952,  958,  957
1630,  189,  873,   21,  871
1631, 1258, 1201,   23, 1305
1632, 1212,  186, 1154,  212
1633,  934,  954, 1154,  212
1634,  997,  389,  388,  362
1635,  952,  955, 1108,  954
1636, 1338,  270,  271,  297
1637, 1140, 1247,  111,  946
1638, 1062, 1227, 1226,  918
1639, 1049, 1055, 1204, 1056
1640, 1338,  916,   69,   68
1641, 1059, 1304,  296,  295
1642, 1338,  926,  271,  925
1643,  958,  290,  264,  291
1644,  980,   38,   39,  206
1645,  915,  921,  919, 1338
1646, 1035,   43,  211,  210
1647,  956, 1048, 1234, 1235
1648,  915, 1338,  925,  926
1649,  915,  921, 1338,  926
1650,  969,  280,  254,  281
1651, 1338,  925,  270, 1304
1652, 1131, 1336,  520, 1325
1653, 1214, 1323, 1322,  252
1654,  918, 1338, 1304,  925
1655, 1025,  608,  620,  607
1656, 1073,  595,  594,  160
1657, 1059,  553, 1063,   70
1658, 1133,  724, 1135,  723
1659, 1170,  345,  318,  319
1660,  149, 1089, 1094,  148
1661, 1274,  370,  371,  397
1662, 1332,   57,  483,  488
1663,  917, 1062,  551, 1226
1664,  864, 1329,  430,  122
1665, 1062, 1060,  550,  555
1666, 1060, 1063,  554, 1057
1667, 1114, 1136, 1173, 1155
1668, 1188,  472,  477,  476
1669, 1017, 1001, 1011, 1007
1670, 1117,  324, 1010,   84
1671, 1192,  465, 1195,  460
1672, 1314,  323, 1010,  324
1673, 1011, 1114, 1012, 1142
1674,  994, 1169,  423,  129
1675, 1313, 1292,  711,  706
1676, 1314, 1017, 1010,  323
1677, 1016, 1017,  375, 1015
1678, 1011, 1114, 1141, 1113
1679,  860, 1176,  869, 1177
1680, 1296, 1313, 1299,  704
1681, 1313,  709, 1299,  704
1682, 1313,  709,  868, 1299
1683,  876,  868, 1313,  711
1684, 1289, 1292,  706, 1288
1685, 1109, 1327, 1298, 1239
1686, 1109,  858, 1323, 1110
1687,  963,  962,  856,  965
1688, 1162,  370,  369,  343
1689, 1240,  858,  503,   60
1690, 1240, 1323,  858,   60
1691, 1189,  933,  658, 1211
1692,  442, 1334,  441,  110
1693, 1335,  665,  660,  661
1694, 1334,  441,  110, 1211
1695,  883,  641,  167,  168
1696, 1277, 1328,  522, 1336
1697, 1211,  668,  111,  663
1698,  253, 1110,  252,  279
1699, 1140,  111, 1247,  441
1700, 1189,  946, 1211,  668
1701, 1107,  575,  576,  580
1702,  934,  180,  184,   16
1703, 1280, 1278,  250,  224
1704, 1140, 1211,  441, 1334
1705,  928,  930,  937,  655
1706,  290,  179,   18,   75
1707,  959, 1154,  213,  239
1708, 1295,  139,  651,  650
1709, 1295, 1122,  449,  649
1710, 1295,  936,  930,  651
1711, 1324, 1298,  510,  515
1712,  937,  930,  936,  656
1713,  935, 1119, 1122, 1295
1714, 1239,  511,  507,  512
1715,  937,  930,  656,  655
1716,  883, 1064,  803,  167
1717, 1302, 1284,  387,  386
1718,  845,  849,  903,  973
1719, 1302,  412,  386,  413
1720,  200, 1213,  227, 1287
1721,  903,  602,  904,  603
1722,  899,  907,  903,  603
1723,  904,  973,  155,  154
1724,  902,  904,  155,  590
1725, 1224,  481, 1053, 1182
1726,  904,  899,  590,  902
1727,  904,  845,  973,  154
1728,  107, 1091, 1119, 1121
1729, 1051,  257,  258,  284
1730, 1038, 1265, 1260, 1036
1731,  233, 1185,  260,  234
1732, 1121, 1091,  445,  107
1733,  927,  939,  937,  936
1734,  371, 1273, 1274,  397
1735, 1121, 1119, 1122, 1120
1736,  967,   34,   35,  202
1737,  142,  648,  449,  450
1738, 1209,  666,  671,  670
1739,  967,  228,  201,  202
1740, 1295,  448,  139,  140
1741,  648,  449,  450, 1122
1742, 1119,  929,  108,  653
1743,  935, 1120, 1146, 1122
1744,  880, 1109, 1239,  878
1745, 1295, 1146,  936,  448
1746,  652,  138,  446,    6
1747, 1295,  452, 1146,  448
1748, 1247,  389, 1137,  415
1749,  943,  941, 1130,  940
1750, 1208,  665,  670,  669
1751,  969, 1110,  305,  858
1752, 1224,   39,  482, 1184
1753,  897,  980, 1224,  978
1754, 1053,  978, 1054,  485
1755,  225, 1319,  224, 1278
1756, 1214, 1318,  226,  225
1757, 1182,  476,  481,  480
1758,  196, 1345,  960,  943
1759, 1185, 1186, 1233, 1237
1760,  697,  701, 1219,  696
1761, 1345,  960,  943, 1316
1762, 1280,  943,  198,  224
1763, 1319,  224, 1278, 1280
1764, 1008,  745,  750,  749
1765, 1028, 1034,  237,  263
1766,  933, 1334, 1138,  417
1767, 1138,  364, 1083,  365
1768,  931, 1137, 1138, 1334
1769, 1140, 1137,  931, 1334
1770, 1126,  299, 1300, 1344
1771,  938,   53,  311,  312
1772, 1080,  468,  463,  464
1773,  932, 1138, 1139,  365
1774,  871, 1263,  188, 1200
1775, 1209,  931, 1139, 1335
1776, 1209, 1139,  667, 1335
1777,  338,  365, 1139, 1083
1778,  672, 1209,  887,  667
1779,  848,  888,   96,   97
1780, 1209,  848,  671,  672
1781,  670,  671,  848,  847
1782, 1235,  214,  959, 1263
1783,  578,   75,    1,  179
1784,  848,  888,  887,  996
1785,  943,  223,  197,  224
1786,  848,  887,   97,  672
1787, 1088,  612,  625,  624
1788,  493,  498,  857,  856
1789, 1051, 1231,  284, 1233
1790, 1230, 1232, 1052, 1231
1791, 1277, 1319,  198,   31
1792,  181,  580,   11,   10
1793, 1305,   24,   23,  562
1794, 1186, 1079,  312,  286
1795,  980, 1183,  232,  206
1796, 1233, 1231,  284,  285
1797,   18,   75,  179,    1
1798,  290,  180,   18,  179
1799, 1179, 1186, 1187, 1181
1800, 1179, 1181, 1076, 1182
1801, 1183,  232,  259,  258
1802, 1200, 1201,  216,  190
1803,  944,  948,  945,  946
1804, 1106,    9,  181,  179
1805, 1302,  945,  997,  912
1806, 1284, 1283, 1303,  335
1807,  881,  895, 1303, 1310
1808, 1204,  295,  268,  269
1809, 1256,  997,  945, 1247
1810,  945,  912, 1303, 1310
1811, 1048,  292,   72,   73
1812, 1303,  912,  335,   95
1813,  881, 1303,   95, 1310
1814, 1132,   65,  523,  528
1815,  905, 1000,  127, 1003
1816,   11,  182,  580,  181
1817,  578,    9,  179,    1
1818, 1000, 1003, 1002,  126
1819, 1006, 1000, 1002,  744
1820,  998, 1003,  990,  905
1821, 1248,  789, 1269,  784
1822, 1066,  799,  798,  794
1823, 1246, 1248,  781,  786
1824, 1212,  184,  954,  183
1825, 1270, 1269, 1075,  783
1826,  986, 1074, 1269, 1207
1827, 1248, 1074, 1269,  986
1828,  952,  578,   75,  573
1829, 1083,  363, 1137,  996
1830,  957,  568,   74,   73
1831,  931, 1083,  887, 1139
1832, 1216,  183,  182,   13
1833, 1140,  415, 1247, 1137
1834,  212,   14,  184,  186
1835, 1137, 1334,  416, 1138
1836, 1154,  187,  213,  186
1837, 1202,  624,  637,  636
1838,  949,  582,  581,  577
1839,   44,   43, 1035, 1264
1840, 1030, 1264, 1037, 1035
1841,  933,  109,  658,  110
1842,  455,  460,  456,  457
1843,   19,  183,   13,    2
1844, 1104, 1264,  457, 1037
1845, 1264, 1035,   44, 1037
1846, 1082, 1264, 1191, 1030
1847, 1108,  183,  185,  182
1848, 1085,  150,  149,  837
1849, 1190, 1198, 1078, 1079
1850, 1080, 1193,   52,   53
1851,  457,  460,  456,  461
1852, 1191,  462,  461, 1192
1853,  143,  453, 1104, 1077
1854, 1279, 1277,  941, 1320
1855, 1190, 1192, 1191, 1194
1856, 1104, 1038, 1093, 1077
1857, 1238, 1030, 1195, 1192
1858, 1238,  453, 1104,  454
1859, 1104,  143, 1093,  144
1860,  955,  180,  179,  185
1861, 1154,  213,  212,  186
1862, 1238, 1192,  459,  454
1863, 1312,  435, 1297,  117
1864,  433, 1177,  434, 1176
1865, 1177,  434, 1176, 1312
1866, 1296, 1177,  118,  703
1867,   15,  238,  934,   16
1868, 1296,  118, 1312,  117
1869, 1263,  214,  187,  188
1870,  869, 1177, 1296, 1299
1871, 1154,  212,  213,  239
1872, 1311, 1293, 1312, 1297
1873, 1212,  212,  184,  186
1874, 1311, 1176, 1312, 1293
1875, 1204, 1304,  269,  243
1876,  958,   74,   75,  290
1877, 1056, 1234, 1204, 1049
1878, 1263, 1200,  871, 1235
1879, 1056, 1258, 1153, 1333
1880,   22, 1258,  873,  189
1881,  188, 1200,  189,  871
1882, 1199,  242, 1200,  216
1883, 1055, 1199, 1058,  918
1884,  886,  823,  170,  818
1885, 1234, 1200,  241, 1235
1886, 1216,  582,   13,   12
1887,  182,  581,   12,   11
1888, 1212,    2,   14,  183
1889,  872,  188, 1263,  187
1890,  953,  582,  949,  577
1891, 1004, 1271, 1308,  989
1892, 1286,  348, 1017, 1019
1893, 1286, 1017,  348,  322
1894, 1286, 1308,   81,  321
1895, 1271, 1308,  321,  320
1896, 1212,   19,    2,  183
1897, 1272,  371, 1273, 1274
1898, 1272, 1170,  344, 1171
1899, 1204,  269, 1304,  295
1900, 1214, 1319,  225, 1278
1901, 1299,  708,  703,  704
1902, 1272,  344, 1170,  345
1903, 1274, 1171,  370, 1163
1904, 1274,  395,  422, 1158
1905, 1158, 1163, 1274,  395
1906, 1338,  926,  297,  271
1907,  981, 1276,  630,  907
1908, 1056, 1234, 1049, 1048
1909,  957,   73,  291,  292
1910,  850,  975,  849,  973
1911,  905,  749,  754,  753
1912,  903,  904,  602,  844
1913,  853,  884,  852,  882
1914,  981,  641, 1064,  882
1915, 1024,  647,  646,  634
1916,  981, 1064,  641,  642
1917,  872,   20,  953,  577
1918, 1048,   73,  563,  568
1919,  981,  629,  907,  630
1920,  971,  616,  907,  629
1921, 1259, 1061,  557,  556
1922, 1096,  613,  626,  625
1923, 1298, 1325,  513,  514
1924, 1320, 1324, 1298, 1327
1925, 1320, 1298,  513,  508
1926,  292,  957, 1048,  956
1927, 1203,  191,  218,  217
1928, 1201, 1203,  217,  190
1929, 1240,  504, 1239,  509
1930, 1203,  190,  191,  217
1931, 1240,  504,  880, 1239
1932, 1235, 1200,  871, 1056
1933, 1320, 1321, 1279, 1278
1934, 1240, 1321, 1323,   61
1935, 1258,  190,  189,   22
1936,  979,  962,  896,  961
1937, 1203,   23,   24,  191
1938,  867,  962,  999,  857
1939,  954,  183,  184,  185
1940,  924, 1203,  192,  218
1941,  212,   15,  184,   14
1942,  965,  961,  962,  979
1943, 1088,  638,  637,  625
1944, 1200,  215,  242,  241
1945,  963,  911,  970,  967
1946, 1027,  978,  490, 1054
1947,  963,  965,  969,  964
1948, 1115,  740,  735,  736
1949,  880,  498,  857,  499
1950, 1009,  747,  746,  742
1951, 1083,  996, 1140,  887
1952, 1224,  980, 1184, 1052
1953,  950, 1235, 1215,  957
1954, 1140, 1334,  441,  415
1955,  550,  917,  546,  545
1956,  933, 1334,  417,  443
1957, 1231,  284,  285,  311
1958, 1235,  215,  241,  214
1959, 1334, 1138,  417,  416
1960,   38,  980, 1224,  897
1961, 1209, 1189, 1140,  931
1962, 1182,  480,  475,  476
1963, 1200,  215,  189,  216
1964, 1203,  218,  191,  192
1965,  482, 1184,   40,  477
1966,  978,  897,  487, 1224
1967, 1154,  239,  934,  212
1968,  927,  939,  932,  931
1969,  938,  310, 1230, 1231
1970, 1320,   61, 1240,  508
1971, 1224,  486,  481,  482
1972,  932,  417,  933, 1138
1973,  794,  799,  795, 1065
1974,  927,  936,  937,  930
1975, 1183,  233,  206,  207
1976,  936,  939,  657,  100
1977,  100,  936, 1145,  101
1978,  896,   37,  897,   38
1979, 1099, 1229,  542,  541
1980,  193,  920,  194, 1097
1981, 1008,  746,  751,  750
1982, 1210, 1230,  478,  483
1983,  930,  651,  936,  656
1984,  923,  193,  194,  220
1985, 1119, 1122,  649,  648
1986,  937,  936,  657,  656
1987, 1286,  998, 1228, 1019
1988, 1007, 1286,   81,   82
1989, 1053, 1232, 1052, 1230
1990, 1129,  540,  535,  536
1991,   39,  206, 1184,  980
1992,  979,  898,  897,  980
1993, 1053,  480,  484,  479
1994, 1271,  319,  320,  346
1995,   27,   28,  542, 1229
1996, 1224,  487,  482,   39
1997, 1142, 1341,  351,  350
1998, 1272, 1170,  989, 1271
1999, 1188, 1340,   40,   41
2000, 1017,  374, 1015, 1019
2001, 1007,   81, 1308,  752
2002, 1117,  732,   85,  737
2003, 1325,  514,  518,  513
2004, 1112,  735, 1115,  734
2005, 1116,  729,  724,  725
2006, 1017, 1010,  323, 1267
2007, 1073,  593,  158,  159
2008,  386, 1284, 1222, 1302
2009, 1338,  296,  297,   68
2010, 1102,  273,  299,  272
2011, 1307, 1339, 1330, 1309
2012,  944,  948,  673,  678
2013,  389, 1247,  996,  997
2014, 1317,  196,  960,  195
2015,  196,  195,  222,  960
2016, 1131, 1325, 1326,  941
2017,  997,  912,  362,  361
2018, 1109, 1239, 1287, 1327
2019, 1048,   73,   72,  563
2020, 1284,  997,  361,  912
2021,  945,  996,  847,  946
2022, 1073,  159,  594,  593
2023, 1317,  960, 1345, 1316
2024, 1134, 1133,  122, 1329
2025, 1119,  929,  654,  930
2026,  927,  931,  937,  939
2027,  939,  100,  936, 1145
2028, 1119,  930,  654,  649
2029, 1320, 1321,   61,   62
2030, 1120, 1091, 1144,  419
2031, 1091, 1144,  419,  418
2032, 1232, 1332,   57,   56
2033,  932, 1144, 1091,  417
2034,  940,  222,  249,  248
2035, 1091, 1144,  418,  417
2036,  932,  391, 1144,  417
2037,  935,  939, 1145, 1144
2038, 1051,  283,  257,  284
2039, 1316, 1344, 1160,  248
2040,  928,  937, 1335,  660
2041, 1320,  508,   62,   61
2042, 1030, 1190, 1031, 1029
2043, 1028,  263, 1031, 1034
2044, 1082, 1031, 1030, 1190
2045, 1028, 1035,  211,  237
2046,  878,  967,  507,  502
2047, 1278,  251, 1322,  277
2048,   43, 1035, 1264, 1082
2049, 1339,  332,  331,   91
2050,  858,   60,  498,  503
2051, 1034, 1082,  210,  236
2052, 1240,  509,  508,  504
2053, 1035,  210, 1082,   43
2054, 1223,  333,   92,   93
2055,  964,  965,  308, 1232
2056,  964,  961,  256,  255
2057,  963,  961,  964,  255
2058,  969,  306,  307,  856
2059,  969,  306,  279,  280
2060,  964,  965,  307,  308
2061,  959,  240,  213,  214
2062, 1215,  959, 1263, 1235
2063,  950,  959,  934, 1154
2064,  934,  180,  955,  954
2065,  950,  956, 1235,  957
2066, 1110,  279,  253,  280
2067,  968,  227,  967,  228
2068,  869, 1296, 1293, 1289
2069, 1235,  956,  266, 1234
2070,  239,  934,  212,  238
2071, 1100, 1300,  919,  921
2072,  999, 1054,  489,  488
2073, 1097,  193,  924,   26
2074, 1298,  509,  514,  513
2075, 1102, 1160,  247,  246
2076,  481, 1224, 1053,  486
2077,  920, 1098, 1097, 1099
2078,  923, 1102,  926,  246
2079, 1102, 1344,  299,  273
2080, 1278,  251,  224,  225
2081, 1102,  247, 1344,  273
2082,  867,  496,  500,  495
2083, 1277, 1328, 1319,   32
2084, 1027,  978,  492,  491
2085, 1228, 1003, 1019,  998
2086, 1271, 1228, 1286,  998
2087,  989, 1273, 1228,  998
2088, 1280, 1277,  941, 1279
2089, 1321,  278,  304,  277
2090,  225, 1214, 1322,  252
2091, 1189,  669,  668,  664
2092, 1228, 1019,  399,  373
2093, 1140,  996, 1247,  946
2094, 1189, 1211,  663,  668
2095,  964,  282,  281,  255
2096,   64,   65, 1132,  300
2097,  970,  203,  202,   35
2098, 1228, 1019,  373,  347
2099, 1280, 1319,  224,  198
2100, 1001, 1013, 1011, 1141
2101, 1014,  126, 1003,  426
2102,  990, 1003,  998, 1019
2103, 1015,  425, 1003, 1019
2104,  970,   36,  203,   35
2105, 1014,  125, 1002,  126
2106,  922,  301,  274,  275
2107, 1277,   30,  527,   31
2108,  943,  942,  940,  223
2109, 1015, 1019,  400,  399
2110, 1283,  334, 1284,  360
2111, 1017,  375, 1015,  374
2112, 1015, 1019,  374,  400
2113, 1003,  990, 1000, 1001
2114,  197,   30, 1345,  198
2115, 1010, 1115,  741, 1009
2116,  844,  600,  588,  601
2117, 1014,  400, 1015,  401
2118,  963,  911,  879,  962
2119,  217, 1201,  216, 1199
2120, 1203, 1201,   23,  190
2121, 1203, 1305,   24,   23
2122,  250,  942, 1279, 1280
2123, 1055, 1063, 1060, 1057
2124, 1227,  556,  552,  557
2125,  942,  223,  224,  250
2126, 1224, 1053,  486,  978
2127,  924, 1203,  218,  925
2128, 1055, 1058, 1057, 1061
2129, 1259, 1057,  555,  560
2130, 1203, 1199,  217,  925
2131, 1315,  316,  317,  343
2132,  868,  709,  865, 1299
2133, 1296, 1290,  699,  698
2134,  869, 1313,  868, 1299
2135,  868,  714,  908,  865
2136,  207, 1185,  234,  208
2137, 1157, 1315,  343,  342
2138,  875,  866,  868,  908
2139,  859,  868,  865,  870
2140,  876,  717,  875,  716
2141,  859,  875,  876,  874
2142, 1020, 1074, 1254, 1021
2143, 1164, 1167,  776, 1253
2144,   76, 1166, 1315,  317
2145, 1020, 1022,  977, 1023
2146, 1246, 1073,  159,  160
2147, 1246, 1205,  787,  159
2148, 1254,  595, 1021, 1073
2149, 1254,  595, 1073,  160
2150, 1255,  316, 1315,  342
2151,  342,  343,  316, 1315
2152, 1246, 1254,  160,  782
2153,  947,  113,  948,  678
2154,  946, 1208, 1189, 1140
2155, 1217,  895,  891,  892
2156,  946,  112,  111,  668
2157,  669,  847,  946,  674
2158, 1218,  411,  412,  438
2159,  899,  902,  906,  900
2160, 1328,  517,   32,  522
2161,   31,  522, 1277,   32
2162, 1280, 1277, 1319,  198
2163,  966,  283, 1051, 1232
2164,  901, 1249,  906, 1285
2165,  522, 1277,   32, 1328
2166,  899,  901, 1285,  604
2167,  900,  901,  591,  157
2168, 1328, 1319,   32, 1327
2169,  906,  907, 1285, 1276
2170, 1043, 1042, 1040, 1050
2171,  906, 1276,  981,  907
2172,  899, 1285,  906,  907
2173,  457, 1192, 1104,  455
2174,  536, 1099, 1229, 1128
2175, 1131,  520, 1336,  525
2176, 1301, 1316, 1344, 1160
2177, 1301, 1128, 1130, 1317
2178, 1301, 1128, 1129, 1126
2179, 1317, 1128,  537, 1229
2180, 1080,   53,   52,  463
2181, 1098, 1229, 1317,   28
2182, 1242,  471,  466,  467
2183, 1262,  614, 1095,  601
2184,  877, 1087,  612,  613
2185, 1096,  612, 1088, 1087
2186,  846, 1095,  843,  844
2187, 1040, 1042, 1088, 1092
2188, 1034,  236,  237,  263
2189, 1085, 1092,  150, 1090
2190, 1262,  627, 1095,  614
2191,  886,  170,  638,  639
2192, 1095,  600,  877,  843
2193,  889,  815,  814,  810
2194,  940,  249,  276,  275
2195, 1093, 1178,  838,  143
2196, 1101, 1094,  148,  842
2197,  211, 1037, 1036,   44
2198,  942,  940,  223,  249
2199, 1252,  620,  619,  607
2200,  907,  629,  616,  617
2201, 1104, 1077, 1030, 1038
2202, 1101, 1093, 1094,  841
2203, 1089,  148,  149,  583
2204, 1104, 1192,  454,  455
2205, 1038, 1101, 1265, 1036
2206, 1312,  117,  118,  434
2207,  842,  841,  146, 1101
2208,  941,  942,  943, 1280
2209,  180,   17,  934,  290
2210,  901,  592,  591,  157
2211,  249,  276,  250,  942
2212,  934,  954,  184,  180
2213, 1028, 1038, 1030, 1029
2214, 1056, 1234, 1048, 1235
2215, 1093,  143, 1077, 1178
2216, 1104, 1093,  145,  144
2217, 1038, 1101, 1093, 1094
2218, 1126,  922,  300,  274
2219,  985, 1073,  159, 1205
2220,  940,  275,  274,  248
2221, 1249, 1251, 1206, 1207
2222, 1206, 1074, 1251, 1252
2223, 1207, 1269,  986, 1066
2224, 1205, 1248, 1246,  786
2225,  162, 1075,  163,  783
2226, 1075,  163,  783, 1269
2227,  215, 1200,  189,  188
2228, 1275, 1075, 1269,  163
2229,  212,  238,  934,   15
2230, 1216,  582, 1212,  183
2231, 1248,  986, 1269,  789
2232, 1249,  900,  984,  901
2233, 1204,  241, 1200,  242
2234, 1200,  216,  242,  215
2235, 1216,  183, 1212,  954
2236, 1190, 1198, 1237, 1236
2237,  383,  382, 1294,  356
2238, 1190, 1197, 1236, 1187
2239, 1236, 1237,  234,  235
2240,   65, 1132,  300, 1126
2241, 1345,   29,  532,   30
2242, 1316, 1317, 1130, 1345
2243, 1301, 1316, 1126, 1344
2244,   64,   63,  922, 1132
2245, 1340,  208, 1236, 1185
2246,  922,  301,   63,   64
2247, 1236,  208,  234, 1185
2248,  940,  275,  248,  249
2249,  940,  249,  222,  223
2250, 1034,  236, 1031, 1082
2251, 1235,  240,  241,  267
2252, 1160,  248,  247,  221
2253, 1317,  537,  532,   29
2254,  209, 1082,  210,   42
2255, 1300,  921,  298,   67
2256,  923, 1098,  194,  920
2257, 1326,  941,  922, 1132
2258, 1336,  525,  520,  521
2259,  868,  711,  716,  715
2260, 1049,  293,  294,   71
2261, 1059, 1338,  916,   69
2262, 1325, 1328, 1320,  941
2263, 1079, 1198, 1237, 1190
2264,  867,  879,  962,  857
2265,  896,   37,  911,  492
2266,  896,  961,  962,  911
2267, 1324,  517, 1328,  516
2268, 1320,  513, 1326,   62
2269, 1000, 1003,  126,  127
2270, 1304,  243,  270,  269
2271,  941, 1343, 1131, 1336
2272, 1214, 1109, 1318, 1327
2273,  941, 1130, 1343, 1345
2274, 1002, 1001, 1014, 1003
2275, 1189,  669, 1208,  668
2276,  884,  640,  169,  639
2277,  887,  672,   98,   97
2278, 1014, 1002, 1003,  126
2279, 1003,  990,  905, 1000
2280,  887,  672,  667,   98
2281, 1298, 1239,  510,  509
2282,  967,   34,  202,  201
2283, 1277, 1319,   31,   32
2284,  608, 1073, 1021,  595
2285, 1228, 1003,  998, 1018
2286, 1140,  946, 1211, 1189
2287,  928,  655,  937,  660
2288, 1319,   32,  199,   31
2289, 1209,  666, 1335,  667
2290, 1321,  277, 1322,  278
2291, 1060, 1057,  554,  555
2292,  968,  253,  227,  254
2293,  925,  218,  219,  245
2294, 1110,  253,  254,  280
2295, 1063, 1049,   71,  558
2296,  223,  222,  940,  943
2297,  969,  254, 1110,  968
2298,  968,  254,  227,  228
2299, 1241, 1063, 1049, 1057
2300, 1241, 1049,  558,  563
2301,  926,  297,  271,  298
2302,   70, 1049,   71, 1063
2303,  987, 1008, 1005,  751
2304,  387,  997,  361, 1284
2305, 1284,  334,  361,  360
2306,  725,  908,  909,  721
2307, 1326, 1279, 1321,  303
2308,  335,  334,  361, 1284
2309,  270, 1338, 1304,  296
2310, 1300,   66,  533,   67
2311, 1055, 1049, 1059, 1063
2312, 1100, 1102, 1301, 1300
2313, 1049, 1057, 1055, 1056
2314,  639,  882,  640,  627
2315, 1222,  386,  385,  359
2316, 1284,  387,  360,  361
2317,  204, 1174,   37,   36
2318, 1278,  277,  250,  251
2319, 1055, 1204, 1056, 1199
2320,  943, 1316,  940, 1130
2321, 1247,  112,  946,  948
2322, 1124, 1310,  680,  675
2323,  895,  881, 1123, 1124
2324, 1342, 1341,  351, 1142
2325,  909, 1155, 1114,  913
2326, 1328,  522,  521,  517
2327,  944, 1124,  679,  674
2328, 1214,  225,  226,  252
2329, 1310,   96,  848,  888
2330,  943,  223,  196,  197
2331, 1135,  723,  728,  123
2332,  983,  975,  906, 1065
2333,  848, 1208, 1209,  670
2334, 1342,  404,  377,  378
2335, 1188, 1340, 1184,   40
2336, 1184,   39,   40,  207
2337, 1140, 1247,  415,  441
2338,  945, 1124,  847, 1310
2339, 1340,  208,  207,   40
2340, 1209,  671,  848,  670
2341,  987, 1004, 1005, 1308
2342, 1184, 1225,  477,  482
2343,  847,  669, 1208,  670
2344, 1111,  735,  730,  731
2345,  734, 1115, 1113,  739
2346, 1342,  403, 1142,  377
2347,  980,   38,  206,  205
2348, 1079,   52,   53,  312
2349,  980,  231,  205,  232
2350,  379, 1156, 1175,  353
2351,  741,  736,  740, 1115
2352, 1115,  735,  740,  739
2353, 1183,  232,  206,  233
2354, 1042, 1087, 1088, 1092
2355, 1035,   43,   44,  211
2356,  859,  860,  869,  861
2357,  860, 1177,  869,  861
2358,  869, 1176,  863, 1293
2359,  900,  157,  802,  797
2360, 1176,  381,  863,  382
2361,  739, 1006,  740, 1115
2362, 1046, 1081, 1094, 1040
2363, 1047, 1032, 1266,  635
2364, 1113,  734,  733,  729
2365, 1341, 1011, 1117, 1314
2366, 1047, 1202, 1088,  637
2367, 1114,  913, 1341, 1118
2368, 1135,  122,  723,  123
2369, 1043, 1047,  828,  833
2370,  921,  297, 1338,  926
2371, 1111,  732,  736,  731
2372, 1007, 1286, 1308,   81
2373,  915,  919,  916, 1338
2374,  921,  926, 1102,  298
2375, 1112,  729,  730,  734
2376,  915,  923,  920,  926
2377, 1198,  262,  261,  235
2378,  192, 1227,   24, 1203
2379,  917,  924, 1226,  920
2380,   42, 1236,  209, 1082
2381,  542,   28,  537, 1229
2382, 1100, 1099, 1103, 1129
2383, 1317,  537,   28, 1229
2384,  541, 1229,  537,  536
2385, 1342,  404, 1173,  403
2386,  924,  918,  917, 1226
2387,  542, 1229,  537,  541
2388,  917,  550, 1062, 1060
2389, 1022, 1071, 1164, 1070
2390, 1071, 1022, 1150, 1072
2391, 1255, 1026, 1165,    5
2392,  583,  148,   45, 1265
2393, 1150, 1072, 1022, 1157
2394, 1156, 1329,  866, 1155
2395,  919,  539,  544,  543
2396, 1150, 1164, 1071, 1167
2397, 1241, 1056, 1153, 1057
2398, 1217,  892,  891, 1290
2399, 1259, 1305,  562,  557
2400,  215, 1263, 1235, 1200
2401, 1331, 1218,  437,  411
2402,  955,  290,  179,  180
2403,  959,  239,  266,  265
2404,  934,  958,  265,  959
2405,  895,  881, 1283, 1223
2406, 1309,  385,  384,  358
2407,  359, 1309,  332,  358
2408,  872,   20,   21,  188
2409, 1220, 1339,  332, 1309
2410,  924,  219,  925,  218
2411,  890,  892,  895,  894
2412,  934,  264,   16,  238
2413, 1262,  628,  627,  615
2414, 1063, 1049, 1057, 1055
2415, 1330, 1261, 1290, 1297
2416,  934,  238,  265,  264
2417, 1339, 1330, 1220, 1288
2418,  904,  844,  845,  589
2419,  926,  272,  245,  246
2420,  333,  359, 1223,  332
2421, 1100, 1103,  919,  539
2422, 1100, 1129,  534, 1127
2423, 1301, 1316, 1317, 1130
2424,  920,  915,  917,  924
2425,   58,  856,  307,  306
2426, 1100,  534, 1129,  539
2427, 1329, 1342, 1156,  378
2428,   59,   58,  306,  856
2429, 1128, 1317,  537,  532
2430,  968,  255,  254,  228
2431,  498,   59,  856,  493
2432, 1301, 1128, 1126, 1130
2433, 1010,  323,   83,  324
2434, 1156, 1175,  378,  379
2435, 1103, 1129, 1099,  540
2436,  920,  923, 1102,  926
2437,  979, 1054, 1027,  999
2438, 1129, 1126, 1127, 1301
2439, 1329,  405, 1175,  431
2440, 1156,  352,  379,  378
2441,  864, 1175,  861,  431
2442, 1175,  406,  861,  405
2443,  380,  860,  862,  406
2444,  862, 1175,  379,  380
2445, 1320, 1277, 1328, 1319
2446,  965,  856,  307,   58
2447,  858,   59,  498,   60
2448,  859,  862,  875,  874
2449, 1102,  273,  272,  246
2450, 1344,  300,  299,  273
2451,  969,  307,  306,  280
2452,  922,  302,  301,  275
2453,  914,  875,  866,  862
2454, 1174,  203,  204,  230
2455,  961,  256,  229,  230
2456, 1053, 1182, 1210, 1052
2457,   37,  911, 1174,  896
2458, 1174,  204,  203,   36
2459, 1076,  470, 1194,  471
2460, 1180,  473, 1181,  474
2461, 1210, 1180,  478, 1230
2462, 1065,  986,  795,  794
2463, 1214, 1320, 1278, 1321
2464, 1230,   56,  309,   55
2465,  970,  203, 1174,  229
2466, 1180,   55,  473,  478
2467,  899,  907,  603,  604
2468,  229,  230,  203, 1174
2469,  938,  473,   54,  468
2470,  983,  906,  902,  900
2471,  883,  641, 1064,  167
2472, 1188,  476,  471,  472
2473,  906,  903,  981,  972
2474, 1190, 1236, 1191, 1082
2475, 1096,  626,  627,  639
2476,  425,  424,  127, 1018
2477, 1007, 1010, 1267,  742
2478,  994, 1018,  128,  424
2479,  903,  849, 1262,  882
2480,  853,  885,  889,  851
2481,  981,  643, 1064,  642
2482,  987, 1005,  756,  751
2483,  127,  424,  128, 1018
2484,  998,  990, 1308,  989
2485,  990, 1308,  987, 1005
2486,  605, 1206,  606,  593
2487, 1005, 1308,  757,  752
2488,  988,  993,  995,  992
2489, 1307, 1331,  410,  384
2490, 1042, 1085, 1090, 1092
2491,  872,  187,   20,  188
2492,  365, 1159, 1139,  932
2493, 1215, 1153, 1235,  871
2494, 1138,  417,  390,  391
2495,  493,  965,  856,  999
2496,  872, 1215,  951,  949
2497,  872, 1263,  188,  871
2498,  872, 1215, 1154, 1263
2499,  366,  365, 1144, 1159
2500, 1159,  339,  366,  365
2501,  919,   68,   67,  538
2502,  903,  981, 1064,  882
2503,  353, 1156, 1175,  914
2504,  903,  971, 1262,  602
2505, 1125, 1130, 1131, 1132
2506,  844,  845,  589,  588
2507,  964,  308,  281,  282
2508, 1339, 1220,  332,   91
2509,  849,  846,  844,  882
2510, 1323,  278,  305,  304
2511, 1316, 1301, 1317,  960
2512, 1317,  196,   28,   29
2513,  205,  898,  231,  980
2514, 1306,  195, 1098,  960
2515,  850,  846,  854,  845
2516, 1321,   61,   62,  303
2517,  903,  971,  907,  981
2518, 1287,  512,  507,   34
2519, 1306,  221,  195,  960
2520, 1226,  552, 1062,  551
2521,  221,  222,  195,  960
2522,  915,  918,  925, 1338
2523, 1340, 1184,   40,  207
2524, 1097,  924,  193,  920
2525,  541, 1103,  546,  542
2526, 1103,  541, 1099,  542
2527, 1323,  279,  278,  252
2528, 1175, 1156, 1329,  866
2529, 1250, 1206,  606,  605
2530, 1206,  594, 1073,  607
2531,  937,  661,  656,  657
2532, 1340, 1185,  207,  208
2533, 1231,  938,  310,  311
2534,  969,  280,  281,  307
2535, 1207, 1249, 1275, 1066
2536,  904,  590,  602,  589
2537, 1285, 1250,  631,  618
2538, 1015,  399,  400,  426
2539, 1251,  631, 1250,  632
2540, 1275, 1207, 1075, 1024
2541, 1073,  607,  608, 1025
2542, 1150, 1072, 1157, 1158
2543, 1155,  914,  913,  866
2544,  158, 1206,  901,  593
2545, 1195,  458,   52,   51
2546, 1031,  288,  262,  289
2547, 1035, 1031, 1082, 1034
2548, 1184,   39,  207,  206
2549, 1074, 1205,  986, 1248
2550, 1162, 1148,  318,  317
2551, 1251, 1250, 1252,  632
2552, 1275, 1251,  644, 1276
2553, 1251,  632, 1024,  645
2554,  966,  256,  283,  282
2555, 1285, 1276,  630,  631
2556,   24, 1227,  557, 1305
2557, 1206,  985, 1073,  158
2558, 1029,  288,  289,  315
2559, 1262,  615,  627,  614
2560, 1259,  561,  557,  562
2561, 1206,  901, 1249,  985
2562, 1236, 1187, 1185, 1237
2563,  562, 1305,   24,  557
2564, 1242, 1197,  467, 1191
2565, 1187, 1181, 1194, 1076
2566, 1238,  458,   51,  453
2567, 1028,  211,   46,  237
2568, 1032,   48,  622,   49
2569, 1197,   42,   41,  472
2570, 1044,  831,  835,  830
2571, 1190, 1195, 1030, 1192
2572, 1093,  839,  143,  838
2573, 1232,  309,  308,  282
2574,  938, 1181,  468, 1193
2575,  984, 1065,  986,  795
2576, 1190, 1194, 1187, 1193
2577,  904,  603,  602,  590
2578, 1186, 1193, 1181,  938
2579, 1086, 1050, 1094, 1040
2580,  799,  974, 1065,  798
2581, 1028, 1033,   47, 1036
2582, 1033, 1032,   48,  622
2583, 1032, 1266, 1033, 1081
2584, 1036, 1033,   47, 1260
2585,  956,  292,  265,  266
2586, 1258,   23,  190,   22
2587, 1131, 1130,  941, 1132
2588,  925,  244,  245,  271
2589,  677,   96,  848, 1310
2590, 1186,  311,  285,  312
2591, 1334,  441,  415,  442
2592, 1303,   95, 1310,  912
2593, 1107,  581,  580,  576
2594, 1068,  394, 1158,  420
2595, 1204,  269,  268,  242
2596, 1039,  850,  810,  811
2597,  843,  151,  152,  586
2598,  887,  931, 1209, 1140
2599,  952,  949, 1216, 1107
2600,  871,   21,  189,  188
2601,  336,  362,  363,  888
2602,  243,  925,  270,  244
2603,  994, 1273, 1169,  993
2604, 1150, 1245, 1072, 1158
2605, 1244, 1072, 1245,  768
2606, 1245, 1072,  131,  768
2607, 1158,  394, 1157,  395
2608, 1245, 1169,  130,  422
2609, 1150, 1166, 1255, 1164
2610, 1313,  710,  868,  709
2611, 1299,  865,  713,  709
2612,  870,  865,  713, 1299
2613, 1304,  243,  925,  270
2614,  843,  586,  152,  587
2615,  120,  864,  713,  870
2616,  939,  100, 1159,   99
2617, 1133,  864,  865,  718
2618, 1133,  865,  719,  718
2619, 1095,  613,  877,  600
2620, 1139,  339,  338,   98
2621,  877,  843,  600,  587
2622,  877, 1092, 1090,  585
2623, 1321, 1323,  304,  278
2624,  877,  611, 1092,  598
2625,  943,  196,  223,  222
2626,  933,  931, 1138, 1334
2627,  611, 1088, 1087, 1092
2628,  933,  109,  929,  658
2629, 1125, 1132,  523,  528
2630, 1139,  339,   99, 1159
2631,  928, 1189,  664,  665
2632,  939,  662,  657,  100
2633, 1130,  941, 1343, 1131
2634,  929,  654,  659,  658
2635,  969,  306,  305,  279
2636, 1311,  408, 1176,  382
2637,  926,  272,  271,  245
2638, 1228,  372,  399,  398
2639, 1131, 1325,  520,  519
2640, 1132,  518,  523,   64
2641, 1131,  941, 1336, 1325
2642, 1143,  447,  451,  104
2643, 1143,  367,  104,  393
2644, 1209, 1139,  887,  667
2645, 1091,  108,  443,  444
2646, 1107,  951,  576,  575
2647,  937,  662,  661,  657
2648,  326,  914,  913, 1155
2649, 1326, 1279,  303,  302
2650, 1047,  636,  637,  172
2651,  951,  576,  572,  949
2652,  874,  875,   88,  862
2653,  939,  662,  100,   99
2654,   60,  305,  858,   59
2655, 1016,  402,  401,  375
2656, 1146,  452,  447,  446
2657, 1139,  887,  667,   98
2658,  869, 1177,  870,  861
2659, 1213,  967, 1287, 1110
2660,  100,  340, 1159,   99
2661, 1296, 1177,  703, 1299
2662, 1139,  662,   99,  667
2663, 1177,  433,  870,  861
2664,  936,  657,  652,  101
2665,  922,  275,  276,  302
2666, 1177,  434,  118,  433
2667,  965,  307,   57,   58
2668, 1082, 1236,  209,  236
2669, 1079, 1080, 1193,   52
2670, 1168,  763,  995,  764
2671, 1181,  938,  468,  473
2672, 1078,  314, 1196,   51
2673, 1131, 1326,  518, 1132
2674, 1079, 1078,  313,  287
2675, 1236, 1198,  236, 1082
2676, 1078, 1029, 1196,  314
2677, 1029, 1190, 1031, 1078
2678,  898,  205,  896,   38
2679, 1320, 1328, 1327, 1319
2680,  978, 1054,  485,  490
2681, 1068,  420,  132,  133
2682,  966, 1232,  964,  282
2683,  898,  231,  980,  966
2684,  175, 1253, 1268,  781
2685,  979,  896,  966,  961
2686, 1076,  475,  471,  476
2687, 1231,  310, 1232,  284
2688,  615,  628,  616,  971
2689, 1179, 1186, 1181,  938
2690,  966,  256,  961,  230
2691, 1032, 1029, 1028,  289
2692, 1001, 1017, 1015, 1019
2693,   18,  290,   17,  180
2694,  966,  964,  256,  282
2695, 1078, 1029,  314,  288
2696, 1029, 1196,  314,  315
2697,  516, 1325,  520, 1328
2698,  477, 1184,   40, 1188
2699,  966,  257, 1051,  283
2700, 1233, 1185,  259,  233
2701,  889,  813,  809,  814
2702, 1028, 1031, 1030, 1035
2703,   51, 1078, 1195, 1196
2704, 1328,  520, 1336, 1325
2705, 1188, 1340,   41, 1197
2706, 1076, 1197, 1194, 1187
2707, 1029,  288, 1031,  289
2708, 1092,  585,  598,  597
2709,  289, 1028,  263, 1031
2710,  315, 1196, 1077, 1029
2711,  481,  477, 1225,  482
2712, 1228,  998, 1273, 1018
2713, 1188, 1225,  477, 1184
2714, 1238, 1192, 1195,  459
2715, 1181,  473,  468,  469
2716,  233, 1185,  259,  260
2717, 1043, 1044, 1045, 1042
2718, 1079,  313,  312,  286
2719, 1186, 1079, 1187, 1193
2720, 1186,  312,  938,  311
2721, 1245, 1169,  763,  130
2722,  983, 1065,  984,  801
2723, 1196,  314,  315,   50
2724, 1078,  287,  288,  314
2725, 1166,   77,  317,   76
2726, 1150, 1071, 1244, 1167
2727, 1282,  596,  597,  609
2728, 1150, 1245, 1244, 1072
2729, 1077,  315,   49,    4
2730,  995, 1169,  758,  763
2731, 1190, 1080, 1078, 1195
2732, 1244, 1149,  769,  764
2733,  958,  291,  264,  265
2734, 1071,  773, 1072,  768
2735,  995,  994,  758, 1169
2736, 1147, 1149,  993, 1243
2737,  993, 1273, 1171,  989
2738,  972, 1064,  976,  883
2739,  899,  901,  604,  591
2740, 1285,  605, 1250,  618
2741, 1204,  268, 1234,  241
2742,  971,  628, 1262,  615
2743,  956,  265,  292,  291
2744,  803,  982,  166, 1064
2745,  849,  850,  973,  845
2746,  938,  312, 1193,   53
2747,  845,  588,  153,  154
2748, 1285,  617,  907,  604
2749,  934,  239,  265,  238
2750, 1081, 1038, 1265, 1260
2751, 1322,  225,  251, 1278
2752,  951,  873,  572,  571
2753, 1081, 1038, 1093, 1094
2754, 1194,  465,  470,  469
2755, 1028, 1032, 1033, 1038
2756, 1328, 1336,  521,  522
2757, 1060,  549,  550,  554
2758, 1037, 1028,  211, 1036
2759, 1033, 1028,  263,  289
2760, 1029,  289, 1032,  315
2761,  958,  290,  291,   74
2762, 1028, 1031, 1035, 1034
2763,  190, 1201,  216,  217
2764, 1030, 1264, 1035, 1082
2765, 1307, 1294, 1339,  357
2766, 1078, 1031, 1029,  288
2767, 1204,  295,  294,  268
2768, 1060,  916,  549,  548
2769, 1338, 1304,  296, 1059
2770,  970,  228,  202,  229
2771, 1070, 1167,  775,  774
2772,  924, 1227,  192, 1203
2773, 1274, 1171, 1163, 1158
2774, 1304,  295,  269,  296
2775,  137, 1022, 1023, 1255
2776, 1022, 1164, 1026, 1253
2777,  957,   73,   74,  291
2778, 1333,  561, 1259,  562
2779,  924,  192,  193,  219
2780, 1227,  557,   25,   24
2781,   26, 1097,  547,  552
2782, 1071, 1167,  774,  769
2783, 1059,  295,  296,   69
2784,  860,  863, 1176,  381
2785, 1244, 1167,  769, 1149
2786, 1127,   65,  528,   66
2787,  192,  924,  193,   25
2788, 1067,  132, 1072,  773
2789,  919,  544,  917,  916
2790, 1067, 1070, 1068, 1069
2791,  658, 1211,  663, 1189
2792, 1059,  295,   69,   70
2793, 1139,   99,  339,   98
2794, 1067, 1068,  132,    8
2795,  878,  506,  501,  502
2796,  899,  591,  590,  156
2797, 1177,  708,  870,  119
2798,  859, 1175,  866,  862
2799,  715,  868,  714,  908
2800,  869, 1296, 1177, 1312
2801, 1330, 1296, 1289, 1293
2802, 1188, 1182, 1225, 1184
2803, 1057,  559,  554,  555
2804,  713, 1299,  708,  870
2805,  859,  875,  866,  868
2806,  868,  714,  865,  709
2807,  864,  861,  870,  120
2808, 1195,  463,  458,  459
2809, 1080,  469,  468,  464
2810, 1328,  941, 1325, 1336
2811, 1231, 1230, 1232,  310
2812,  958,  952,   75,   74
2813, 1344,  300,  273,  274
2814, 1215, 1048, 1161,  957
2815, 1191,   42,  467,   43
2816,  872,  953, 1215,  949
2817,  277,  278,  251, 1322
2818, 1323,  278, 1322,  252
2819, 1128,  532,  536,  531
2820,  864,  865,  718,  713
2821, 1040, 1265, 1094, 1089
2822, 1079,   52,  312,  313
2823, 1159,  366,  339,  340
2824, 1101,  148, 1265,    3
2825,  550, 1062,  551,  917
2826, 1277,  941, 1328, 1336
2827, 1038, 1029, 1032, 1077
2828, 1233,  285,  259,  286
2829, 1259,  560,  555,  556
2830,  609, 1266, 1260, 1033
2831, 1101, 1265, 1036,    3
2832, 1302, 1222,  412, 1257
2833, 1098,  195,   27,   28
2834, 1158,  395,  421,  394
2835, 1265,   45, 1036,    3
2836,   45, 1260,  583, 1265
2837,  970,  961,  255,  229
2838, 1265, 1036,   45, 1260
2839,  490,  999,  489,  494
2840,  845,  812,  973,  154
2841,  966,  961,  896,  230
2842, 1019,  399,  373,  400
2843, 1320,  508,  513,   62
2844, 1132,  518,   64,   63
2845,  850,  812,  845,  817
2846,  903,  845,  904,  844
2847, 1010,  323, 1267,   83
2848,  854,  851,  850,  816
2849, 1003,  126,  425,  426
2850,  846,  854,  845,  843
2851, 1323,  278,  279,  305
2852,  970,  229,  202,  203
2853,  904,  845,  154,  589
2854,  895,  881, 1303, 1283
2855,  903,  981,  972, 1064
2856, 1027,  492,  497,  496
2857,  850,  845,  812,  973
2858,  820, 1105,  855,  819
2859,  964,  282,  255,  256
2860, 1318,   32,   33,  200
2861,  855,  815,  819,  851
2862,  816,  851,  855,  854
2863,  844,  849,  903,  845
2864,  853,  849,  889,  883
2865, 1012,  124,  427,  428
2866,  851,  885,  814,  819
2867, 1022, 1255, 1026, 1164
2868, 1075,  977, 1024, 1020
2869, 1078,  287,  314,  313
2870, 1256, 1257,  413,  439
2871, 1069, 1075,  647,  161
2872, 1010,  737,  741,  736
2873, 1150, 1022, 1255, 1157
2874, 1150, 1162, 1158, 1157
2875, 1175,  405, 1329,  378
2876,  862,  328,  329,  355
2877, 1021, 1074, 1254, 1073
2878, 1020, 1022, 1253, 1070
2879,  972,  903, 1064,  883
2880,  886, 1088,  638, 1041
2881, 1088,  637,  624,  625
2882, 1210, 1230,  483, 1332
2883, 1321,  303,  304,   61
2884,  846,  852, 1095,  882
2885, 1318,  199,   32,  200
2886, 1191,   43, 1264, 1082
2887,  981,  629,  642,  641
2888,  902,  155,  973,  807
2889,  882,  981,  628,  971
2890,  948,  946,  673,  112
2891,  903,  971,  882, 1262
2892, 1325,  518, 1131, 1326
2893,  846,  852,  855,  843
2894,  971,  615, 1262,  602
2895, 1255,    5, 1165,   76
2896,  883,  903, 1064,  882
2897,   45,   46, 1036,  211
2898, 1032,  315,  289,   49
2899, 1087, 1095,  613,  877
2900,  947,  439, 1256,  113
2901, 1247,  945,  946,  996
2902,  613, 1087,  612, 1096
2903,  879,  969,  857,  858
2904, 1027,  911,  497,  492
2905, 1332, 1054,  965,  488
2906,   58,  493,  965,  856
2907, 1057,  560,  565,  564
2908, 1106,  578,  179,   75
2909, 1302,  413, 1256, 1257
2910,  965,   57, 1332,  488
2911, 1232,  965,   57, 1332
2912, 1102,  273,  246,  247
2913,  912,  335,  361, 1284
2914, 1222,  360,  386,  359
2915, 1054,  965,  488,  999
2916,  294, 1049,   71,   70
2917,  969,  307,  965,  856
2918, 1060,  549,  554,  553
2919, 1226,  917,  546,  551
2920, 1129,  529,  530,  534
2921, 1063,  553,  554,  558
2922,  924, 1227,   25,  192
2923, 1087,  855, 1084, 1045
2924, 1084, 1045,  825,  826
2925,  819, 1105,  855,  885
2926,  853,  883,  889,  813
2927,  854,  816,  850,  817
2928,  846,  855,  854,  843
2929, 1103,  540,  544,  539
2930, 1300,  298,  299,   66
2931, 1086,  841, 1050,  836
2932, 1044, 1085, 1086,  831
2933,  853,  882,  883,  884
2934, 1044, 1050,  834,  835
2935, 1343,  526,  530,  525
2936, 1085,  150, 1092,  149
2937, 1300,   67,  298,   66
2938, 1126,   65,   66,  299
2939, 1125,  528,  523,  524
2940, 1281,  584, 1092,  597
2941,  886,  884,  853,  169
2942, 1277, 1336,  527, 1343
2943,  877,  585, 1090,  586
2944, 1325,  515,  520,  519
2945,  276,  250, 1279,  277
2946, 1213,  227,  226,  200
2947,  982,  981, 1276,  643
2948, 1281,  584,  597,  596
2949, 1162, 1148,  317, 1166
2950, 1147, 1151,  766, 1243
2951, 1147,  993, 1151, 1243
2952,  850,  815,  811,  816
2953, 1131,  524,  519,  520
2954, 1162, 1170,  318, 1148
2955, 1163, 1158, 1157,  395
2956, 1147, 1149,  766,  771
2957, 1134,  429,  430,  122
2958,  548, 1060, 1055,  553
2959, 1056, 1200, 1258, 1201
2960, 1328,  516,  521,  520
2961,  268, 1234,  241,  267
2962, 1234, 1204,  294,  268
2963, 1234,  294, 1049,  293
2964, 1240,   61,  503,  508
2965, 1309,  332,  358, 1339
2966, 1063, 1057,  559,  554
2967, 1338, 1059,  916,  918
2968, 1095,  614,  627,  626
2969, 1271, 1286,  347,  321
2970,  991, 1151,  761,  762
2971, 1325,  515,  519,  514
2972, 1170, 1004,   79, 1151
2973, 1004, 1151,  762,   79
2974,  461, 1192,  466, 1242
2975, 1319,  198,  199,  225
2976, 1179, 1187, 1076, 1181
2977, 1191,   43, 1082,   42
2978,  878,  506,  505,  501
2979, 1080, 1181,  468,  469
2980, 1192, 1195,  459,  460
2981,  981,  641,  628,  629
2982, 1076,  476, 1182,  475
2983,  635, 1178, 1047, 1032
2984, 1031, 1029,  289, 1028
2985, 1033,  609, 1266,  622
2986, 1131, 1336, 1343,  525
2987, 1028, 1033,  263,   47
2988, 1006, 1001, 1002, 1000
2989,   48,  289, 1032, 1033
2990,  266, 1234,  267, 1235
2991, 1240,   61,   60,  503
2992,  890,  689,  688,  684
2993,   54,  473,  938,   55
2994,  933,  929,  108, 1091
2995, 1104,  454,  453,  144
2996, 1180,  479,  478,  474
2997, 1215, 1263,  871, 1235
2998, 1326,   62,  302,  303
2999, 1340, 1197, 1187, 1236
3000, 1092,  598,  610,  597
3001, 1318,  200,  226,  199
3002, 1316, 1160,  960,  222
3003,  943,  197,  198,  224
3004, 1345,  198,  943,  197
3005, 1283,  333,  360,  359
3006, 1170, 1337, 1271,  319
3007,  990, 1005,  987, 1008
3008, 1261, 1297,  436,  116
3009, 1211,  933,  658,  110
3010, 1223,  333,  332,   92
3011, 1308,  987, 1004,  989
3012, 1284,  360,  387,  386
3013,  989,  988,  993,  994
3014, 1317, 1345,  532, 1343
3015, 1277,  941, 1336, 1343
3016, 1126,  922,  940, 1130
3017, 1277, 1345,  941, 1343
3018, 1230,  478,  483,   56
3019, 1196,   51,  314,   50
3020, 1077,    4,  143,   50
3021,  905,  749,  753,  748
3022,  943, 1316, 1130, 1345
3023, 1301, 1098, 1099, 1128
3024, 1192,  462,  461,  457
3025, 1283,  334,  360,  333
3026, 1089,  584, 1092, 1281
3027, 1010,  324,   83,   84
3028, 1281,  583, 1265, 1089
3029,  460, 1192,  457,  455
3030, 1281, 1089,  584,  583
3031, 1202, 1266,  623,  636
3032, 1043, 1042, 1045, 1041
3033, 1317,  195,   28,  196
3034, 1230,  309,  310,   55
3035, 1126, 1344, 1316,  274
3036, 1345,  527,   30,  532
3037, 1040, 1265, 1281, 1260
3038, 1029,  315, 1032, 1077
3039,  633,  632, 1024, 1252
3040, 1281, 1092,  610,  597
3041, 1032,  635, 1178,   49
3042, 1038, 1036, 1260, 1033
3043, 1047,  635, 1266,  636
3044, 1150, 1162, 1157, 1166
3045, 1315,   76,  316, 1255
3046, 1157,  369,  342,  343
3047,  966,  231, 1051,  257
3048, 1150, 1157, 1255, 1166
3049, 1023,  136, 1255,  342
3050, 1168, 1244, 1245,  768
3051, 1238,  453,   51,   50
3052,  111, 1247,  112,  946
3053, 1170, 1148, 1151,   78
3054, 1266,  636,  635,  623
3055, 1126,  300, 1344,  274
3056, 1272, 1171, 1273,  989
3057, 1195,  465,  464,  460
3058, 1151, 1243,  761,  766
3059, 1148,  317, 1166,   77
3060, 1147, 1243,  766, 1149
3061, 1183, 1185, 1233,  233
3062,  919,  543,  916,   68
3063,  928,  660,  664,  659
3064, 1255,  136,  137,  342
3065, 1131, 1128, 1125,  529
3066, 1209,  665, 1335,  666
3067, 1006,  746,  745,  741
3068,  937,  657,  939,  662
3069, 1126, 1300,   66, 1127
3070, 1295,  650,  140,  139
3071,  994, 1169,  129,  758
3072,  993, 1171, 1170,  989
3073,  929,  933,  658,  659
3074, 1150, 1244, 1168, 1149
3075,  933,  417, 1091,  443
3076,  896,  911, 1174,  961
3077,  928, 1335,  665,  660
3078,  878,  911,  967,  502
3079,  896,  230,  204,  231
3080,  848,  677,   97,   96
3081, 1255,  316,  137,    5
3082,  864,  430, 1329,  431
3083, 1027,  962,  911,  896
3084,  991,  756,  761,  760
3085, 1270, 1069,  778, 1075
3086, 1064,  167,  642,  166
3087, 1072,  773,  132,  768
3088, 1218, 1217, 1261,  894
3089, 1148,   77,  318,  317
3090, 1162, 1170, 1171,  344
3091, 1152, 1167,  771,  776
3092,  396,  395,  422, 1274
3093, 1331, 1261, 1297,  436
3094, 1218, 1261,  437,  894
3095,  335, 1284,  912, 1303
3096, 1302, 1303,  895,  945
3097, 1286,  322,  348,  321
3098, 1324, 1298, 1239,  510
3099, 1279,  303,  302,  276
3100, 1325,  514,  519,  518
3101,  922,  300, 1132, 1126
3102, 1326,  302,   62,   63
3103,  405, 1329,  378,  404
3104, 1148,   78,  318,   77
3105, 1007, 1308, 1005,  752
3106, 1162, 1157,  343,  369
3107, 1017, 1286, 1007,  322
3108, 1271,  346,  320,  347
3109, 1004, 1271, 1170, 1337
3110, 1015, 1019,  399,  425
3111, 1000,  126, 1002,  743
3112, 1000,  749,  748,  744
3113,  862,  354,  328,  355
3114, 1271, 1228,  372,  346
3115, 1228,  425, 1003, 1018
3116, 1021,  137,  136,  608
3117,  870,  433,  119,  432
3118, 1337,  320, 1271,  319
3119, 1000, 1002,  744,  743
3120,  782, 1246, 1254,  781
3121, 1065,  799, 1066,  794
3122,  905,  128,  748,  753
3123, 1337,  319,   79,  320
3124, 1065,  794, 1066,  986
3125, 1065,  986, 1249,  984
3126, 1206, 1252, 1251, 1250
3127,  791,  986,  795,  984
3128,  900,  797,  901,  157
3129,  983,  973,  806,  807
3130,  983,  973, 1039,  806
3131, 1178,  635,    4,   49
3132, 1220,  332,   91,   92
3133, 1307, 1330, 1331, 1309
3134, 1220,   91, 1288,  702
3135, 1339, 1288, 1220,   91
3136, 1303, 1284,  912, 1302
3137,   95,  912,   96, 1310
3138, 1286,  321,   81,  322
3139,  690, 1123, 1221,  685
3140,  891,  690, 1123, 1221
3141, 1223,  895,  881, 1221
3142,  890, 1123,  689,  684
3143,  881,   95, 1303,   94
3144,  322,   82, 1267,  323
3145, 1198, 1236,  236,  235
3146, 1321,  277,  304,  303
3147, 1117,  325,  324,   84
3148, 1169, 1273,  423, 1274
3149, 1179, 1231, 1186,  938
3150, 1237,  234,  260, 1185
3151, 1236,  234, 1237, 1185
3152, 1233, 1237,  260, 1185
3153, 1240,  509, 1298,  508
3154, 1131,  525,  524,  520
3155, 1076, 1197,  472,  471
3156,  875,  721,  868,  716
3157, 1330, 1290, 1296, 1297
3158, 1314,  324,  350,  323
3159,  859,  870,  864,  861
3160,  252,  225,  251, 1322
3161,  859,  865,  864,  870
3162,  870,  861,  432,  120
3163,  933, 1211, 1334,  110
3164,  870,  868,  865, 1299
3165, 1017,  322,  323,  349
3166, 1213,  967,  968,  227
3167, 1219, 1289,  701,  702
3168,  967,  502,   35,  507
3169,  869, 1296, 1313, 1299
3170, 1177,  870,  708, 1299
3171,  827,  151, 1090,  832
3172, 1314,  375,  349,  376
3173, 1313,  869,  876, 1292
3174, 1294, 1288, 1291, 1293
3175, 1286,   82,  322,   81
3176, 1183, 1184,  207,  206
3177,  876,  717,  716,  712
3178, 1291, 1292,   89,  874
3179, 1289, 1293, 1292, 1288
3180, 1313,  868,  710,  711
3181,  876,  711, 1292,  712
3182,  860, 1177,  861,  433
3183, 1006, 1008,  744,  745
3184, 1011, 1012, 1114, 1113
3185, 1006,  744, 1002,  739
3186, 1001, 1006, 1141, 1009
3187, 1010, 1141, 1115, 1009
3188,   80, 1337,  320, 1308
3189, 1286,  321,  348,  347
3190, 1137,  416, 1334,  415
3191,  996,  389,  363, 1137
3192,  709, 1299,  708,  713
3193, 1137,  390,  416,  389
3194,  417, 1138,  932,  391
3195, 1339, 1288,  331, 1294
3196, 1228, 1018,  424,  425
3197,  876,  875,   88,  874
3198,  876,  716,  868,  711
3199,  914,  327,  354,  353
3200,  859,  874,  876,  869
3201,  859,  869,  870,  861
3202,  876,   88,  875,  717
3203,  908,  720,  868,  721
3204,  862,  875,   88,  914
3205,  862,   88,  329,  328
3206,  868,  716,  721,  720
3207, 1151,  762,  766,  761
3208,  909, 1116,  725,  726
3209, 1286, 1019,  347,  348
3210, 1256,  997,  414,  413
3211, 1256,  948,  113,  112
3212, 1011, 1009, 1141, 1010
3213, 1314, 1017,  349,  375
3214, 1023,  634,  621,  135
3215, 1012, 1013, 1113, 1011
3216, 1222,  386,  412,  385
3217,  736, 1010, 1115,  741
3218, 1173,  402,  428, 1142
3219,  876,  711,  712,  716
3220,  868,  711,  715,  710
3221, 1139,  931, 1209,  887
3222, 1147, 1152, 1150, 1149
3223, 1010, 1009,  741,  742
3224, 1007,  747, 1009,  742
3225,  870,  432,  861,  433
3226,   82,  322, 1267, 1007
3227, 1068, 1022, 1071, 1072
3228,  980, 1183, 1184, 1052
3229, 1070,  775, 1253,  176
3230, 1167, 1149,  771,  770
3231, 1152, 1164, 1167,  776
3232, 1073,  159,  160,  594
3233, 1152,  771, 1167, 1149
3234, 1020, 1254, 1026, 1021
3235,  177, 1070,  774,  178
3236, 1168,  764, 1244,  768
3237, 1167, 1149,  770,  769
3238,  114,  947,  438,  894
3239,  986,  795,  794,  790
3240, 1218,  894,  437,  438
3241, 1223,  881,  687, 1221
3242,  891,  890,  895, 1123
3243,  947,  895, 1257,  894
3244,  881, 1303, 1283,   94
3245, 1296,  117,  698,  118
3246, 1310,  895, 1303,  945
3247, 1222, 1309,  359,  385
3248, 1302,  412, 1222,  386
3249,  360,  386, 1284, 1222
3250,  945,  997,  996, 1247
3251,  915,  924,  925,  918
3252, 1098,  923, 1160, 1102
3253,  923,  926,  925,  245
3254,  920, 1100,  921, 1102
3255,  915,  923,  926,  925
3256,  872, 1154,   20,  187
3257,  214,  215, 1263, 1235
3258, 1289,  704,  699,  700
3259, 1288,  331,   90,   91
3260, 1234,  267, 1235,  241
3261, 1289,  705,  700,  701
3262,  956, 1048,  292,  293
3263,  696,  701, 1219,  700
3264,  897,  898,   38,  980
3265,  874,  862,   88,  329
3266,  861,  405,  432,  431
3267, 1307, 1339,  358,  357
3268,  896,  966,  898,  979
3269,  966,  964,  961,  256
3270,  284, 1233,  258, 1051
3271, 1232,  283,  284,  310
3272,  961,  896,  230, 1174
3273,  966, 1232,  282,  283
3274, 1310,  682,  681,  677
3275, 1024,  646,  645,  633
3276, 1269,  788,  789,  793
3277, 1341, 1155, 1342,  352
3278, 1296,  703,  699,  704
3279, 1342, 1142,  351,  377
3280, 1142, 1155, 1342, 1341
3281, 1341,  326,   85,  913
3282, 1183, 1233,  259,  233
3283, 1155, 1156,  352,  326
3284, 1117, 1118,   85,  732
3285, 1341,   85, 1118,  913
3286, 1221, 1223,  692,  687
3287, 1017,  348,  349,  375
3288, 1117, 1341,   85, 1118
3289, 1261,  116,  436,  115
3290,  737,  732, 1111, 1117
3291,  922,  940,  276,  275
3292, 1277, 1345, 1343,  527
3293, 1233, 1237,  286,  260
3294, 1345,  532, 1343,  527
3295,  894,  114,  115,  437
3296,  948,  678,  113,  673
3297,  943, 1277, 1345,  941
3298,  827,  826, 1085, 1090
3299, 1131,  529,  525,  530
3300,  950, 1154,  934,  954
3301, 1002,  743,  738,  739
3302, 1013,  733,  738,  125
3303,  222,  940,  943, 1316
3304,   95, 1310,  682,  881
3305,   95,   96,  682, 1310
3306, 1113,  734,  739,  738
3307, 1002,  126,  738,  743
3308,  223,  224,  943,  942
3309, 1059,   70,   69,  548
3310, 1083, 1140,  996, 1137
3311, 1257,  439,  438,  412
3312, 1140, 1137, 1247,  996
3313,  931, 1139, 1335,  939
3314, 1139,  939,   99,  662
3315, 1183, 1233,  258,  259
3316,  984,  796,  791,  792
3317, 1103,  544,  540,  545
3318, 1083, 1137,  363,  364
3319, 1160,  220,  247,  246
3320,  363,  337,  888, 1083
3321, 1139,  667, 1335,  662
3322,  848, 1209, 1140,  887
3323,  339,  365, 1159, 1139
3324, 1209,  670,  665,  666
3325, 1275,  164,  644,  645
3326, 1137, 1138,  390,  364
3327, 1321, 1278, 1322,  277
3328, 1026,  595,    5,  137
3329, 1214, 1318, 1109, 1110
3330, 1110, 1214,  252, 1323
3331, 1209,  671,  667,  672
3332, 1214, 1320, 1240, 1298
3333, 1320, 1298, 1325,  513
3334,  944,  679,  893,  678
3335, 1183, 1233, 1052, 1051
3336, 1323,  305,  858,   60
3337, 1240, 1323,   60,   61
3338,  250, 1279,  277, 1278
3339, 1058, 1305, 1203, 1201
3340,  455, 1101,  145, 1104
3341,  916, 1060, 1055,  548
3342, 1241, 1056, 1048, 1153
3343, 1153, 1057, 1333,  565
3344,  892,  891,  890,  895
3345, 1241, 1063,  558, 1049
3346, 1241,  564, 1057,  565
3347, 1190, 1031, 1198, 1082
3348, 1198, 1237, 1236,  235
3349, 1335,  662,  666,  661
3350, 1079, 1193,   53,   52
3351,  933,  931, 1334, 1211
3352, 1079, 1193,  312,   53
3353, 1164, 1152, 1166, 1165
3354, 1037,   44,  457,    3
3355, 1190, 1191, 1030, 1082
3356,  147,  455,  146,  456
3357,  912,  362,  335,  336
3358, 1237, 1186, 1079, 1187
3359, 1186,  938,  312, 1193
3360, 1023,  342,  368,  136
3361, 1211,  111,  441,  110
3362,  236, 1031, 1082, 1198
3363,  677,  676, 1310,  848
3364, 1051,  232,  980, 1183
3365,  994,  995,  758,  988
3366, 1001, 1006, 1002, 1141
3367,  997,  387,  414,  413
3368,  929,  653,  109,  108
3369, 1083,   97,   98,  338
3370,  990,  998, 1286, 1019
3371, 1279, 1321,  277, 1278
3372,  102,  447,  341,  103
3373,  987,  749, 1008,  750
3374,  988,  758,  754,  992
3375,  994,  424, 1273, 1018
3376, 1015,  426, 1003,  425
3377,  905,  749,  987,  754
3378, 1000,  749,  990,  905
3379,  988,  994,  998, 1018
3380,  994, 1169, 1273,  423
3381,  887, 1083,  996,  888
3382, 1217, 1218, 1261, 1309
3383, 1145,  366, 1159,  340
3384, 1174,  230,  204,  896
3385, 1214, 1320, 1327, 1319
3386, 1091,  444,  445,  107
3387,  848,  676,  671,  672
3388,  947, 1256,  439, 1257
3389, 1159,  932, 1144,  939
3390,  996,  847,  848,  945
3391, 1310,  945,  888,  848
3392, 1123,  684,  685,  689
3393,  652,  101,    6,  446
3394,  978,  490,  485,  486
3395,  881,  682,  681, 1310
3396, 1271,  347, 1228,  346
3397,  362,  996,  363,  888
3398,  937, 1335,  661,  662
3399, 1144,  418,  391,  392
3400,  912,   96, 1310,  888
3401,  189,  190, 1258, 1200
3402, 1241,  558, 1063,  559
3403, 1048,   72, 1049,  563
3404, 1235,  240,  214,  241
3405,  237,  210, 1035,  211
3406, 1258,  562, 1305,   23
3407, 1069,  161,  647,  133
3408,  911,   36,  497,   37
3409,  556, 1061, 1227, 1062
3410, 1255,  316,    5,   76
3411,  966,  230,  231,  257
3412, 1055, 1049, 1204, 1059
3413, 1199, 1203,  217, 1201
3414, 1285,  605,  617,  604
3415,  892, 1290, 1261,  693
3416,  900,  156,  802,  157
3417, 1068,  977,  134,  133
3418, 1268,  176,  780,  779
3419, 1147,   77, 1148, 1166
3420, 1271,  319,  346,  345
3421, 1058, 1061, 1259, 1057
3422, 1162,  343,  344,  370
3423, 1199,  217,  925,  243
3424, 1203,  191,  190,   23
3425, 1199,  925, 1304,  243
3426, 1203,   24,  192,  191
3427, 1172, 1173,  428, 1012
3428, 1172, 1012,  428,  124
3429, 1111, 1141, 1115, 1010
3430, 1016, 1142,  402,  376
3431, 1302,  387,  997,  413
3432,  428, 1142, 1012, 1173
3433, 1233,  259, 1185,  260
3434, 1170,  318,  345,  344
3435, 1329, 1133,  122,  864
3436, 1005,  752,  757,  756
3437, 1134, 1329,  430, 1173
3438, 1329, 1173, 1342,  404
3439, 1170,   79, 1337,  319
3440, 1019,  374,  347,  348
3441, 1117,   85,   84,  737
3442, 1001,  990, 1007, 1019
3443, 1173,  430,  403,  404
3444, 1271,  320,  321,  347
3445, 1228,  399, 1019,  425
3446, 1272,  372,  371,  345
3447, 1342,  377,  351,  378
3448,  917, 1060,  549,  550
3449,  888,  336,  912,   96
3450,  948, 1247,  945,  946
3451, 1274, 1163,  370,  396
3452, 1287, 1239,  878,  507
3453, 1016,  428,  401,  402
3454, 1236,  209,  236,  235
3455,  966,  979,  965, 1232
3456, 1331,  384,  411,  410
3457, 1341,  351,  325,  352
3458, 1311,  409,  435,  408
3459,  910,  875,   87,  722
3460,  867, 1027,  494,  999
3461, 1062,  555, 1061, 1060
3462, 1016,  375,  376,  402
3463,  916, 1060,  917,  918
3464,  969, 1110,  280,  279
3465, 1287,  507,  967,   34
3466, 1287,  967,  201,   34
3467,  970,  967,  202,  228
3468,  754,  988,  753,  758
3469,  969,  254,  968,  255
3470,  330,  357, 1294,  356
3471,  913,   85,   86,  326
3472,  970,   35,  911,   36
3473,  951,  575,  570,  571
3474,  994, 1273,  998, 1018
3475, 1163,  370,  396,  369
3476,  336,   96,  888,  337
3477,  944,  946,  847,  674
3478,  997,  387,  388,  414
3479,  912,  336,  335,   95
3480, 1291,  356,  355,  329
3481,  564, 1153, 1161,  565
3482,  912,  335,  362,  361
3483, 1292,  706,  707,  711
3484,  947,  438,  894, 1257
3485,  979,  999,  965, 1054
3486,  909,  908,  725, 1116
3487,  411,  385, 1218,  412
3488,  987,  750,  751,  755
3489,  330,  331, 1294,  357
3490,  427, 1012, 1013,  124
3491, 1337,   79, 1004,   80
3492,  512, 1287, 1239, 1327
3493, 1154,  954,  950,  953
3494,   99,  340, 1159,  339
3495, 1287, 1327,  512,   33
3496, 1144,  935,  932, 1091
3497, 1048,   72,  292,  293
3498, 1144,  392,  365,  366
3499, 1122,  449,  649,  648
3500,  914,   87,   88,  328
3501, 1318,   33, 1287,  200
3502, 1279,  940,  942,  276
3503, 1127, 1129,  529, 1125
3504,  956,  291,  958,  265
3505, 1279,  277,  303,  276
3506, 1278, 1214, 1322,  225
3507, 1309, 1220, 1223,  332
3508, 1318,   32, 1319, 1327
3509, 1139,  365,  338,  339
3510, 1261,  116,  115,  688
3511, 1214, 1109, 1240, 1323
3512, 1188,  472,   41,  477
3513, 1102,  926,  246,  272
3514,  473,  938,   55, 1180
3515, 1306,  194,  195,  221
3516, 1330, 1293, 1288, 1294
3517, 1217, 1261,  892, 1290
3518, 1188, 1340, 1187, 1184
3519,  551, 1062,  556,  552
3520, 1145,  101,  341,  100
3521,  367,  393, 1143,  366
3522,  872,   21,   20,  577
3523, 1184,   39,  482,   40
3524, 1118,   86,  732,  727
3525,  997,  388,  361,  362
3526, 1134, 1172,  429,  123
3527, 1329, 1133,  866, 1136
3528, 1011, 1314, 1017, 1010
3529, 1237,  260,  234,  261
3530,  991,  761, 1151, 1243
3531, 1340, 1197,   42,   41
3532, 1264,  462,  457,   44
3533,  341,  447,  367,  103
3534, 1231,  311,  310,  284
3535, 1114, 1341, 1155, 1142
3536, 1256,  112,  113,  439
3537, 1111, 1011, 1114, 1141
3538, 1307,  357,  383, 1294
3539, 1010,  742,   84,   83
3540,  928,  931, 1189, 1335
3541,   85,   86,  732, 1118
3542,  947,  945, 1256, 1257
3543, 1186, 1233, 1237,  286
3544,  469, 1181,  474,  470
3545, 1180, 1230,  938,   55
3546, 1045, 1087, 1090, 1084
3547, 1087,  855,  852,  843
3548, 1183,  258, 1051,  232
3549, 1145,  340,  100,  341
3550, 1202,  636, 1047, 1266
3551, 1087,  852,  855,  886
3552,  100, 1159, 1145,  939
3553,  821,  855,  825, 1084
3554, 1095,  844,  601,  600
3555, 1209,  671,  666,  667
3556,  843, 1090,  827,  151
3557,  447, 1143, 1145,  367
3558,  259,  285, 1233,  258
3559,  843,  586, 1090,  151
3560,  446,  102,  101,    6
3561,  877,  843,  586, 1090
3562,  967,  201,  228,  227
3563,   36,  970, 1174,  911
3564, 1213, 1110,  252,  253
3565, 1213,  968,  253,  227
3566, 1146,  447,  102,  446
3567, 1146, 1122, 1120,  452
3568, 1025, 1252,  620,  633
3569, 1074, 1025, 1021, 1020
3570, 1272,  344,  371,  370
3571, 1023,  135,  134,  634
3572, 1062,  556,  552, 1227
3573,  595,  607,  608, 1073
3574, 1157,  369,  368,  342
3575,  992,  759,  754,  755
3576, 1329,  431,  430,  404
3577, 1250,  618,  605,  606
3578, 1068,  977, 1023,  134
3579, 1023,  394,  134,  135
3580, 1023,  136,  368,  135
3581, 1149,  770,  766,  771
3582, 1021,  595, 1026,  137
3583, 1025, 1252,  607,  620
3584, 1252,  619,  606,  607
3585, 1021, 1022, 1023,  137
3586, 1105, 1045,  823,  824
3587, 1162, 1171,  370,  344
3588, 1162,  317,  318,  344
3589, 1039,  973,  811,  806
3590,  853,  884,  168,  169
3591, 1046, 1093,  838,  839
3592, 1041, 1047, 1040, 1088
3593, 1101,  457,  455,  147
3594, 1147,  772,  771,  767
3595, 1138, 1139, 1083,  931
3596, 1007, 1010, 1017, 1267
3597, 1265, 1089,  583,  148
3598, 1253,  782,  781,  174
3599, 1259,  556,  557,  561
3600, 1035, 1037, 1028,  211
3601, 1260, 1265, 1281,  583
3602, 1036,   44,   45,  211
3603, 1142,  350,  377,  376
3604, 1162,  318, 1170,  344
3605,  869, 1292,  863,  874
3606,  862,  863, 1291,  874
3607,  869, 1177, 1299,  870
3608,  925,  243,  217,  244
3609,  862,  863,  381,  355
3610,  356, 1291,  863, 1294
3611, 1294, 1291,  863, 1293
3612, 1217, 1219, 1290,  891
3613, 1339, 1330, 1288, 1294
3614, 1330, 1293, 1289, 1288
3615,  987, 1008,  751,  750
3616, 1228,  373,  399,  372
3617, 1291,  874,   89,  329
3618, 1274,  397,  396,  370
3619,  781, 1246, 1254, 1268
3620, 1254, 1026, 1021,  595
3621, 1254,  782, 1026,  160
3622, 1206,  158, 1073,  593
3623, 1254,  160, 1026,  595
3624,  919,  916,  543,  544
3625, 1320, 1278, 1279, 1277
3626, 1056, 1058, 1201, 1258
3627,  676,  675,  847,  671
3628, 1059,  295, 1204, 1304
3629,  919,  916, 1338,   68
3630, 1246,  160,  159,  787
3631,  985,  158,  797,  792
3632, 1059,  916,  548,   69
3633, 1314,  323,  350,  349
3634, 1026,  595,  160,    5
3635, 1276,  631,  643,  630
3636, 1075,  647,  161,  162
3637, 1170,   78, 1151,   79
3638, 1228,  398, 1273,  372
3639, 1341,  324,  351,  350
3640, 1285,  631,  630,  618
3641, 1170, 1148,   78,  318
3642, 1329, 1342,  378,  404
3643, 1333, 1258,  567,  562
3644, 1026,  782, 1253,  174
3645, 1019,  373,  374,  400
3646, 1026, 1253, 1165,  174
3647, 1286, 1228,  347, 1019
3648, 1165, 1152, 1166,   76
3649, 1140, 1208, 1209,  848
3650, 1118, 1116,  726,  731
3651, 1023, 1157,  368,  342
3652,  946,  669,  673,  668
3653, 1189,  668,  663,  664
3654, 1255, 1166, 1315,   76
3655,  870,  119,  120,  432
3656, 1071, 1070,  774, 1167
3657, 1074, 1246, 1254, 1073
3658,  451, 1120,  419,  445
3659,  749,  744, 1000,  990
3660, 1020, 1246, 1268, 1254
3661, 1143,  366, 1145,  367
3662, 1246, 1020, 1268, 1248
3663,  981,  630,  642,  629
3664, 1091,  418,  419,  445
3665, 1177,  119,  118,  703
3666, 1011, 1142, 1341, 1114
3667, 1314, 1017,  323,  349
3668, 1156,  353,  379,  352
3669, 1016, 1314,  376,  375
3670, 1007,  752, 1005,  747
3671,  862,  353,  354,  380
3672, 1001, 1141, 1011, 1009
3673, 1342,  377,  404,  403
3674,  356, 1294,  383,  357
3675, 1113, 1012, 1114, 1172
3676, 1114, 1117, 1118, 1341
3677, 1111, 1118,  731, 1116
3678, 1175,  380,  406,  379
3679, 1176,  408,  407,  381
3680,  927,  932, 1091,  933
3681, 1013,  738, 1002,  125
3682,  124,  427,  125, 1013
3683, 1333, 1259,  561,  560
3684, 1144,  419,  392,  393
3685,  951, 1161,  569,  573
3686, 1153, 1048, 1161, 1215
3687, 1048, 1235, 1215, 1153
3688, 1055, 1199, 1056, 1058
3689,  957,  568, 1161,  573
3690,  433,  860,  406,  861
3691,  233, 1185,  234,  207
3692, 1234,  956,  266,  293
3693, 1340, 1236,  208,  209
3694,  901,  158,  593,  592
3695, 1340, 1184, 1185, 1187
3696,   73,  568, 1048,  957
3697, 1076, 1197, 1188,  472
3698, 1340, 1236,  209,   42
3699, 1198,  262,  235,  236
3700, 1197,  472,  467,   42
3701,  954,  185, 1108,  183
3702, 1059, 1338,   69,  296
3703, 1126, 1132,  922, 1130
3704,   25,  192, 1227,   24
3705, 1061, 1057, 1060,  555
3706,  926,  271,  925,  245
3707, 1302, 1222, 1283, 1284
3708,  924,  918, 1203,  925
3709,  921,   68, 1338,  297
3710, 1301, 1098, 1160, 1102
3711, 1103,  919,  539,  544
3712, 1049,   72,  293,   71
3713, 1234,  294,  267,  268
3714, 1144,  417,  391,  418
3715,  923,  245,  925,  219
3716,  924,  915,  917,  918
3717, 1103,  546,  542, 1226
3718,  920,  921,  926, 1102
3719, 1059, 1055, 1304, 1204
3720, 1083,   98, 1139,  338
3721, 1211,  663,  111,  110
3722, 1338,  925,  271,  270
3723, 1137,  364,  390,  363
3724, 1220,  702,  697,   92
3725,  918, 1227, 1226,  924
3726, 1259,  561,  560,  556
3727,  336,  337,  888,  363
3728, 1079,  286, 1237,  287
3729, 1228, 1018, 1273,  424
3730, 1334,  443,  416,  417
3731, 1317, 1345,   29,  532
3732, 1117, 1341, 1314,  324
3733,  994,  423,  424,  128
3734, 1001, 1003,  990, 1019
3735, 1062,  555,  551,  556
3736, 1317, 1128, 1229, 1098
3737,  786, 1205,  790,  791
3738, 1345, 1343, 1317, 1130
3739,  196, 1317,  960, 1345
3740,  935,  936, 1145,  939
3741, 1093,  144,  143,  839
3742, 1195,   52,  458,  463
3743, 1116,  725,  730,  729
3744, 1004,  991, 1151,  989
3745,  863,  382,  355,  356
3746, 1137,  389,  363,  390
3747,  874,  862,  329, 1291
3748,  854,  817,  153,  822
3749,  910,  726,  722,  727
3750,  991, 1243,  760,  761
3751, 1004, 1308,   80,  757
3752, 1147,  766, 1151,  767
3753, 1138,  364,  391,  390
3754,  894, 1218,  895, 1257
3755, 1168,  764, 1243, 1149
3756, 1004,  757, 1005, 1308
3757, 1243,  991,  992,  993
3758, 1145,  101, 1146,  341
3759, 1243,  766, 1149,  765
3760, 1243,  765, 1149,  764
3761,  922,  302,   63,  301
3762,  528, 1132, 1126, 1125
3763,   94,  881,  687, 1223
3764, 1083,  364,  363,  337
3765, 1326,  922,  302,   63
3766,  844,  588,  600,  587
3767, 1345,   30,  197,   29
3768, 1137, 1247,  996,  389
3769,  908,  715,  719,  714
3770, 1289,  706, 1313,  705
3771, 1138,  364,  365,  391
3772, 1312,  118, 1177,  434
3773,  900,  156,  157,  591
3774, 1240, 1298,  509, 1239
3775, 1298, 1325,  514,  515
3776, 1091,  444,  107,  108
3777, 1248,  986,  789,  790
3778,  985,  159,  158,  792
3779,  593,  901,  605, 1206
3780,  880,  505, 1239,  504
3781,  503,  504,  880, 1240
3782, 1109, 1239, 1240,  858
3783, 1285,  630,  617,  618
3784,  994, 1273,  424,  423
3785, 1245,  422,  130,  421
3786, 1013,  125,  124,  733
3787,  507,  512, 1287, 1239
3788, 1068,  420,  134,  394
3789, 1109,  878, 1287, 1239
3790, 1014,  401,  427,  400
3791, 1142,  403,  376,  377
3792, 1044,  830,  834,  829
3793, 1324, 1239,  511,  510
3794,  878,  911,  502,  501
3795,  880,  500,  878,  505
3796,  991,  755,  756,  760
3797,  864,  121,  713,  718
3798, 1287,  878,  967,  507
3799,  833, 1178,  838, 1046
3800, 1142,  376,  403,  402
3801,  849,  889,  850,  851
3802, 1043,  828, 1047, 1041
3803, 1043,  828, 1045,  829
3804, 1086, 1050,  841, 1094
3805, 1044, 1042, 1085, 1045
3806, 1307, 1339, 1294, 1330
3807, 1281, 1092, 1089, 1040
3808,  443,  933, 1334,  109
3809, 1085, 1045,  826,  831
3810, 1000,  743,  127,  126
3811,  997,  388,  387,  361
3812,  149,  584,  150, 1092
3813,  882,  628,  641,  640
3814, 1290, 1297,  116,  117
3815, 1097,  924, 1227,   26
3816, 1142,  350,  351,  377
3817,  738, 1141, 1113, 1013
3818,  914, 1156, 1155,  326
3819,  910,   86,  914,  913
3820, 1219,  695,  891, 1221
3821,  909, 1114, 1118,  913
3822, 1114, 1173, 1136, 1172
3823,   86,  914,  913,  326
3824,  325, 1341,  326,   85
3825, 1214, 1320, 1298, 1327
3826, 1307,  357,  384,  383
3827, 1323, 1110,  858,  305
3828,  879,  969,  858, 1110
3829,  942,  249,  223,  250
3830, 1318, 1319,   32,  199
3831, 1319,  198,   31,  199
3832, 1324,  516, 1325,  515
3833, 1328,  517, 1327,   32
3834, 1228,  425,  398,  399
3835, 1327,   33,  517,  512
3836, 1219, 1290,  891,  695
3837, 1126,  940,  274, 1316
3838, 1261,  116, 1290, 1297
3839,  914,  327,  328,  354
3840,  698, 1290,  117, 1296
3841, 1289, 1313,  704,  705
3842, 1296,  704, 1299,  703
3843, 1219, 1288, 1330, 1289
3844, 1217, 1330, 1219, 1220
3845,  891,  695, 1290,  694
3846,  890,  893, 1123,  684
3847, 1008,  744,  745,  749
3848, 1217, 1223, 1309, 1220
3849,  332, 1220, 1223,   92
3850, 1245,  131,  421,  130
3851,  893,  895, 1124,  945
3852, 1015,  426,  425,  399
3853, 1172,  123,  428,  429
3854, 1329, 1173,  404,  430
3855, 1223, 1221,  692,  697
3856,  987, 1005,  757,  756
3857,  744, 1008,  990,  749
3858, 1015,  374,  375,  401
3859, 1307, 1331,  384, 1309
3860,  891,  694,  892,  689
3861,  462, 1264, 1192, 1191
3862, 1242, 1192,  466, 1194
3863,  892,  689,  694,  693
3864,  483, 1053,  479, 1210
3865,  481, 1053, 1182,  480
3866,  860,  407,  406,  380
3867,  979, 1053, 1232, 1052
3868,  902,  904,  973,  155
3869, 1332, 1054,  488,  483
3870, 1060,  917,  918, 1062
3871, 1055,  916,  918, 1060
3872,  969,  255,  281,  254
3873, 1230, 1332,   56,  483
3874,  964,  282, 1232,  308
3875, 1188,  472, 1197,   41
3876,  869, 1176, 1293, 1312
3877, 1172, 1013, 1113, 1012
3878, 1188,   41,   40,  477
3879, 1136,  866,  908, 1133
3880, 1198,  262, 1031,  288
3881, 1065,  798, 1066,  799
3882,  904,  844,  589,  602
3883,  974,  976, 1064,  803
3884,  894,  688,  115,  683
3885,  912,  336,   95,   96
3886,  974,  799,  804,  803
3887,  922, 1126,  940,  274
3888, 1066, 1065,  986, 1249
3889, 1285,  901,  899,  906
3890, 1275, 1066,  982,  164
3891,  945,  847,  848, 1310
3892,  981,  643,  642,  630
3893, 1323,   60,  304,  305
3894, 1056, 1333, 1259, 1258
3895, 1058, 1259, 1061, 1305
3896, 1241, 1161, 1048,  563
3897, 1230, 1232,  309,   56
3898, 1139,  939, 1159,   99
3899,  932, 1091,  933,  417
3900, 1120,  450,  451,  452
3901,  484,  483, 1053,  479
3902, 1097,   27, 1098,  194
3903, 1256,  440,  439,  413
3904, 1091,  445,  444,  418
3905, 1100, 1300, 1127,  533
3906,  888, 1083,  996,  363
3907, 1120,  447,  452,  451
3908, 1334,  442,  415,  416
3909, 1200,  189,  190,  216
3910,  432,  861,  431,  120
3911, 1256,  112, 1247,  948
3912,  365,  391, 1144,  932
3913, 1145,  366, 1144, 1159
3914,  440, 1256,  112, 1247
3915,  932, 1139,  939, 1159
3916,  391, 1138,  932,  365
3917, 1111, 1011, 1010, 1117
3918, 1112, 1114, 1135, 1172
3919, 1111, 1118, 1114, 1117
3920, 1256,  440,  413,  414
3921,   65,  528, 1132, 1126
3922, 1333,  565,  560,  561
3923, 1091,  417,  418,  444
3924, 1019,  347,  374,  373
3925, 1117, 1010,  737,   84
3926, 1101,  457,    3, 1037
3927,  938,   54,   55,  310
3928,  451,  104,  105,  393
3929, 1111,  736,  735,  731
3930, 1299,  704,  709,  708
3931, 1113, 1111, 1141, 1115
3932, 1111, 1114, 1118, 1116
3933,  865,  709,  714,  713
3934, 1112, 1116,  730,  729
3935,  739,  738, 1141, 1113
3936,  862,  406, 1175,  380
3937, 1289,  701,  706,  705
3938, 1134, 1173,  430,  429
3939, 1172, 1173,  429,  428
3940, 1114, 1012, 1142, 1173
3941,  932,  931, 1139, 1138
3942,  905,  127, 1000,  748
3943,   50,  315, 1196, 1077
3944,  854,  821,  817,  822
3945, 1091,  417,  444,  443
3946, 1080,  463, 1195,  464
3947, 1104, 1038, 1037, 1101
3948,  652,  936, 1146,  448
3949, 1238,   50, 1077,  453
3950, 1078, 1080,   52, 1195
3951, 1079,  313, 1078,   52
3952,  308, 1232,  965,   57
3953, 1121,  648,  107,  450
3954,  231,  232,  980, 1051
3955, 1051,  257,  231,  258
3956,  979,  965, 1232, 1332
3957, 1047,  833,  172,  828
3958, 1054,  999,  489,  490
3959, 1332, 1210, 1053,  483
3960,  896,  231,  205,  898
3961,  105,  451,  419,  106
3962, 1169,  129,  758,  130
3963, 1329, 1155, 1136,  866
3964, 1068,  133,  134,  420
3965,  908,  724,  720,  725
3966, 1068, 1022, 1072, 1157
3967, 1112,  734,  730,  735
3968,  727,  913, 1118,   86
3969, 1147, 1152, 1166, 1150
3970, 1041, 1045, 1087, 1042
3971, 1047, 1041,  171,  637
3972,  886, 1045, 1041,  823
3973,  993, 1245, 1171, 1169
3974, 1287, 1213,  227,  967
3975,  868,  710,  715,  714
3976,  149,  837, 1089, 1085
3977, 1228, 1019, 1003,  425
3978, 1049,   72,   71,  558
3979, 1030, 1196, 1029, 1077
3980, 1319,  198,  225,  224
3981, 1228, 1273,  398,  424
3982, 1318,  225,  199,  226
3983, 1006,  745,  744,  740
3984,  853,  886,  885,  852
3985, 1087, 1096,  886, 1088
3986,  852,  884,  853,  886
3987, 1202, 1092,  611,  610
3988, 1202, 1088,  637,  624
3989,  886,  852,  855,  885
3990, 1088, 1040, 1202, 1047
3991, 1015,  400,  374,  401
3992, 1172,  728,  733,  124
3993,  877, 1092,  585,  598
3994, 1016,  428,  427,  401
3995, 1081, 1032, 1266, 1047
3996,  625, 1096,  612, 1088
3997,  905, 1018, 1003,  127
3998,  905,  998, 1003, 1018
3999,  987,  754,  750,  755
4000,  905, 1000,  749,  748
4001, 1170,  989, 1004, 1151
4002,  970,  967,   35,  202
4003, 1247,  440,  111,  112
4004, 1098, 1160,  960, 1301
4005,  945, 1310,  888,  912
4006, 1016, 1314, 1142,  376
4007, 1017,  374, 1019,  348
4008, 1014, 1015, 1016,  401
4009, 1139,  662, 1335,  939
4010, 1128, 1229, 1098, 1099
4011, 1296,  117, 1312, 1297
4012, 1231,  311, 1186,  938
4013,  864,  121,  120,  713
4014, 1016,  401, 1015,  375
4015, 1071, 1070, 1167, 1164
4016,  781,  175,  780, 1268
4017,  779, 1268,  784,  780
4018, 1068, 1072,  420, 1158
4019, 1206, 1073,  594,  593
4020,  864,  122,  430,  121
4021, 1336,  526, 1343,  525
4022,  862,  380,  354,  381
4023, 1343,  531,  526,  527
4024,  946,  673,  669,  674
4025, 1025,  634, 1024,  633
4026,  922, 1130,  941,  940
4027, 1270,  779,  784,  783
4028, 1177,  118,  119,  433
4029, 1022, 1069, 1068, 1070
4030,  914,   87,  875,   88
4031, 1070, 1167, 1253,  775
4032, 1254, 1026,  782, 1253
4033, 1275,  163,  645, 1024
4034, 1269, 1066,  793,  794
4035, 1157,  394,  368,  395
4036, 1269, 1066,  163,  788
4037, 1205,  986,  790,  791
4038,  163, 1075, 1024, 1275
4039,  979,  965, 1332, 1054
4040, 1213,  968, 1110,  253
4041,  963,  967,  970,  968
4042,  231,  966,  896,  230
4043, 1230, 1232,   56, 1332
4044,  966,  898,  979,  980
4045, 1253, 1165,  174,  175
4046,  961,  229,  256,  255
4047,  961, 1174,  230,  229
4048,  925,  218,  245,  244
4049, 1069, 1075,  161,  778
4050,  991,  762,  761,  757
4051, 1150, 1148, 1162, 1166
4052, 1163,  395, 1157,  369
4053, 1152,  777,   77,   76
4054, 1271, 1308,  989,  998
4055,  860,  380,  381,  407
4056, 1274,  423,  396,  397
4057, 1138,  417,  416,  390
4058,  674, 1124,  847,  944
4059,  994,  129,  128,  753
4060, 1162, 1171, 1163,  370
4061,  989, 1004, 1271, 1170
4062, 1169,  129,  422,  423
4063, 1128,  531, 1343,  532
4064, 1316,  248, 1160,  222
4065, 1344, 1160,  248,  247
4066, 1339,  331,  358,  357
4067,  920,  919, 1100, 1103
4068, 1102, 1160, 1344,  247
4069,  947,  113,  438,  439
4070,  848,  672, 1209,  887
4071, 1102,  926,  272,  298
4072,  587,  843,  600,  844
4073, 1300, 1102, 1344,  299
4074, 1208,  669, 1189,  665
4075,  891,  690,  695,  694
4076, 1288,   90,  331,  330
4077, 1339,  331, 1288,   91
4078, 1292,  712,  711,  707
4079, 1169,  422,  129,  130
4080,  881, 1124, 1310,  680
4081,  901,  604,  592,  605
4082,  886,  170,  639,  169
4083, 1245,  130,  763,  131
4084, 1261,  437,  115,  436
4085, 1331, 1218,  411,  385
4086, 1307,  383,  384,  410
4087, 1331,  410,  436,  409
4088,  869, 1176, 1312, 1177
4089,  434,  408, 1312,  435
4090, 1295,  930,  650,  651
4091,   76, 1165, 1255, 1166
4092, 1163,  369,  396,  395
4093, 1083,   97,  338,  337
4094, 1223,  334,  333,   93
4095, 1261,  693,  116,  688
4096, 1158,  422,  421,  395
4097, 1190, 1195, 1078, 1196
4098, 1188, 1340, 1197, 1187
4099, 1243,  764,  759,  760
4100, 1233,  260,  286,  259
4101, 1069,  778,  161,  178
4102, 1085, 1086,  832,  837
4103, 1077, 1178,    4,   49
4104, 1031,  289,  262,  263
4105, 1198,  287, 1079, 1237
4106, 1104, 1077, 1093,  143
4107, 1077, 1178,  143,    4
4108,  145, 1101,  841, 1093
4109, 1032, 1266,  635,  622
4110,  147, 1101,  457,    3
4111, 1170, 1004, 1337,   79
4112,  669, 1189,  665,  664
4113,  984,  791,  796,  795
4114, 1032,   49, 1077,  315
4115,  393,  451,  419,  105
4116, 1236, 1190, 1187, 1237
4117,  845,  154,  817,  812
4118, 1083,  338,  364,  337
4119,  515,  516, 1325,  520
4120,  622, 1032, 1266, 1033
4121, 1238, 1104, 1192,  454
4122, 1035,   44, 1037,  211
4123, 1245,  421, 1158,  422
4124, 1264,  457, 1037,   44
4125,  950,  952,  957,  951
4126,  914,  326,  327,  353
4127,  950, 1215,  951,  957
4128, 1095, 1096,  882,  852
4129, 1158,  420,  394,  421
4130, 1161,  564,  569,  568
4131, 1306,  960, 1160,  221
4132, 1072,  131,  132,  420
4133, 1160,  220,  923, 1306
4134, 1306, 1098,  195,  194
4135, 1344,  247,  274,  273
4136, 1021,  136,  621,  608
4137, 1070, 1167, 1164, 1253
4138, 1152,  776,  777, 1165
4139, 1098,   28, 1317,  195
4140,   87,   86,  327,  914
4141,  943,  960,  222, 1316
4142,  994,  758,  129,  753
4143,  993, 1151, 1170, 1148
4144, 1160,  248,  221,  222
4145, 1301, 1126, 1300, 1344
4146,  943, 1345,  197,  196
4147, 1317, 1345,  196,   29
4148, 1341,  351,  324,  325
4149, 1344,  274,  247,  248
4150, 1028, 1035, 1030, 1037
4151,  840, 1093,  841, 1050
4152, 1271,  345,  372, 1272
4153, 1047, 1178,  635,  173
4154, 1135,  724,  728,  723
4155, 1007,  746, 1009,  747
4156,   46, 1036,  211, 1028
4157, 1192, 1191, 1242,  461
4158, 1303,   95,  335,   94
4159, 1238, 1030, 1077, 1196
4160, 1047, 1041,  828,  171
4161, 1006,  739,  740,  744
4162,  385,  358, 1309,  359
4163, 1117,   84,   85,  325
4164, 1178, 1047,  833,  173
4165, 1081, 1077, 1032, 1178
4166,   97,  888,   96,  337
4167, 1333, 1259, 1258,  562
4168,  901,  604,  591,  592
4169,  874,   89,  329,   88
4170,  870,  119,  708,  120
4171, 1126, 1127,   66,   65
4172, 1053,  480,  485,  484
4173, 1126,  528, 1127,   65
4174,  529, 1125, 1131,  524
4175, 1277, 1345,  527,   30
4176,  859,  862,  874,  863
4177,  864,  713,  870,  865
4178, 1147,  772, 1152,  771
4179, 1164, 1026, 1253, 1165
4180,  925,  217,  218,  244
4181, 1167,  776, 1253,  775
4182, 1255,  342,  137,  316
4183,  352,  353,  326, 1156
4184, 1162,  343, 1157, 1315
4185, 1177,  119,  703,  708
4186,  317,   76,  316, 1315
4187, 1243,  761,  765,  760
4188,  860, 1176,  407,  381
4189, 1183,  233,  259,  232
4190, 1209, 1189, 1335,  665
4191, 1312,  117,  434,  435
4192,  848,  677,  672,   97
4193, 1311,  409,  408,  382
4194, 1086,  841,  836,  837
4195,  869, 1289, 1292, 1313
4196, 1033,   47,  609,   48
4197,  862,  354,  355,  381
4198, 1176,  407,  408,  434
4199,  697, 1219,  701,  702
4200,  943, 1130,  941, 1345
4201,  848,  676,  672,  677
4202,  359, 1223,  332, 1309
4203,  285, 1233,  258,  284
4204, 1261,  894,  115,  437
4205, 1089,  584,  583,  149
4206, 1290,  693,  117,  116
4207, 1050,  836,  841,  840
4208, 1140, 1211,  946,  111
4209, 1247,  441,  440,  414
4210, 1211,  668,  946,  111
4211,  914,  354,  862,  353
4212,  685,  681,  881,  686
4213, 1034,  237,  210, 1035
4214,  914,   87,  328,  327
4215,  236,  263, 1031,  262
4216, 1045, 1041,  823,  828
4217, 1047,  173,  636,  172
4218, 1202,  623, 1266,  610
4219, 1131, 1128,  530, 1343
4220,  891,  690,  694,  689
4221,  353,  326, 1156,  914
4222, 1041,  828,  171,  823
4223,  676, 1310,  848,  847
4224, 1050,  835,  840,  839
4225,  893,  683,  678,  679
4226,  237,  236, 1034,  210
4227, 1050,  840,  835,  836
4228, 1086,  836,  831,  832
4229, 1206,  607,  606,  594
4230, 1043, 1047, 1040, 1041
4231, 1034,  236,  263, 1031
4232,  982,  165,  644,  164
4233,  947,  113,  114,  438
4234, 1046,  838,  833,  834
4235,  922, 1279,  276,  940
4236, 1326,  922, 1279,  302
4237,  928,  659,  654,  655
4238,  280,  969,  254, 1110
4239, 1208,  847,  848, 1140
4240, 1088,  624,  611,  612
4241, 1335,  666,  662,  667
4242, 1097,   26,   27,  194
4243,  929,  658,  109,  653
4244, 1085,  832, 1086,  831
4245,  110,  109,  442, 1334
4246, 1119,  653,  108,  648
4247, 1178,  173,  838,    4
4248, 1044,  835,  834,  830
4249, 1143, 1120,  451,  447
4250,  922,  941, 1130, 1132
4251,  923,  220,  219,  193
4252, 1046, 1047,  833, 1178
4253, 1213,  253,  226,  227
4254, 1160,  221,  247,  220
4255, 1189,  659,  663,  658
4256, 1226,  547,  551,  546
4257, 1042, 1085, 1045, 1090
4258, 1119,  653,  648,  649
4259, 1046,  834,  839,  838
4260,  557, 1061, 1227,  556
4261, 1122,  452,  449,  450
4262,  150,  832, 1085, 1090
4263,  922,  274,  940,  275
4264,  949,  577,  576,  572
4265,  933,  929,  109,  108
4266, 1103,  917,  544,  545
4267, 1047,  173,  172,  833
4268, 1045,  831,  830,  826
4269, 1305, 1203, 1227, 1058
4270, 1183, 1184, 1185,  207
4271, 1227,  552,   26,   25
4272, 1047,  637,  171,  172
4273,  853,  168,  883,  813
4274,  922, 1279,  302,  276
4275, 1043,  833,  828,  829
4276, 1340,   41,  209,  208
4277, 1085,  827,  831,  826
4278, 1047,  171,  828,  172
4279,  106,  451,  419,  445
4280, 1121,  107,  445,    7
4281,  993, 1245, 1150, 1171
4282, 1239,  504,  505,  509
4283,  843,  152,  827,  822
4284, 1302,  413, 1257,  412
4285, 1227,   25,  557,  552
4286,  651,  138,  139,  448
4287,  686,  681,  881,  682
4288, 1221,  881,  687,  686
4289, 1121,    7,  445,  106
4290,  652,  138,  651,  448
4291, 1063, 1059,   70, 1049
4292, 1334,  109,  442,  443
4293,  935,  936, 1295, 1146
4294, 1119,  648,  108,  107
4295, 1045,  829,  828,  824
4296, 1041,  171,  638,  170
4297, 1311, 1294, 1330, 1307
4298, 1146,  341,  102,  447
4299, 1146,  652,  446,  101
4300, 1145,  366,  340,  367
4301,  930,  650,  651,  655
4302,  928, 1189,  659,  664
4303,  929,  658,  653,  654
4304,  824,  823, 1105,  819
4305,   24, 1305, 1203, 1227
4306,  652,  651,  936,  448
4307, 1045,  828,  823,  824
4308, 1041,  171,  170,  823
4309, 1334,  442,  416,  443
4310, 1091, 1121,  445, 1120
4311, 1316,  248,  940,  274
4312, 1298,  508,  509,  513
4313,  862,  380,  379,  353
4314,  881,  687,  686,  682
4315, 1055, 1060, 1063,  553
4316, 1084,  843, 1090,  827
4317, 1295,  449,  448,  140
4318, 1038, 1101, 1036, 1037
4319,  884,  168,  169,  640
4320,  687, 1223,  692,   94
4321,  649,  648,  449,  141
4322,  853,  818,  169,  813
4323, 1175,  353,  862,  379
4324,  820,  821,  855,  825
4325, 1295,  448,  449,  452
4326, 1043,  829,  834,  833
4327,  648,  450,  142,  107
4328, 1146,  448,  452,  446
4329,  142,  107,  450,    7
4330,  649,  141,  449,  140
4331,  861,  406,  432,  405
4332,  843,  151,  827,  152
4333,  914,  862,  354,  328
4334,  888,  887,   97,  848
4335,  855,  886, 1045, 1087
4336, 1121,  445,  451,  106
4337, 1133, 1135,  122,  723
4338,  462, 1191,   43, 1264
4339, 1121,  451, 1120,  450
4340,  886,  169,  818,  170
4341, 1084,  826,  822,  827
4342,  101,  936, 1146,  652
4343,  930,  655,  651,  656
4344,  885,  823,  818,  819
4345, 1269,  789,  986,  794
4346, 1133,  121,  718,  122
4347, 1295,  448,  651,  139
4348,  652,  448,  446,  138
4349,  875,  910,  866,  908
4350, 1329, 1136, 1155, 1173
4351, 1084,  821,  826,  825
4352, 1090,  150,  151,  585
4353, 1175,  379,  405,  378
4354, 1045,  830,  829,  825
4355, 1119,  654,  929,  653
4356, 1105,  820,  824,  819
4357, 1105,  820,  825,  824
4358, 1032, 1178, 1047, 1081
4359, 1096,  638,  625,  626
4360,  648,  141,  142,  449
4361,  937,  939,  931, 1335
4362, 1202,  610,  611,  623
4363,  850,  973,  812,  811
4364,  854,  152,  822,  153
4365, 1104,  454,  144,  145
4366,  910,  909,  727,  913
4367, 1181,  469,  474,  473
4368,  908,  715,  868,  720
4369,   90, 1291, 1288, 1292
4370, 1079,  313,  286,  287
4371, 1143, 1145,  935, 1146
4372, 1033,  263,   47,   48
4373, 1230,   56,   55,  478
4374, 1111,  735,  736, 1115
4375,  853,  169,  168,  813
4376,  914,  862,  328,   88
4377,  570,  571, 1333,  951
4378,  885,  818,  813,  814
4379, 1329, 1156, 1342, 1155
4380, 1180,  474,  478,  473
4381,  979,  966, 1051, 1232
4382,  854,  817,  845,  153
4383, 1194,  466,  470,  465
4384, 1077,  453,   50,  143
4385, 1244,  764,  769,  768
4386,  889,  809,  813,  808
4387, 1316,  222,  940,  248
4388,  979, 1232, 1053, 1332
4389,  909, 1114, 1116, 1118
4390, 1140,  441, 1211,  111
4391,  850,  816,  811,  812
4392,  973,  154,  812,  155
4393, 1273,  423,  397,  424
4394,  855,  815,  816,  820
4395, 1318, 1319,  199,  225
4396,  973,  811,  807,  812
4397, 1323, 1110,  305,  279
4398,  854,  817,  821,  816
4399,  804, 1039,  976,  809
4400,   26, 1227,   25,  924
4401, 1032, 1077,   49, 1178
4402,  809,  805, 1039,  810
4403,  889,  810,  814,  809
4404,  864, 1329, 1175,  431
4405, 1101, 1094,  842,  841
4406,  883,  808,  813,  168
4407,   94,   95,  687,  881
4408, 1195,  460,  464,  459
4409, 1039,  805,  806,  810
4410,  455, 1101,  147,  146
4411, 1028,   47,  237,   46
4412, 1266,  635,  622,  623
4413,  147,  457,  455,  456
4414,  881,  686, 1221,  685
4415,  850,  812,  817,  816
4416, 1337,   80,  320,   79
4417, 1310,  681,  676,  677
4418,  677,   96, 1310,  682
4419,  153,  843,  587,  845
4420, 1226,  542,  547,  546
4421, 1306,  221,  220,  194
4422, 1329,  404,  405,  431
4423, 1262,  601,  602,  614
4424,  976,  804,  809,  808
4425,  320, 1308,  321,   80
4426, 1084,  843,  827,  822
4427,  145,  146, 1101,  455
4428,  982,  166,  165,  798
4429,  921,   67,  297,  298
4430, 1329, 1156, 1175,  378
4431,  975,  804,  800,  805
4432,  804,  975, 1039,  805
4433,  981,  630, 1276,  643
4434,  983,  802,  806,  801
4435,  236, 1082,  210,  209
4436, 1192,  460,  461,  465
4437,   86,  910,  914,   87
4438,  917,  549,  544,  545
4439, 1311, 1312,  435, 1297
4440, 1304,  296,  269,  270
4441, 1064,  166,  642,  643
4442,  899,  591,  604,  603
4443,  863,  355,  382,  381
4444,  882,  640,  627,  628
4445,  167,  883,  808,  803
4446, 1064,  166,  803,  167
4447,  798,  982,  166,  803
4448, 1100, 1301, 1098, 1099
4449,  971,  603,  615,  602
4450,  991,  756,  757,  761
4451,  407,  433,  860,  406
4452, 1204,  242,  268,  241
4453, 1238,  454,  459,  458
4454,   70, 1059, 1204, 1049
4455, 1055,  918, 1058, 1061
4456, 1192,  460,  459,  455
4457,  983,  805,  801,  806
4458,  906, 1285, 1249, 1276
4459, 1176,  863, 1293,  382
4460, 1274, 1169,  422,  423
4461, 1331, 1261, 1330, 1297
4462, 1264,   43,  462,   44
4463,  461, 1192,  457,  460
4464, 1170,   78,   79,  319
4465, 1175,  861,  431,  405
4466,  983,  802,  807,  806
4467, 1262,  614,  602,  615
4468, 1269,  793, 1066,  788
4469, 1221, 1219,  695,  696
4470,  976,  804,  808,  803
4471,  984,  800,  795,  796
4472, 1296,  118,  698,  703
4473,  983,  800,  801,  805
4474, 1314,  376,  349,  350
4475, 1311, 1330, 1293, 1297
4476,  798,  982, 1066,  165
4477,  975,  804,  799,  800
4478, 1339,  331,  332,  358
4479, 1261,  693, 1290,  116
4480,  950,  956,  958,  959
4481,  883,  808,  168,  167
4482,  894,  438,  114,  437
4483, 1066,  794,  798,  793
4484,  993, 1243,  991, 1151
4485, 1273,  397,  398,  424
4486, 1257,  439,  412,  413
4487,  938,  468,   54,   53
4488,  477,  476,  481, 1225
4489,  109,  933, 1334,  110
4490,  885,  819,  818,  814
4491,  984,  797,  801,  796
4492,  468, 1193,   53,  938
4493, 1224,   38,  487,   39
4494,  799,  795, 1065,  800
4495, 1232,  310,  309,  283
4496,  979, 1332, 1053, 1054
4497,  904,  154,  155,  589
4498, 1054,  484,  488,  483
4499,  980,  232,  205,  206
4500,  155,  807,  902,  156
4501, 1269, 1066,  794,  986
4502, 1285,  907,  617,  630
4503, 1070,  778,  178,  177
4504,  899,  603,  590,  591
4505, 1066,  793,  164,  788
4506,  174,   76, 1165,    5
4507, 1195,  459,  464,  463
4508, 1276,  643,  631,  644
4509, 1269,  783,  788,  163
4510, 1024,  633,  634,  646
4511,  436,  409,  435, 1297
4512,  792,  159, 1205,  985
4513, 1182,  470,  475,  474
4514,  414,  415,  388,  997
4515,  888,  997,  362,  996
4516, 1194,  470,  466,  471
4517,  979,  980,  978, 1053
4518, 1181,  474,  470, 1182
4519,  984,  792,  797,  796
4520, 1324,  516,  515,  511
4521,  974,  803,  798,  799
4522, 1311, 1331, 1297,  409
4523, 1253, 1165,  175,  776
4524, 1248,  790,  789,  785
4525,  890,  893,  895, 1123
4526,  175,  777,  776, 1165
4527, 1248,  786, 1205,  790
4528, 1331,  437, 1218, 1261
4529,  909, 1136,  908, 1116
4530,  471, 1197,  472,  467
4531, 1126, 1316, 1130,  940
4532, 1313,  704,  705,  709
4533, 1313,  705,  706,  710
4534,  146, 1101,  147,  842
4535, 1289,  705,  704,  700
4536, 1114, 1155, 1341,  913
4537, 1269,  789,  788,  784
4538,  844,  601,  589,  602
4539, 1191,  462,   43,  467
4540, 1155, 1341,  326,  352
4541, 1232,  308,   56,   57
4542, 1313,  705,  710,  709
4543, 1269,  788,  783,  784
4544,  777,  174,   76, 1165
4545, 1096, 1088,  625,  638
4546, 1182,  475,  479,  474
4547,  984,  800,  796,  801
4548, 1133,  723,  718,  719
4549,  987, 1004,  991,  757
4550,  883,  168,  640,  641
4551, 1246,  160,  787,  782
4552, 1206, 1249,  901, 1250
4553,  986,  794,  789,  790
4554, 1005,  751,  746,  747
4555, 1248,  785,  780,  781
4556, 1248,  786,  785,  781
4557,  911,  501,  496,  497
4558, 1023,  137,  136, 1021
4559,  999,  965,  488,  493
4560, 1270,  783,  778,  779
4561, 1075,  783,  162,  778
4562, 1121, 1122, 1119,  648
4563, 1340, 1197, 1236,   42
4564, 1155,  326, 1341,  913
4565, 1007,  752,   82,   81
4566, 1111, 1117, 1010,  737
4567, 1021,  137,  608,  595
4568, 1026,    5,  160,  782
4569, 1340, 1184,  207, 1185
4570, 1008,  745,  746,  750
4571, 1248,  790,  785,  786
4572,  697, 1223,   93,  692
4573, 1314, 1011, 1016, 1142
4574, 1248,  780,  785,  784
4575, 1275,  645,  163,  164
4576, 1231,  285, 1186,  311
4577, 1206,  606,  593,  594
4578, 1107,  575,  579,  574
4579, 1218,  438,  437,  411
4580, 1023,  394,  135,  368
4581, 1307,  410,  409,  383
4582, 1269,  794,  793,  789
4583,  646, 1075, 1024,  163
4584, 1064,  167,  641,  642
4585, 1248,  784,  785,  789
4586,  176, 1253, 1268,  175
4587, 1053,  486,  978,  485
4588, 1287,   34,   33,  512
4589,  204,  231,  205,  896
4590, 1253,  175,  174,  781
4591, 1246,  782,  786,  781
4592, 1113,  738,  733,  734
4593,  980,   38,  205,  898
4594, 1226,  547,  552,  551
4595, 1097, 1099, 1098, 1229
4596,  175, 1165,  174,  777
4597, 1014,  427,  426,  400
4598,  907,  630,  629,  617
4599, 1302,  386,  387,  413
4600,  978,  486,  487,  491
4601,  691, 1221,  695,  696
4602,  914, 1156, 1175,  866
4603, 1111,  737,  736,  732
4604, 1173,  402,  429,  428
4605, 1070,  778,  177,  779
4606,  594,  595, 1073,  607
4607, 1067,  178,    8,  773
4608, 1205,  786,  787,  791
4609, 1290,  699,  695,  700
4610,   93,   92, 1223,  697
4611, 1152,   76, 1165,  777
4612,  949,  872,  572,  951
4613, 1070,  774,  775,  177
4614, 1219,  700, 1290,  695
4615, 1199,  216,  217,  243
4616, 1203, 1201, 1305,   23
4617, 1152,  776,  771,  772
4618, 1167,  775,  771,  776
4619, 1296,  703,  698,  699
4620, 1232,  282,  283,  309
4621, 1321, 1323,  278, 1322
4622,  993, 1171, 1150, 1148
4623, 1253,  176,  775,  776
4624, 1221,  690,  691,  695
4625, 1071,  178,  773,  774
4626, 1067,  773,    8,  132
4627, 1167,  774,  770,  775
4628, 1152,  777,  776,  772
4629, 1007,  742, 1267,  747
4630,  747, 1267,   83,  742
4631,  177, 1070,  779,  176
4632, 1313,  706,  711,  710
4633, 1070,  176,  177,  775
4634, 1054,  488,  484,  489
4635, 1054,  485,  490,  489
4636, 1066,  165,  793,  798
4637,  995,  759,  763,  758
4638, 1010,   83, 1267,  742
4639, 1027,  495,  490,  491
4640,  965,  493,   58,  488
4641, 1072,  421,  131,  420
4642, 1068,  132,    8,  133
4643,  457, 1264, 1192,  462
4644,  999,  493,  488,  489
4645,  999,  489,  494,  493
4646, 1149,  770,  769,  765
4647,  395, 1163, 1274,  396
4648, 1147,   78,   77,  772
4649, 1017,  322, 1267,  323
4650, 1027,  490,  495,  494
4651, 1147,  771,  766,  767
4652,  967,   34,  507,   35
4653, 1070,  774,  178, 1071
4654,  925,  271,  270,  244
4655, 1027,  492,  496,  491
4656, 1007,  747,   82,  752
4657,  346, 1271,  345,  372
4658, 1071,  773,  769,  774
4659, 1157,  369,  395,  368
4660, 1149,  764,  765,  769
4661, 1071,  769,  773,  768
4662, 1167,  775,  770,  771
4663, 1126,   65,  299,  300
4664,  493,  856,   58,   59
4665,  920, 1097,  924, 1226
4666, 1027,  496,  495,  491
4667,   82,  747, 1267,   83
4668, 1273,  989,  994,  998
4669,  965,  856,  963,  969
4670, 1245,  131,  763,  768
4671,  870,  708,  713,  120
4672,  911,   35,  502,   36
4673,  857,  494,  499,  498
4674, 1051,  284, 1232,  283
4675,  857,  494,  498,  493
4676,  409, 1331, 1297,  436
4677, 1324,  515,  510,  511
4678, 1151,   79,   78,  767
4679, 1152,  772,   77,  777
4680, 1004,   80,   79,  762
4681,  911,  497,  502,  501
4682,  880,  498,  499,  503
4683, 1239,  510,  506,  511
4684,  992,  754,  987,  755
4685, 1267,   82,   83,  323
4686, 1243,  764,  760,  765
4687, 1168,  768,  763,  764
4688,  330,   90, 1291, 1288
4689, 1072,  131,  768,  132
4690, 1025, 1074, 1073, 1252
4691,  621, 1023,  136, 1021
4692, 1162,  343,  317,  344
4693, 1147,  767,   78,  772
4694, 1275, 1066,  164,  163
4695,  850,  810,  811,  815
4696, 1213,  252,  226,  253
4697,  995, 1243,  764,  759
4698,  995,  759,  764,  763
4699,  759,  995,  992,  758
4700, 1298,  514,  509,  510
4701, 1152, 1150, 1164, 1166
4702,  992,  760,  759,  755
4703,  880,  503,  499,  504
4704, 1246, 1268,  781, 1248
4705, 1274,  396,  423,  422
4706,  992,  755,  991,  760
4707,  879,  857,  880,  858
4708, 1331,  437,  436,  410
4709, 1308,  757,  752,   81
4710,  166,  982,  643, 1064
4711,  987,  750,  754,  749
4712, 1239,  509,  505,  510
4713, 1249,  984,  985,  901
4714, 1151,  762,   79,  767
4715, 1005,  752,  756,  751
4716, 1318,  200, 1213,  226
4717, 1151,  767,  766,  762
4718, 1014, 1012, 1013,  427
4719,  920,  924,  193,  923
4720, 1032,   48,   49,  289
4721, 1274,  397, 1273,  423
4722, 1221,  691,  687,  692
4723,  746, 1005, 1007, 1008
4724, 1026,  174,    5,  782
4725, 1253,  176,  776,  175
4726,  878,  502,  507,  506
4727, 1029,  288,  315,  314
4728,  686, 1221,  690,  691
4729,  923,  246,  245,  219
4730, 1149,  770,  765,  766
4731,  960, 1301, 1317, 1098
4732, 1093,  144,  839,  840
4733, 1255, 1164, 1165, 1026
4734, 1239,  511,  506,  507
4735, 1308,  757,   81,   80
4736, 1007, 1010,  742, 1009
4737,  967, 1287,  201,  227
4738, 1004,  757,   80,  762
4739, 1006, 1009, 1008,  746
4740, 1009,  746,  741,  742
4741,  686,  691,  687, 1221
4742, 1131,  519,  523,  518
4743, 1087,  843, 1095,  877
4744,  692, 1223,   93,   94
4745,  886,  818,  885,  823
4746, 1002,  739,  744,  743
4747,  993, 1150, 1245, 1168
4748, 1010,  742,  741,  737
4749, 1167,  774,  769,  770
4750, 1132,   65,   64,  523
4751,  198,   30, 1345, 1277
4752, 1098, 1317,  960,  195
4753,  685,  681,  680,  881
4754,  987,  751,  756,  755
4755, 1003,  425,  127, 1018
4756, 1324,  512,  517,  516
4757,  990, 1005, 1007, 1308
4758, 1327,   33,   32,  517
4759,  908,  725,  720,  721
4760, 1337, 1004, 1271, 1308
4761, 1000,  748,  127,  743
4762, 1169,  130,  758,  763
4763, 1323,   61,  304,   60
4764, 1338,  296,  270,  297
4765, 1243,  765,  761,  766
4766, 1105,  886,  855,  885
4767,  861,  433,  432,  406
4768, 1006,  740,  741,  745
4769, 1175,  405,  379,  406
4770, 1005,  751,  747,  752
4771,  570,  565,  569, 1161
4772,  587,  845,  588,  153
4773, 1306,  220,  923,  194
4774,  293, 1234,  267,  266
4775,  734,  735, 1115,  739
4776,  240, 1235,  214,  959
4777, 1263,  187,  214,  213
4778, 1235,  266,  240,  267
4779, 1324, 1328, 1325,  516
4780, 1326,   63,   62,  513
4781,  845,  843,  587,  844
4782, 1103,  541,  545,  540
4783, 1263,  959,  213,  214
4784, 1324,  516,  511,  512
4785,  959,  240,  239,  213
4786,  306,  858,  856,  969
4787, 1263,  959, 1154,  213
4788, 1107,  574,  951,  575
4789, 1263,  213, 1154,  187
4790, 1118,  727,  732,  731
4791, 1277,   31,  527,  522
4792, 1116,  730,  726,  731
4793,  872,  187, 1263, 1154
4794,  232,  258, 1051,  231
4795, 1116,  725,  726,  730
4796, 1230, 1232,  310,  309
4797,  966,  283,  256,  257
4798,  861,  431,  120,  864
4799, 1172,  123,  728,  124
4800,  911,  497,   36,  502
4801, 1017,  348,  375,  374
4802, 1135,  724,  729,  728
4803,  896, 1174,   37,  204
4804,  352, 1341,  351, 1342
4805, 1326,  513,  518,   63
4806,  910,  727,  722,   87
4807,   86,  913, 1118,   85
4808,  389,  996,  363,  362
4809, 1251, 1250,  631, 1276
4810,  901,  605,  592,  593
4811,  909,  726, 1118, 1116
4812,  389, 1247,  997,  415
4813,  919,  543,  538,  539
4814, 1317,   29,   28,  537
4815,  530, 1128, 1129,  531
4816, 1131,  524,  523,  519
4817, 1133,  724,  723,  719
4818, 1172,  123,  124,  428
4819,  875,  717,  722,  721
4820, 1343,  532,  531,  527
4821, 1306, 1098,  923, 1160
4822, 1288,  707,  706,  702
4823,  551,  917,  546,  550
4824, 1110,  252,  279, 1323
4825, 1336,  526,  522,  527
4826,  875,  908,  868,  721
4827,  982,  644,  165,  643
4828, 1232,  309,   56,  308
4829,  908,  724,  719,  720
4830,  978,  486,  491,  490
4831, 1155,  909,  866,  913
4832, 1199,  243,  242,  216
4833,  865,  864, 1133,  866
4834,  203,   36,  970, 1174
4835, 1014,  125,  426,  427
4836,  165,  166,  982,  643
4837, 1113,  729,  733,  728
4838,  724, 1136,  908, 1133
4839, 1340,   41,   42,  209
4840,  921,   68,  297,   67
4841, 1127,  533,  528,  529
4842, 1125,  524,  529,  528
4843,  938,   54,  311,   53
4844, 1300,  538,   67,  533
4845,   36,   37,  911, 1174
4846, 1180,  938, 1181,  473
4847, 1236, 1191, 1082,   42
4848, 1282,  610, 1202, 1266
4849,  875,   87,  722,   88
4850, 1097,  542, 1229,   27
4851, 1343,  526,  531,  530
4852, 1292, 1288,   90,  707
4853,  910,  727,   87,   86
4854, 1210,  479,  483,  478
4855, 1229, 1128,  537,  536
4856, 1071,  768, 1244,  769
4857, 1128,  530, 1343,  531
4858,  295, 1059, 1204,   70
4859,  355,  863, 1291,  862
4860, 1232,  966,  964,  965
4861, 1292, 1288,  707,  706
4862,   37,   38,  492,  897
4863,  865,  718,  714,  719
4864, 1102,  298,  272,  299
4865,  896,  492,  897,   37
4866,  909, 1136, 1155,  866
4867,  908,  715,  720,  719
4868,  865,  718,  713,  714
4869,  909, 1118,  727,  913
4870,  978,  487,  492,  491
4871,  916,  543,  544,  548
4872, 1097,   26,  194,  193
4873,  869,  863, 1292, 1293
4874,  964,  281,  308,  307
4875, 1118,  731,  726,  727
4876, 1100,  539,  538,  534
4877,  876,   89,   88,  717
4878,  875,  722,  717,   88
4879,  897,  492,  487,   38
4880, 1045, 1084, 1090,  826
4881,  371, 1272, 1273,  372
4882, 1228,  373,  372,  346
4883,  886,  884,  169,  639
4884, 1296, 1312,  118, 1177
4885,  868,  720,  715,  716
4886,  921,  926,  298,  297
4887,  868,  709,  710,  714
4888, 1060,  553,  548,  549
4889,  165,  982, 1066,  164
4890, 1002,  126,  125,  738
4891,  415, 1247,  997,  414
4892, 1129,  540,  539,  535
4893,  990, 1286,  998, 1308
4894, 1127,  529,  534,  533
4895, 1342,  352, 1156,  378
4896, 1338,   68,   69,  296
4897,  919,  543,   68,  538
4898, 1083, 1138, 1137,  364
4899,  946,  668,  673,  112
4900, 1137, 1138,  416,  390
4901,  875,  717,  721,  716
4902, 1301, 1344, 1300, 1102
4903,  896,   37,   38,  205
4904, 1144,  418,  392,  419
4905,  916,  544,  549,  548
4906, 1099, 1229,  541,  536
4907, 1288,  702,   91,  707
4908, 1311,  383,  409,  382
4909, 1291,  329,  330,  356
4910,  531, 1128, 1129,  536
4911, 1177,  119,  870,  433
4912,  899,  156,  900,  591
4913, 1133,  723,  122,  718
4914, 1311, 1294,  383,  382
4915,  864,  121,  431,  120
4916,  864,  430,  431,  121
4917, 1131,  941, 1326, 1132
4918, 1274, 1245, 1158,  422
4919,  923,  220,  246,  219
4920,  392,  366, 1144,  393
4921, 1339,  357, 1294,  331
4922, 1198,  287, 1237,  261
4923, 1080,  468,   53,  463
4924, 1288,  330,  331, 1294
4925,  801,  983,  802,  797
4926,  541,  540, 1099,  536
4927, 1291, 1288, 1294,  330
4928, 1291,  330,   89,   90
4929,  844,  601,  588,  589
4930, 1129,  539,  534,  535
4931,  876,  712,   89,  717
4932, 1060, 1063,  553,  554
4933, 1326,  922,  941, 1279
4934, 1186,  286,  312,  285
4935, 1340, 1236, 1187, 1185
4936, 1097,   27,  547,  542
4937, 1220,  702,   92,   91
4938, 1291,  329,   89,  330
4939, 1301, 1102, 1160, 1344
4940, 1236,  208,  209,  235
4941, 1282, 1281,  597,  596
4942, 1237,  234,  235,  261
4943, 1092,  585,  597,  584
4944, 1219,  695,  696,  700
4945, 1290,  699,  694,  695
4946,  924,  218,  192,  219
4947, 1014,  126,  426,  125
4948, 1082,   42,   43,  210
4949, 1297,  116,  435,  436
4950,  916,  543,  548,   69
4951, 1251,  632,  645,  644
4952,  917,  916,  544,  549
4953, 1060,  554,  550,  555
4954, 1095,  626,  613,  614
4955, 1297,  116,  117,  435
4956, 1290,  698,  693,  694
4957,  886, 1041,  170,  823
4958,  924, 1227, 1203,  918
4959, 1288,   91,   90,  707
4960, 1307, 1309,  384,  358
4961, 1192,  454,  455,  459
4962,  892,  694, 1290,  693
4963, 1098,  195,  194,   27
4964, 1226,  918,  917, 1062
4965, 1237,  260,  287,  286
4966, 1179, 1186, 1233, 1185
4967,  976,  809,  889,  808
4968, 1198,  288,  261,  262
4969, 1242,  466,  462,  467
4970, 1242,  461,  462,  466
4971, 1292,  707,   90,  712
4972, 1242,  461, 1191,  462
4973,  917,  550,  549,  545
4974, 1100, 1102, 1300,  921
4975,  691, 1221,  696,  692
4976, 1059,   70,  548,  553
4977, 1290,  693,  698,  117
4978,  891,  690, 1221,  695
4979, 1062,  555,  550,  551
4980, 1290,  694,  699,  698
4981, 1291,  356,  330, 1294
4982, 1242, 1191,  467,  462
4983,  519, 1325,  518, 1131
4984, 1203,  218,  925,  217
4985,  702, 1289,  701,  706
4986, 1237,  260,  261,  287
4987, 1078,   51,  313,  314
4988, 1197, 1194, 1242, 1076
4989,   25,  924,  193,   26
4990, 1080,   52, 1195,  463
4991, 1296, 1297, 1312, 1293
4992, 1194,  469,  464,  465
4993, 1198,  261,  288,  287
4994,  552, 1097,  547, 1226
4995, 1282, 1040, 1266, 1202
4996, 1311, 1331, 1307, 1297
4997, 1081, 1032, 1038, 1033
4998, 1289, 1288,  702, 1219
4999, 1123,  689,  685,  690
5000, 1078,   51,   52,  313
5001, 1063,  558,   71,  553
5002, 1204,  243,  269,  242
5003, 1292,  712,   90,   89
5004, 1263,  214,  188,  215
5005, 1104,  145,  455,  454
5006, 1024,  633,  645,  632
5007,  690, 1221,  686,  685
5008, 1197,  467, 1191,   42
5009, 1260, 1033,   47,  609
5010, 1258,   23,   22,  567
5011,  867,  499,  495,  500
5012, 1063,  554,  559,  558
5013,  892,  689,  693,  688
5014, 1133, 1135, 1134,  122
5015, 1176, 1312,  434,  408
5016,  908,  865,  714,  719
5017, 1331,  411,  437,  410
5018, 1134,  429,  122,  123
5019, 1236,  234,  208,  235
5020, 1219,  696, 1221,  697
5021, 1234,  293,  267,  294
5022, 1314, 1341,  350,  324
5023, 1223, 1283, 1222,  359
5024, 1342,  378,  351,  352
5025, 1173,  430,  429,  403
5026,  893,  680,  685,  684
5027, 1341,  325,  326,  352
5028, 1134, 1136, 1173, 1172
5029, 1057,  559,  555,  560
5030,  896,  979,  898,  897
5031, 1100,  919,  920,  921
5032,  565, 1153, 1161,  570
5033,  864, 1329, 1133,  866
5034,  893,  684,  683,  679
5035, 1161,  568,  563,  564
5036, 1258,  562,   23,  567
5037,  869, 1296, 1289, 1313
5038, 1076, 1181, 1194,  470
5039, 1183,  233,  207, 1185
5040,  681, 1310,  680,  881
5041,  992,  993,  995, 1243
5042,  583, 1281, 1260,  596
5043, 1057,  559,  560,  564
5044, 1333,  562,  567,  566
5045,  692, 1221,  696,  697
5046,  891, 1290,  892,  694
5047, 1033,  622,   48,  609
5048,  877,  587,  599,  586
5049, 1200, 1263,  188,  215
5050, 1219,  701, 1289,  700
5051, 1256,  440,  112,  439
5052,  877,  599,  612,  611
5053, 1241,  559,  564,  563
5054, 1106,  181,  955,  179
5055, 1054,  485,  489,  484
5056,  915,  920,  917,  919
5057, 1044,  836,  835,  831
5058,  890,  688,  683,  684
5059,  893,  684,  679,  680
5060, 1084,  826,  821,  822
5061, 1124,  675,  679,  674
5062, 1333,  565,  561,  566
5063,  565,  570,  566, 1333
5064, 1153, 1333,  873,  951
5065, 1258,  873,  189,  871
5066, 1225, 1182,  476,  481
5067,  570, 1153, 1333,  565
5068,  680, 1310,  681,  676
5069,  872,  577,  572,   21
5070,  573,  951,  574,  569
5071, 1333,  570,  566,  571
5072, 1336,  522,  526,  521
5073,  571,  951,  576,  572
5074,  675,  680,  676, 1310
5075, 1085,  150,  837,  832
5076,  843,  153,  587,  152
5077,  877,  598,  599,  611
5078,  944,  678,  674,  679
5079,  947,  683,  114,  678
5080,  675, 1310,  676,  847
5081,  671,  675,  847,  670
5082, 1333,  566,  561,  562
5083, 1216,  949,  582,  581
5084, 1161,  573,  568,  569
5085,  951,  575,  571,  576
5086, 1320, 1279, 1326,  941
5087, 1127,  533,   66,  528
5088,  997,  912,  888,  362
5089,  957,  573,   74,  568
5090,  951,  570,  575,  574
5091, 1253,  776, 1164, 1165
5092,  855,  820,  816,  821
5093, 1333,  951, 1153,  570
5094, 1140, 1137, 1334,  415
5095, 1330, 1296, 1290, 1289
5096, 1274, 1171, 1158, 1245
5097,  894,  683,  115,  114
5098,  847, 1124,  675, 1310
5099, 1106,  579,   10,    9
5100,  873, 1258,   22,  567
5101,  955,  185,  179,  181
5102,  847,  675,  674,  670
5103,  566, 1333,  571,  567
5104,  567, 1333,  571,  873
5105,   22,  189,  873,   21
5106,  965,  307,  308,   57
5107,  945,  997,  912,  888
5108,  947,  113,  678,  114
5109,  965,  488,   58,   57
5110, 1100,  538,  533,  534
5111, 1241, 1161,  563,  564
5112, 1107,  580,  579,  575
5113, 1069,    8,  161,  133
5114,  790,  791,  986,  795
5115,  953,  949, 1216,  954
5116, 1090,  832, 1085,  827
5117, 1216,  581,   12,  182
5118, 1212,  582,   19,  183
5119, 1212,  186,   19,  187
5120,  953,  577,   20,  582
5121, 1103,  540, 1099,  541
5122, 1106,  579,    9,  578
5123,  934,   15,  184,  212
5124, 1103,  546,  917,  545
5125,  944,  678,  673,  674
5126, 1106,  955,   75,  179
5127, 1106,  578,  574,  579
5128,  848,  945,  888,  996
5129, 1189,  664,  663,  659
5130, 1090,  586,  585,  151
5131, 1045,  829,  824,  825
5132,  109,  933,  108,  443
5133, 1039,  806,  811,  810
5134,  581,  580,   11,  182
5135,  951, 1153,  570, 1161
5136,  393, 1120,  419,  451
5137, 1335,  666,  665,  661
5138,  907,  604,  617,  616
5139,  953,   19,  582,   20
5140,  949,  576,  577,  581
5141,  582,   13,   19,  183
5142, 1085,  832,  831,  827
5143,  843,  600,  844, 1095
5144,  973,  811,  806,  807
5145,  845,  817,  154,  153
5146, 1026,  174, 1165,    5
5147, 1028,   47,  263,  237
5148, 1101,  842,  148,  147
5149,  985,  157,  797,  158
5150,  841,  145,  146, 1101
5151, 1332,   57,   56,  483
5152, 1190, 1192, 1194, 1195
5153,  148,  149,  842, 1094
5154,  928,  660,  665,  664
5155, 1100, 1127,  534,  533
5156, 1129,  535,  534,  530
5157,  903,  973,  902,  904
5158,  148,   45, 1265,    3
5159,  930,  650,  654,  649
5160, 1124,  675,  680,  679
5161, 1331, 1218, 1309, 1261
5162, 1103,  917,  919,  544
5163, 1260,  583,  596,   46
5164, 1322,  278,  251,  252
5165,  948,  113,  112,  673
5166,  937,  656,  660,  655
5167,  936,  656,  652,  657
5168, 1139,   99,   98,  667
5169, 1103, 1226,  917,  546
5170, 1089, 1040, 1265, 1281
5171,  901,  157,  158,  592
5172,  873,  572,  567,   22
5173,  837, 1089, 1094,  149
5174, 1266,  610,  623,  622
5175, 1095,  600,  601,  613
5176,  930,  650,  655,  654
5177, 1241,  558,  559,  563
5178, 1119, 1295,  930,  649
5179, 1260,  596,  609,   47
5180,  584,  150, 1092,  585
5181, 1144,  365,  392,  391
5182, 1119,  653,  649,  654
5183,  936,  656,  651,  652
5184, 1049,  558,  563,   72
5185,  936,  100,  657,  101
5186,  916,  543,   69,   68
5187,  173, 1178,  838,  833
5188, 1281,  596,  583,  584
5189,    3,   44,   45, 1036
5190, 1097,   27,   26,  547
5191,  847,  670,  674,  669
5192, 1137,  389,  416,  415
5193, 1295,  649,  140,  650
5194, 1105, 1045,  824,  825
5195, 1125, 1131, 1130, 1128
5196,  953,  954, 1216, 1212
5197,  937, 1335,  662,  939
5198,  926,  298,  271,  272
5199, 1161,  565,  569,  564
5200,  937,  661, 1335,  660
5201, 1045,  830,  825,  826
5202,  110, 1211,  663,  658
5203,  928,  659,  655,  660
*Nset, nset=PIPE_CEL_BODY, generate
    1,  1345,     1
*Elset, elset=PIPE_CEL_BODY, generate
    1,  5203,     1
*Elset, elset=PIPE_SOLID_ALL, generate
1, 5203, 1
*Surface, type=ELEMENT, name=PIPE_SOLID_SURF
PIPE_SOLID_ALL, S1
PIPE_SOLID_ALL, S2
PIPE_SOLID_ALL, S3
PIPE_SOLID_ALL, S4
** Section: SEC_PIPE_RIGID
*Solid Section, elset=PIPE_CEL_BODY, material=MAT_PIPE_RIGID
,
*End Part
**  
** ROBOT TRANSVERSE SHRINK: PCA minor axes scaled to 0.90; long axis unchanged
*Part, name=Robot_SOLID
*Node
1, 3.43472225275, -4.86226208389, -6.86025986431
2, 3.95675337699, -4.88513515563, -7.20912625246
3, 3.76246273074, -4.87331943111, -6.43736251544
4, 6.34266350067, -5.15728505012, -6.52480888697
5, 6.17046934444, -5.16416350179, -5.89737128719
6, 3.56618829152, -4.85820625182, -7.02477517213
7, 3.74664822189, -4.86045322335, -7.17702249192
8, 3.92660090733, -5.05597548022, -7.17345635768
9, 3.88317999837, -5.19180905798, -7.06842273681
10, 3.8350901539, -5.26573178382, -6.9148283309
11, 3.79185641314, -5.2631024152, -6.74309468168
12, 3.76204186105, -5.18444206975, -6.5872354885
13, 3.75155131231, -5.04533042341, -6.47812088153
14, 3.59273783192, -4.86642110837, -6.56727895754
15, 3.47903226342, -4.86431718758, -6.7101091085
16, 3.7926152004, -4.70247910652, -6.47303241021
17, 3.83603611929, -4.56664552888, -6.57806603086
18, 3.88412596376, -4.49272280304, -6.73166043677
19, 3.92735969459, -4.49535217154, -6.90339408621
20, 3.95717424668, -4.57401251699, -7.05925327939
21, 3.96766480081, -4.713124587, -7.16836788506
22, 4.15691353388, -4.90985008491, -7.15874708808
23, 4.35707393937, -4.9345650261, -7.10836790895
24, 4.55723434547, -4.95927995947, -7.05798830448
25, 4.75739475074, -4.98399490063, -7.00760913441
26, 4.95755514619, -5.00870983269, -6.95722995554
27, 5.15771556222, -5.03342476617, -6.90685035085
28, 5.35787595756, -5.05813970722, -6.856471181
29, 5.55803588627, -5.08285463388, -6.80609201278
30, 5.75819629142, -5.10756956603, -6.75571284273
31, 5.95835669786, -5.13228450844, -6.70533322918
32, 6.15861261313, -5.14937416425, -6.64727082591
33, 6.3224274246, -5.28652722483, -6.53297586998
34, 6.28371327072, -5.42045621574, -6.46957039448
35, 6.23573777543, -5.50635771887, -6.33306249385
36, 6.19387287571, -5.51388150612, -6.16821930406
37, 6.16888530022, -5.44008623377, -6.02471880833
38, 6.16154225005, -5.31541073495, -5.93089869875
39, 5.96422671159, -5.14518414385, -5.88318987167
40, 5.76406631614, -5.12046921179, -5.93356905054
41, 5.56390590011, -5.09575427831, -5.98394865523
42, 5.36374550477, -5.07103933726, -6.03432782508
43, 5.16358509389, -5.04632397241, -6.08470700552
44, 4.96342468779, -5.02160903904, -6.13508660998
45, 4.76326475897, -4.99689410336, -6.18546577824
46, 4.56310435381, -4.97217917121, -6.23584494828
47, 4.36294394771, -4.94746423784, -6.28622455275
48, 4.16278354222, -4.92274929666, -6.33660373187
49, 3.96262314699, -4.89803436462, -6.38698290169
50, 6.34450408065, -5.05711874149, -6.47223861249
51, 6.34255854315, -4.9533228935, -6.42526268846
52, 6.32164924477, -4.87088119833, -6.32731535435
53, 6.28357526037, -4.84104687132, -6.18648394233
54, 6.23711449093, -4.89027233178, -6.03857634532
55, 6.19622337474, -5.01047949135, -5.9331071102
56, 3.78186455567, -5.08134432524, -7.1304212028
57, 3.67052983, -5.05561038534, -7.06878234754
58, 3.7348596065, -5.17051013691, -7.02390128398
59, 3.54225335563, -4.98564429667, -6.96687044278
60, 3.6212795013, -5.10748361183, -6.9538344947
61, 3.67753839561, -5.1926364312, -6.86731286042
62, 3.54988652263, -5.07961306444, -6.82873309623
63, 3.63203530092, -5.14569613362, -6.71212948548
64, 3.46832575278, -4.96851441427, -6.80427093141
65, 3.52237091372, -5.00604250938, -6.6920939298
66, 3.62705470044, -5.05877967164, -6.59431368878
67, 3.58964284305, -4.72219956453, -6.64112778657
68, 3.72397588046, -4.5734461935, -6.65642332889
69, 3.51067664233, -4.74696307478, -6.76563930767
70, 3.61020388207, -4.63821202793, -6.75403485033
71, 3.73380469265, -4.52814235983, -6.83128348646
72, 3.58430585795, -4.67473567479, -6.90735811239
73, 3.77167809457, -4.5530363172, -6.98146901711
74, 3.72434195817, -4.66759132187, -7.09810633761
75, 3.84268105574, -4.69053101687, -7.14876854424
76, 4.12676131821, -5.08069084507, -7.12307717724
77, 4.32692172431, -5.10540577844, -7.07269757278
78, 4.52708212958, -5.1301207196, -7.02231840271
79, 4.72724252503, -5.15483565166, -6.97193922383
80, 4.92740293019, -5.17955058381, -6.92156005379
81, 5.1275633364, -5.20426552619, -6.8711804493
82, 5.32772326511, -5.22898045286, -6.82080128107
83, 5.52788367038, -5.25369539402, -6.770422111
84, 5.7280440767, -5.27841032742, -6.72004249748
85, 5.92820448186, -5.30312525956, -6.66966332743
86, 6.12830895494, -5.31672011001, -6.61589382443
87, 4.08334040447, -5.21652399135, -7.01804313235
88, 4.28350080996, -5.24123893253, -6.96766395322
89, 4.48366120519, -5.26595386456, -6.9172847834
90, 4.68382114454, -5.29066879255, -6.86690518958
91, 4.88398155004, -5.31538373373, -6.81652601046
92, 5.08414194526, -5.34009866576, -6.76614684064
93, 5.28430235064, -5.36481359794, -6.71576766154
94, 5.48446275686, -5.38952854032, -6.66538805704
95, 5.68462316224, -5.41424347249, -6.61500887795
96, 5.88478355746, -5.43895840452, -6.56462970813
97, 6.08491915372, -5.46184045865, -6.51431546546
98, 4.03525054935, -5.29044671588, -6.86444915203
99, 4.23541096538, -5.31516164936, -6.81406954734
100, 4.43557136072, -5.33987659041, -6.76369037749
101, 4.63573175617, -5.36459152247, -6.71331119862
102, 4.83589169552, -5.38930645045, -6.6629316048
103, 5.03605210079, -5.4140213916, -6.61255243473
104, 5.23621249624, -5.43873632366, -6.56217325585
105, 5.43637291239, -5.46345126616, -6.51179365114
106, 5.63653330784, -5.48816619822, -6.46141447226
107, 5.83669371299, -5.51288113037, -6.41103530222
108, 6.0368541192, -5.53759607275, -6.36065569772
109, 3.99201682917, -5.28781734869, -6.69271507699
110, 4.19217698628, -5.31253227799, -6.64233590356
111, 4.39233739155, -5.33724721915, -6.59195673348
112, 4.592497787, -5.36196215121, -6.54157755461
113, 4.79265820853, -5.38667751737, -6.49119794858
114, 4.99281860376, -5.4113924494, -6.44081877876
115, 5.19297900925, -5.43610739059, -6.39043959963
116, 5.39313941535, -5.46082232396, -6.34005999517
117, 5.59329982062, -5.48553726512, -6.2896808251
118, 5.79345974933, -5.51025219179, -6.23930165687
119, 5.99362015543, -5.53496712516, -6.18892205241
120, 3.96220202809, -5.20915699917, -6.53685631484
121, 4.16236242332, -5.2338719312, -6.48647714502
122, 4.36252283946, -5.2585868737, -6.4360975403
123, 4.56268323491, -5.28330180576, -6.38571836143
124, 4.76284364018, -5.30801674692, -6.33533919136
125, 4.96300404651, -5.33273168032, -6.28495957784
126, 5.16316445166, -5.35744661246, -6.23458040779
127, 5.36332437055, -5.38216154803, -6.18420123977
128, 5.56348478658, -5.40687648151, -6.13382163507
129, 5.76364518181, -5.43159141354, -6.08344246526
130, 5.96380559269, -5.4563067784, -6.03306328482
131, 3.95171170788, -5.07004536448, -6.42774170262
132, 4.15187211303, -5.09476029662, -6.37736253258
133, 4.35203251913, -5.11947523, -6.32698292812
134, 4.55219292463, -5.14419017118, -6.27660374899
135, 4.75235285311, -5.16890509782, -6.22622458982
136, 4.95251325943, -5.19362003122, -6.1758449763
137, 5.1526736647, -5.21833497238, -6.12546580622
138, 5.35283406015, -5.24304990444, -6.07508662735
139, 5.5529944763, -5.26776484694, -6.02470702263
140, 5.75315487152, -5.29247977897, -5.97432785281
141, 5.9533152769, -5.31719471114, -5.92394867371
142, 6.30217952956, -4.94837249344, -6.30453373849
143, 6.24736588084, -4.98258808622, -6.12260722765
144, 6.20504544756, -5.13957042209, -6.03218769423
145, 6.20948251614, -5.27692041992, -6.11713601094
146, 6.22094850018, -5.39114738225, -6.21882771503
147, 6.27042370884, -5.34259704543, -6.38392645827
148, 6.32575784119, -5.05207336099, -6.43452100088
149, 6.29995789254, -5.20061762448, -6.4197737443
150, 6.26315636182, -5.12032730249, -6.24893078645
151, 6.2527099551, -5.26517144993, -6.28048904367
152, 5.9943789373, -4.97434339282, -5.91885978225
153, 6.03779984112, -4.83851024643, -6.02389382737
154, 6.08586150555, -4.76596198892, -6.17931245096
155, 6.12907970548, -4.77726402805, -6.3560674215
156, 6.15904601196, -4.8571401636, -6.50646719058
157, 6.16961752502, -4.9881570841, -6.60823367658
158, 5.79421852116, -4.94962845032, -5.96923938696
159, 5.83763992223, -4.81379531086, -6.0742729954
160, 5.88572929002, -4.73987257951, -6.22786741218
161, 5.9289632538, -4.74250152711, -6.3996010575
162, 5.95877781582, -4.82116187267, -6.55546025045
163, 5.96926813161, -4.96027393993, -6.66457486156
164, 5.59405812593, -4.92491351829, -6.01961855678
165, 5.63747951707, -4.78908037872, -6.12465216544
166, 5.68556936154, -4.71515765287, -6.27824657135
167, 5.72880285846, -4.71778658606, -6.44998022735
168, 5.75861741032, -4.79644693148, -6.60583942958
169, 5.76910820279, -4.93555900424, -6.71495402981
170, 5.39389772055, -4.90019858611, -6.06999773588
171, 5.43731910524, -4.76436501264, -6.1750317803
172, 5.48540894971, -4.6904422868, -6.32862618621
173, 5.52864244243, -4.69307165258, -6.50035983204
174, 5.5584570151, -4.77173199945, -6.6562185994
175, 5.56894779763, -4.9108440721, -6.76533319985
176, 5.19373779101, -4.87548364923, -6.1203773295
177, 5.23715869997, -4.73965007148, -6.22541095037
178, 5.28524854456, -4.66572735465, -6.37900535626
179, 5.32848204698, -4.66835672052, -6.55073901091
180, 5.35829659907, -4.74701706597, -6.70659820409
181, 5.36878740218, -4.88612914004, -6.81571237873
182, 4.99357738563, -4.85076871706, -6.1707565086
183, 5.03699830452, -4.71493513942, -6.27579012925
184, 5.08508814899, -4.64101241358, -6.42938453516
185, 5.12832164171, -4.64364177936, -6.60111818098
186, 5.15813667025, -4.72230213029, -6.75697737235
187, 5.16862698604, -4.86141419754, -6.86609198345
188, 4.79341699041, -4.82605378503, -6.22113567842
189, 4.83683788849, -4.69022020594, -6.32616973394
190, 4.88492773296, -4.61629748009, -6.47976413985
191, 4.92816123539, -4.61892684596, -6.6514977945
192, 4.95797627502, -4.69758719826, -6.80735654216
193, 4.96846659081, -4.83669926551, -6.91647115327
194, 4.59325657427, -4.80133884253, -6.27151528314
195, 4.63667749315, -4.66550526489, -6.37654890379
196, 4.68476733774, -4.59158254806, -6.53014330967
197, 4.72800130691, -4.59421191932, -6.70187695367
198, 4.75781586953, -4.67287225707, -6.85773572129
199, 4.76830618543, -4.81198433334, -6.96685033236
200, 4.39309617881, -4.77662391047, -6.32189446201
201, 4.43651708777, -4.64079033272, -6.42692808288
202, 4.48460693224, -4.56686760688, -6.58052248879
203, 4.52784090141, -4.56949697813, -6.7522561328
204, 4.55765546343, -4.6481573237, -6.90811532576
205, 4.56814577922, -4.78726939095, -7.01722993686
206, 4.19293577355, -4.75190896931, -6.37227363208
207, 4.23635668167, -4.61607539935, -6.47730768735
208, 4.28444652615, -4.54215267351, -6.63090209326
209, 4.32768049531, -4.54478204476, -6.80263573727
210, 4.35749505827, -4.62344239155, -6.9584944958
211, 4.36798537384, -4.76255445878, -7.06760911596
212, 3.99277536745, -4.72719403594, -6.42265323655
213, 4.03619675285, -4.59136046367, -6.5276868556
214, 4.08428612065, -4.51743773232, -6.68128127239
215, 4.12752009997, -4.52006710372, -6.85301490711
216, 4.15733466271, -4.59872745048, -7.0088736747
217, 4.1678249785, -4.73783951773, -7.1179882858
218, 5.8361745679, -4.97623081586, -6.37612869892
219, 5.95419509471, -4.8908928016, -6.26388153738
220, 5.98271944925, -5.12394322556, -6.37561119226
221, 5.7125459852, -5.09560132906, -6.18425477869
222, 5.9276385201, -5.02631775761, -6.17998284921
223, 6.06210055171, -4.97597884251, -6.45356330292
224, 5.73448676137, -4.95537854897, -6.15848354819
225, 3.6137219332, -4.80440383857, -6.84529820121
226, 3.75586617088, -4.82576542529, -6.71484385728
227, 3.61831064019, -4.91620185923, -6.83558608809
228, 3.7027316105, -4.85303440002, -6.96238691398
229, 4.50657695441, -5.19914691058, -6.58352001113
230, 4.36220684594, -5.17232322493, -6.65352853319
231, 4.45725233417, -5.13827981347, -6.48391991139
232, 4.47373131399, -4.98403901712, -6.3943846768
233, 3.82995158871, -4.79093165218, -7.04745785584
234, 3.73360684772, -4.71177469989, -6.8887792251
235, 3.91428449138, -4.8939464975, -6.99255379516
236, 3.90180052009, -4.71871350372, -6.93565221646
237, 4.30915140435, -5.02497425923, -6.46244230772
238, 4.49155278586, -4.99295154879, -6.5605496862
239, 4.25010062059, -5.10387867072, -6.53918364988
240, 5.69094925331, -5.3066182988, -6.19232939998
241, 5.80800968124, -5.35097413813, -6.24777480894
242, 5.83929796311, -5.21081899718, -6.11368659349
243, 5.92460792005, -5.34458270599, -6.12862118799
244, 5.6419496108, -5.30482471841, -6.36727707448
245, 5.48821023559, -5.32463873634, -6.32651715145
246, 5.80808681396, -5.21957659088, -6.37642509623
247, 5.525262399, -5.21809737425, -6.17504895816
248, 5.55213269844, -5.10987180959, -6.4061840112
249, 5.51346341417, -5.25110261023, -6.52595121196
250, 4.61928630301, -4.83838133565, -6.86972224065
251, 4.83627898772, -4.9974671768, -6.79726034904
252, 4.90869486131, -4.95871651009, -6.86631133698
253, 5.92318364734, -5.05865694627, -6.06340490611
254, 5.5288426208, -4.97783281735, -6.14469098103
255, 5.59461949274, -4.95159408833, -6.24246874725
256, 5.63298601808, -5.01955502893, -6.53064517019
257, 5.69365208304, -5.23050716392, -6.53520911043
258, 5.64628673309, -4.86708768162, -6.51574286898
259, 5.80854109554, -4.89565727202, -6.51297824434
260, 5.71199227194, -4.98171843596, -6.61924468158
261, 5.69519130272, -4.86145270777, -6.35951785073
262, 5.47905628215, -4.89254272443, -6.39020370663
263, 5.4501672308, -4.85776046085, -6.57175898187
264, 5.43038859941, -5.06762843512, -6.65672269804
265, 3.86013334394, -4.96472317214, -6.84272385282
266, 3.66356198978, -5.01692016109, -6.78278470707
267, 5.12946486395, -4.93777673136, -6.26398551276
268, 5.28974353326, -4.93064809344, -6.48974690316
269, 5.02164913782, -4.97627767879, -6.33053672567
270, 5.09194094777, -4.7777620091, -6.49745144102
271, 3.98746632067, -4.79520906718, -6.80429734012
272, 3.76409453337, -5.0783657792, -6.71625042209
273, 3.78123527306, -4.95148672423, -6.6562782737
274, 3.91483774811, -5.12844871806, -6.74461519651
275, 4.06102504489, -5.06272855852, -6.64226587176
276, 4.01162674372, -5.07830323691, -6.90508023162
277, 5.99987047393, -5.25431920631, -6.51820640207
278, 5.82446729614, -5.21290629638, -6.5697686929
279, 5.97381487978, -5.37346704585, -6.3500959066
280, 5.87691788985, -5.06208277992, -6.56811986564
281, 5.38641807327, -5.26134879714, -6.64068784253
282, 5.62454214409, -5.1767081429, -6.62480725098
283, 4.24899496706, -4.76239086739, -6.8634393862
284, 4.4259350576, -4.7195741626, -6.82354912072
285, 5.29829940069, -5.1231257237, -6.62288323761
286, 5.23947352734, -5.2628855348, -6.51700023889
287, 3.87792136649, -5.04356468861, -6.57183920628
288, 3.78521528985, -4.9758710555, -7.02431286088
289, 3.96819055718, -5.05144132921, -7.03015014324
290, 4.21405912679, -5.1484079132, -6.71963406716
291, 5.42198708512, -5.05502842749, -6.32023394998
292, 5.31578425255, -4.84613792849, -6.3093569238
293, 5.27444926071, -5.1408868272, -6.35689498017
294, 5.36140472339, -5.30355389515, -6.41217583992
295, 5.05788932551, -4.84157893326, -6.70866865621
296, 5.03001516878, -5.11106918456, -6.73045051402
297, 5.09668806699, -4.98887055434, -6.51611661091
298, 4.86794789418, -4.96009210595, -6.5802652399
299, 4.84498307155, -4.7833922907, -6.72306253097
300, 5.19956346435, -4.85498221352, -6.67195578526
301, 5.21219276475, -5.02079590889, -6.73722332498
302, 5.35674403155, -4.8031590786, -6.42665511505
303, 6.07184129606, -5.26422650567, -6.01616059417
304, 4.54863454227, -4.73675144198, -6.54399310326
305, 4.36954210379, -4.76296636417, -6.51451466113
306, 5.33013613437, -4.96291659098, -6.75148898286
307, 5.27756448039, -5.14561901428, -6.17980440109
308, 5.42361548104, -5.25563834978, -6.23922871466
309, 5.07755348803, -5.10807591464, -6.26085979479
310, 5.13291124215, -5.24932775472, -6.63730862189
311, 5.12200593022, -5.21750273762, -6.24782854627
312, 5.13368743024, -5.23043075393, -6.40175440992
313, 4.18493511924, -5.0981556444, -6.94892643725
314, 4.37959698019, -5.17139338373, -6.80115909943
315, 4.67336026438, -4.96322613596, -6.39233646311
316, 4.92115962796, -5.11103488822, -6.43803703082
317, 4.73469142274, -5.08538568027, -6.55587705192
318, 4.65743832697, -4.9000496972, -6.65878908395
319, 4.8829172328, -4.90697564713, -6.37602753976
320, 4.95988846819, -5.2663124103, -6.57476290465
321, 4.21214944519, -4.89566988642, -6.62986256438
322, 4.70620785111, -5.12754477153, -6.39105612015
323, 4.10910842154, -4.95894746938, -6.49863159575
324, 4.89989637078, -5.02309383656, -6.29686893082
325, 5.75270884855, -5.37067017542, -6.42025146329
326, 3.7385343624, -5.06271677699, -6.95964088115
327, 4.21406637453, -4.69578905676, -6.67815718457
328, 4.16772803614, -4.86684508691, -6.98738600376
329, 4.16894618865, -4.67141980901, -6.83657327878
330, 4.06890448742, -4.96440761039, -6.81263332258
331, 3.99166549107, -4.83901981373, -6.57555246647
332, 6.09144051638, -5.21611937173, -6.17867660954
333, 6.10587301787, -5.04321088422, -6.19351285854
334, 6.16144297372, -5.12691306135, -6.38418754423
335, 6.24367606414, -5.13782949061, -6.49054689576
336, 6.15140307171, -5.28526293352, -6.38731034463
337, 4.58513279742, -5.20946356202, -6.7238256424
338, 4.66269566242, -5.16791796571, -6.83714912523
339, 4.67947433335, -5.22601626418, -6.5295113215
340, 4.78307147987, -5.22815221939, -6.68528751842
341, 4.69114072984, -5.05475823211, -6.77562819433
342, 3.63944835454, -5.00233698629, -6.90492567569
343, 4.80101242634, -4.75947565215, -6.50185072776
344, 3.75172086584, -4.68827255405, -6.73838020594
345, 3.61872846191, -4.82588997925, -6.72497465368
346, 3.87030034758, -4.70218053517, -6.63348116174
347, 4.39899891502, -4.95427573233, -6.93941851942
348, 4.55417699841, -4.97994964902, -6.86989887949
349, 4.43306177929, -4.8419804817, -6.81864669302
350, 4.40364485808, -4.987419566, -6.72797329865
351, 4.57430773667, -4.71746663098, -6.7475970363
352, 4.3924321589, -4.7261342278, -6.71428618238
353, 4.48509865693, -4.84527483729, -6.65846474964
354, 3.96457362118, -4.63787918988, -6.69966387658
355, 3.81532203457, -5.12052300537, -6.87755859844
356, 4.57101500282, -4.79233912048, -6.4635060544
357, 4.06305687396, -4.75972972128, -7.00491987105
358, 4.20683466696, -4.59678954628, -6.74246978708
359, 6.14086542536, -5.42050083235, -6.32389339578
360, 4.14465002655, -4.74006973737, -6.53693341369
361, 4.75333805069, -4.81068293489, -6.38962562059
362, 6.07688481882, -5.39903396777, -6.15981968162
363, 6.20817692356, -5.32658077318, -6.46137874971
*Element, type=C3D4
   1, 218, 160, 219, 161
   2, 220, 221, 222, 218
   3, 218, 220, 223, 219
   4, 218, 222, 219, 224
   5, 225, 226, 227, 228
   6, 228,  72,   6, 225
   7, 225,   6, 227,   1
   8, 122, 229, 230, 231
   9, 231, 134, 232, 133
  10, 233, 234, 235, 236
  11, 231, 237, 238, 239
  12, 231, 237, 133, 232
  13, 240, 241, 242, 243
  14, 240, 118, 241, 129
  15, 240, 118, 244, 241
  16, 240, 245, 244, 117
  17, 246, 240, 221, 244
  18, 240, 241, 246, 242
  19, 240, 247, 221, 244
  20, 244, 245, 248, 249
  21,  25, 250, 251, 252
  22, 240, 247, 244, 245
  23, 218, 222, 224, 221
  24, 224,  40, 253, 158
  25, 164, 254, 165, 224
  26, 224, 255, 165, 166
  27, 224, 159, 253, 222
  28, 256, 248, 249, 257
  29, 256, 258, 259, 260
  30, 256, 261, 258, 262
  31, 256, 258, 174, 263
  32, 256, 262, 258, 263
  33, 256, 248, 264, 249
  34, 260, 258, 174, 256
  35,  26,  79, 252,  25
  36, 265, 226, 227, 266
  37, 267, 268, 269, 270
  38, 265, 235, 236, 271
  39, 265, 266, 272, 273
  40, 265, 274, 273, 272
  41, 274, 265, 275, 276
  42, 246, 220, 277, 278
  43, 246, 248, 244, 221
  44, 218, 246, 220, 221
  45, 242, 221, 222, 220
  46, 242, 220, 279, 246
  47, 157, 223, 280,  32
  48, 281,  83,  94,  93
  49, 281, 282, 264, 249
  50, 281, 282,  94,  83
  51, 283, 284, 211, 210
  52,  93, 285, 286, 281
  53, 281, 104, 286,  93
  54, 281,  82, 285, 264
  55, 281, 285,  82,  93
  56, 274, 287, 120, 275
  57, 274, 287, 275, 273
  58, 274,  12, 272,  11
  59, 288, 265, 289, 235
  60, 275, 276,  98, 274
  61, 290, 276,  98, 275
  62, 170,  42, 176, 291
  63, 289,   8,  76,   9
  64, 291, 292, 268, 267
  65, 268, 293, 285, 291
  66, 291, 248, 249, 264
  67, 291, 293, 267, 268
  68, 294, 291, 285, 293
  69, 295, 296, 297, 298
  70, 295, 251, 298, 299
  71, 295,  27, 252, 187
  72, 177, 171, 170, 292
  73, 295, 300, 301, 187
  74, 300, 268, 302, 270
  75, 303, 141,  38,  39
  76, 226,  16,  14,   3
  77, 304, 202, 305, 201
  78, 181, 187, 306, 300
  79, 300, 268, 270, 297
  80, 300, 301, 268, 297
  81, 295, 300, 187, 186
  82, 291, 307, 293, 308
  83, 267, 309, 269, 293
  84, 285,  81, 310, 296
  85, 285, 301,  81, 296
  86, 306, 285, 268, 301
  87, 285,  28, 306, 264
  88, 285, 297, 296, 310
  89, 310,  93, 285, 286
  90, 268, 306, 263, 264
  91, 268, 300, 263, 306
  92, 285,  28, 264,  82
  93, 288,   6,   7,  57
  94, 291,  42, 247, 254
  95, 307, 291, 267, 176
  96, 293, 311, 309, 312
  97, 307, 267,  43, 176
  98, 247,  42, 307, 138
  99, 293, 307, 267, 309
 100, 285, 291, 264, 268
 101, 270, 268, 292, 267
 102, 292, 270, 178, 302
 103, 295, 298, 297, 270
 104, 285, 268, 301, 297
 105, 273,  65,  66,  14
 106, 268, 262, 302, 292
 107, 264, 263, 256, 175
 108, 256, 282,  29, 260
 109, 256, 278, 246, 257
 110,  88, 313,  99, 314
 111, 262, 263, 173, 258
 112, 256, 259, 258, 261
 113, 315, 298, 316, 317
 114, 298, 317, 315, 318
 115, 233,  74,  75,   7
 116, 316, 296, 317, 298
 117, 298, 299, 251, 318
 118, 298, 319, 297, 270
 119, 320, 316, 296, 317
 120, 237, 239, 122, 132
 121, 237, 321, 238, 239
 122, 232, 238, 315, 322
 123, 237, 132, 323, 239
 124, 237, 305, 200, 232
 125, 324, 316, 309, 125
 126, 324, 124, 316, 125
 127, 324, 316, 124, 322
 128, 324, 269, 319, 182
 129, 188, 324, 315, 319
 130, 324, 309, 269,  44
 131, 247, 308, 245, 128
 132, 291, 247, 308, 245
 133, 291, 171, 255, 262
 134, 105, 249, 294, 245
 135, 291, 294, 245, 308
 136, 106, 245, 249, 105
 137, 240, 245, 117, 128
 138, 245, 244, 117, 106
 139, 246, 220, 278, 280
 140, 245, 248, 249, 291
 141, 254, 221,  41, 247
 142, 256, 282, 278, 257
 143, 247, 221, 291, 254
 144, 291, 255, 248, 262
 145, 246, 325, 257, 278
 146, 325, 244,  95, 106
 147, 325, 257, 278,  95
 148, 246, 325, 277, 279
 149, 325,  96, 277, 279
 150, 293, 309, 269, 312
 151, 326,  61,  60,  58
 152, 291, 308, 293, 294
 153, 301, 295, 296, 297
 154, 293, 269, 268, 297
 155, 297, 286, 312, 310
 156, 297, 270, 319, 269
 157, 295, 270, 300, 185
 158, 297, 316, 296, 310
 159, 213, 327, 214, 207
 160, 282, 249,  95, 257
 161, 282, 257,  84, 278
 162, 260, 282, 278, 256
 163, 260, 256, 175,  29
 164, 264, 282,  29, 256
 165, 256, 282, 249, 264
 166, 226,  16,  67,  14
 167,  22, 328,   2, 289
 168, 289, 235,   2, 288
 169, 227,  15,   1,  64
 170, 235, 233,  21,   2
 171, 329, 209, 210, 216
 172,   7, 288,   2, 233
 173, 330, 331, 321, 271
 174, 330, 290, 321, 275
 175, 265, 275, 276, 330
 176, 235, 289, 328, 276
 177, 235, 330, 276, 328
 178, 330, 321, 283, 271
 179, 256, 246, 248, 257
 180, 220, 222, 332, 333
 181, 334, 220, 335, 336
 182, 220, 223, 335, 277
 183, 220, 223, 334, 335
 184, 270, 267, 177, 183
 185, 268, 269, 270, 297
 186, 337,  89, 338,  90
 187, 337, 339, 101, 340
 188, 339, 320, 317, 322
 189, 339, 123, 322, 229
 190, 339, 102, 340, 320
 191, 337, 340, 338, 341
 192, 337, 339, 340, 317
 193, 337,  90, 340, 101
 194, 337, 340,  90, 338
 195, 339, 340, 102, 101
 196, 320, 296, 340, 317
 197, 324, 322, 315, 316
 198, 324, 269, 316, 319
 199, 227, 342, 266,  64
 200, 319, 315, 298, 316
 201, 337, 339, 317, 229
 202, 317, 341, 318, 251
 203, 317, 318, 341, 238
 204, 298, 343, 318, 315
 205, 317, 318, 238, 315
 206, 131, 323, 132, 275
 207, 120, 275, 131, 121
 208, 323, 287, 331, 275
 209, 323, 321, 239, 275
 210, 323,  49, 287, 131
 211, 275, 323, 132, 239
 212, 298, 270, 299, 343
 213, 293, 285, 286, 297
 214,  79, 252,  25, 251
 215, 324, 309,  44, 136
 216, 309, 312, 311, 125
 217, 316, 322, 315, 317
 218, 324, 322, 124, 135
 219, 316, 124, 320, 125
 220, 231, 322, 238, 232
 221, 231, 322, 232, 134
 222, 289, 313, 328, 276
 223, 322, 315,  46,  45
 224,  46, 322, 232, 315
 225, 226,  67, 344, 345
 226,  14, 345, 226,  65
 227, 226,  65, 273,  14
 228,  16, 226, 331,   3
 229, 226, 271, 344, 346
 230,   3, 331, 273, 226
 231, 347, 314, 290, 313
 232, 347, 314, 313,  88
 233,  88, 347,  78,  77
 234, 347, 348, 250, 349
 235, 347, 348,  78,  24
 236, 347, 283, 350, 349
 237, 313,  23,  77,  76
 238, 330, 275, 276, 290
 239, 321, 271, 331, 327
 240, 321, 238, 239, 350
 241, 321, 350, 239, 290
 242, 351, 304, 202, 352
 243, 351, 299, 250, 198
 244, 351, 349, 250, 353
 245, 351, 299, 318, 250
 246, 318, 351, 304, 299
 247, 354, 344,  68,  18
 248, 354, 271, 346, 344
 249, 354, 344,  18,  19
 250, 354, 236,  19, 329
 251, 354, 331, 271, 327
 252, 354, 346, 213,  17
 253, 224, 158, 253, 159
 254, 141, 303, 243, 242
 255, 253, 222, 242, 221
 256, 253,  40, 221, 242
 257, 140, 242,  40, 141
 258, 242,  40, 141, 253
 259, 221, 246, 220, 242
 260, 253, 332, 222, 333
 261, 224, 221, 255, 261
 262, 224, 255, 166, 261
 263, 352, 209, 208, 202
 264, 153, 143, 152, 253
 265, 222, 219, 153, 333
 266, 253, 222, 159, 153
 267,  41, 221, 240, 247
 268, 255, 221, 224, 254
 269, 224, 253, 221, 222
 270, 291, 221, 248, 255
 271, 288,   8,  56,   7
 272, 220, 223, 219, 333
 273, 261, 221, 255, 248
 274, 240, 247, 128, 139
 275, 221, 140,  41, 240
 276, 246, 325, 278, 277
 277, 248, 257, 244, 249
 278, 159, 224, 160, 219
 279, 332, 253, 242, 303
 280, 303, 253, 242, 141
 281, 242, 140, 243, 141
 282, 253, 143, 152, 144
 283, 303, 144, 332, 253
 284, 224, 221, 253,  40
 285, 265, 227, 342, 266
 286, 228, 342, 265, 227
 287, 227, 228,  59,   6
 288, 225, 228, 227,   6
 289, 225, 344,  70, 345
 290, 225,  15, 227, 345
 291, 225, 345,  70,  69
 292, 227,  59, 342,  64
 293, 225,   1, 227,  15
 294, 289, 328,  76,  22
 295, 328,   2, 289, 235
 296, 265, 326, 289, 355
 297, 289,   9, 276, 355
 298, 289, 276,   9,  87
 299, 236, 226, 234, 265
 300, 289, 288,  56, 326
 301, 289, 288,   8,  56
 302, 302, 270, 178, 179
 303, 298, 297, 316, 296
 304, 287,  49,   3, 131
 305, 173, 263, 262, 302
 306, 287,  66,  12,  13
 307, 302, 262, 173, 172
 308, 302, 292, 262, 172
 309, 240, 242, 140, 243
 310, 253, 222, 332, 242
 311, 218, 256, 280, 246
 312, 162, 223, 161, 218
 313, 223, 161, 218, 219
 314, 222, 153, 219, 159
 315, 219, 333, 154, 153
 316, 142, 334, 333, 223
 317, 223, 334, 333, 220
 318, 219, 333, 142, 154
 319, 314, 290, 110, 230
 320, 347, 314, 348, 350
 321, 347, 349, 205, 211
 322, 330, 313, 347, 290
 323, 266,  61,  63,  62
 324, 220, 335, 336, 277
 325, 223, 334, 148, 142
 326, 345,  67,  69,  15
 327, 333, 223, 219, 142
 328, 218, 280, 259, 162
 329, 280, 157,  31, 163
 330, 289,   9,  56,   8
 331, 223, 163, 280, 162
 332, 287, 272,  12,  66
 333, 274, 120, 287,  12
 334, 271, 346, 226, 331
 335, 274, 275, 120, 109
 336, 287,  66, 273, 272
 337, 287,   3, 273,  13
 338, 287, 275, 273, 331
 339, 237, 323, 305, 321
 340, 239, 122, 132, 121
 341, 232, 200, 356, 305
 342, 232, 356, 194, 315
 343, 229, 231, 322, 238
 344, 134,  46, 322, 232
 345, 231, 237, 232, 238
 346, 265, 330, 271, 331
 347, 354, 271, 344, 236
 348, 235, 236, 357,  21
 349, 321, 271, 327, 283
 350, 354, 346, 271, 331
 351, 212, 346, 213, 331
 352, 354, 271, 236, 329
 353, 299, 193, 252, 199
 354, 299, 199, 252, 250
 355, 299, 318, 343, 304
 356, 299, 343, 190, 196
 357, 351, 349, 352, 284
 358, 299, 199, 250, 198
 359, 190, 299, 270, 343
 360, 351, 353, 352, 349
 361, 250, 347, 205,  24
 362, 250, 318, 353, 348
 363, 349, 347, 205, 250
 364, 351, 299, 198, 197
 365, 299, 196, 304, 343
 366, 351, 196, 299, 197
 367, 351, 198, 250, 204
 368, 299, 250, 251, 318
 369, 250, 318, 341, 251
 370, 250, 348,  24,  25
 371, 295, 299, 298, 270
 372, 119, 241, 129, 243
 373, 298, 299, 318, 343
 374, 229, 111, 100, 101
 375, 249, 294, 291, 285
 376, 114, 286, 310, 312
 377, 285,  93, 310,  82
 378, 294, 285, 249, 281
 379, 243, 332, 279, 242
 380, 104, 294, 281, 286
 381, 312, 114, 320, 310
 382, 286, 312, 114, 115
 383, 286, 312, 115, 294
 384, 318, 353, 356, 304
 385, 238, 350, 230, 239
 386, 237, 232, 238, 305
 387, 231, 238, 229, 230
 388, 231, 123, 322, 134
 389, 326,  57,  58,  60
 390, 328,  22, 217, 211
 391, 232, 238, 356, 315
 392, 321, 305, 353, 352
 393, 352, 321, 350, 353
 394, 330, 328, 347, 313
 395, 321, 275, 290, 239
 396, 321, 305, 238, 353
 397, 353, 304, 305, 356
 398, 347, 348, 314,  78
 399, 347,  88, 313,  77
 400, 318, 356, 238, 315
 401, 312, 320, 114, 125
 402, 297, 312, 316, 310
 403, 262, 291, 292, 268
 404, 229, 101, 112, 111
 405, 104, 310, 114, 286
 406, 347, 290, 314, 350
 407,  23, 328, 313, 347
 408, 328,  76,  23, 313
 409, 330, 313, 290, 276
 410, 313,  98, 290, 276
 411, 289,  76, 313,  87
 412, 316, 312, 297, 269
 413, 313, 276,  87,  98
 414, 351, 353, 304, 352
 415, 201, 356, 305, 304
 416, 358, 327, 208, 214
 417, 350, 353, 348, 349
 418, 318, 304, 356, 343
 419, 295, 193, 252, 299
 420, 353, 305, 304, 352
 421, 304, 356, 343, 195
 422, 304, 201, 356, 195
 423, 228, 235, 234, 265
 424, 225, 226, 234, 344
 425, 342, 326,  62,  60
 426, 342, 326,  60,  57
 427, 225, 226, 344, 345
 428, 265, 226, 331, 271
 429, 326,   9,  58,  56
 430, 342,  57, 288, 326
 431, 332, 146, 359, 151
 432, 219, 223, 161, 155
 433, 219, 224, 160, 218
 434, 220, 280, 277, 278
 435, 218, 261, 224, 160
 436, 237,  48, 323, 132
 437, 271, 327, 283, 329
 438, 246, 325, 244, 257
 439, 323, 287, 275, 131
 440, 346,  16, 226, 331
 441, 321, 327, 352, 283
 442, 323, 305, 206, 237
 443, 321, 360, 327, 331
 444, 331, 346,  16, 212
 445, 346, 213, 331, 354
 446, 354, 360, 213, 331
 447, 281, 286, 294, 285
 448, 293, 268, 285, 297
 449, 281, 264, 282,  83
 450, 127, 307, 138, 308
 451,  91,  92, 296, 320
 452, 312, 309, 269, 316
 453, 307, 309,  43, 267
 454, 293, 312, 126, 311
 455, 310, 320,  92, 103
 456, 322, 238, 315, 317
 457, 285, 297, 310, 286
 458, 310, 114, 320, 103
 459, 293, 307, 309, 311
 460, 307, 309, 137,  43
 461, 294, 293, 126, 127
 462, 293, 308, 127, 294
 463, 245, 128, 308, 127
 464, 348,  78,  24,  25
 465, 247, 139,  42, 138
 466,  89,  78, 338,  79
 467, 261, 262, 172, 173
 468, 291, 248, 264, 262
 469, 221, 218, 261, 224
 470, 263, 173, 258, 174
 471, 260, 259, 256, 280
 472, 289, 328, 313,  76
 473,  41, 254, 164, 224
 474, 224, 222, 219, 159
 475, 258, 168, 167, 259
 476, 224, 160, 261, 166
 477,  32, 157,  31, 280
 478, 223, 155, 162, 161
 479, 220, 222, 242, 332
 480, 278, 260, 280,  30
 481, 277,  31, 280,  32
 482, 337, 317, 238, 229
 483, 218, 162, 259, 161
 484, 280, 169, 163,  30
 485, 169, 280, 259, 260
 486, 270, 300, 179, 302
 487, 295, 270, 191, 299
 488,   6,  74, 228,   7
 489, 301, 296, 295,  27
 490, 274,  10,  98,  11
 491, 252, 299, 251, 295
 492, 300, 180, 263, 181
 493, 300, 268, 263, 302
 494, 245, 249, 294, 291
 495, 105, 104, 294, 281
 496, 249, 281, 282,  94
 497, 293, 312, 286, 294
 498, 245, 308, 294, 127
 499, 281, 249, 105,  94
 500, 244, 247, 248, 245
 501, 349, 283, 284, 211
 502, 275, 290, 121, 110
 503, 318, 343, 356, 315
 504, 232,  46, 315, 194
 505, 200, 201, 356, 305
 506, 304, 195, 343, 196
 507, 356, 343, 361, 315
 508, 356, 343, 195, 361
 509, 251,  79, 341,  25
 510, 250, 341, 318, 348
 511, 250, 199, 252,  25
 512, 316, 310, 312, 320
 513, 324, 316, 269, 309
 514, 293, 126, 312, 294
 515, 295, 251, 252, 296
 516, 295, 300, 270, 297
 517, 318, 341, 238, 350
 518, 325, 244, 117, 118
 519, 325, 244, 257,  95
 520, 256, 280, 246, 278
 521, 245, 294, 116, 127
 522, 246, 244, 248, 257
 523, 244, 221, 248, 247
 524, 240, 247, 245, 128
 525, 314, 348, 350, 337
 526, 266,  62,  65,  64
 527, 251, 298, 317, 296
 528, 317, 229, 322, 238
 529, 251, 341,  79,  80
 530, 341, 338,  79,  80
 531, 351, 304, 196, 202
 532, 230, 337, 238, 229
 533, 250, 341, 348,  25
 534, 341, 348,  25,  79
 535, 233, 288, 235, 228
 536, 273, 265, 331, 275
 537, 234,  73, 236,  74
 538, 344, 234,  70,  71
 539, 225,  15, 345,  69
 540, 265, 289, 235, 276
 541, 233, 236,  75,  74
 542, 228, 288,   6,   7
 543, 237, 323, 321, 239
 544, 323, 206, 360, 212
 545, 323, 321, 275, 331
 546, 239, 231, 122, 230
 547, 347, 328, 283, 211
 548, 237, 238, 321, 305
 549, 350, 352, 349, 283
 550, 323, 321, 360, 305
 551, 271, 328, 357, 283
 552, 230, 239, 121, 122
 553, 275, 290, 239, 121
 554, 191, 190, 299, 270
 555, 288, 228, 342, 265
 556, 225, 226, 228, 234
 557, 342,  59,  60,  62
 558, 271, 236, 357, 235
 559, 355,  58,  10,  61
 560, 242, 303, 243, 332
 561, 330, 313, 276, 328
 562, 290, 230, 121, 110
 563, 276,  10, 355,   9
 564, 265, 276, 274, 355
 565,  22, 328,  76,  23
 566, 314, 110, 290,  99
 567, 313,  99, 314, 290
 568, 274,  10, 276,  98
 569, 330, 283, 347, 328
 570, 253, 141, 303,  39
 571, 227,  64,   1,  59
 572, 347, 328, 211,  23
 573,   2, 288,   8, 289
 574, 283, 271, 329, 357
 575, 328, 283, 211, 217
 576, 265, 235, 330, 276
 577, 273, 265, 226, 331
 578, 287,  49, 331,   3
 579, 225, 226, 345, 227
 580, 354, 360, 331, 327
 581, 344, 236,  19, 354
 582, 354, 214, 327, 329
 583, 266,  66,  65,  63
 584, 303, 362,  37, 130
 585, 144, 332, 253, 333
 586, 303, 362, 145,  37
 587, 303, 144,   5,  38
 588, 303, 144,  39,   5
 589, 332, 145, 303, 362
 590, 243, 119, 279, 362
 591, 326,  62,  60,  61
 592, 247, 138, 307, 308
 593, 255, 262, 171, 172
 594, 243, 303, 141, 130
 595, 255, 172, 261, 262
 596, 256, 282, 257, 249
 597,  89, 338,  90,  79
 598, 218, 222, 220, 219
 599, 318, 238, 353, 350
 600, 337, 317, 340, 341
 601, 351, 349, 284, 250
 602, 321, 352, 327, 305
 603, 352, 305, 202, 208
 604, 284, 250, 204, 351
 605, 352, 283, 209, 284
 606,  24, 348, 250, 347
 607, 351, 299, 196, 304
 608, 342,  62, 266,  64
 609, 265, 226, 266, 273
 610, 227,  65, 345,  15
 611, 187, 306, 300, 301
 612, 265, 355, 289, 276
 613, 342, 266,  62, 326
 614, 363, 359,  34, 147
 615, 363, 149, 336, 147
 616, 325,  95, 278,  96
 617, 282,  30, 278,  84
 618, 257,  84, 278,  95
 619, 240, 244, 246, 241
 620, 218, 259, 261, 161
 621, 223, 277, 280,  32
 622, 332, 242, 220, 279
 623, 242, 246, 240, 221
 624, 261, 160, 161, 167
 625, 253,  39, 303, 144
 626, 354, 214,  18, 213
 627, 291, 293, 307, 267
 628, 321, 353, 238, 350
 629, 282,  95, 249,  94
 630, 267, 309,  44, 269
 631, 307, 127, 293, 308
 632, 311, 126, 137, 136
 633, 296, 252,  80, 251
 634, 269, 182, 267, 183
 635, 270, 269, 267, 183
 636, 317, 296, 340, 251
 637, 250, 349, 284, 205
 638, 268, 263, 302, 262
 639, 249, 291, 264, 285
 640, 292, 170, 176, 291
 641, 267, 270, 177, 292
 642, 323, 360, 321, 331
 643, 327, 283, 329, 209
 644, 358, 327, 214, 329
 645, 354, 213, 327, 214
 646, 360, 327, 207, 305
 647, 342,  59,  57,  60
 648, 321, 360, 305, 327
 649, 325, 118, 279, 241
 650, 291, 262, 292, 171
 651, 325, 278, 277,  96
 652, 223,  32, 335, 277
 653, 256, 260, 280, 278
 654, 244, 106, 245, 249
 655, 330, 271, 283, 328
 656, 282,  84, 257,  95
 657, 107, 325, 118, 279
 658, 259, 256, 280, 218
 659, 226, 344,  67,  16
 660, 266,  65, 273, 226
 661, 357, 271, 329, 236
 662, 226, 346, 344,  16
 663, 226, 345,  14,  67
 664, 274,  12, 287, 272
 665, 363,  34, 359,  97
 666, 359, 147,  35,  34
 667, 357, 235, 328, 271
 668, 359, 336, 151, 147
 669, 363, 359, 336,  97
 670, 267, 293, 269, 268
 671, 208, 305, 327, 352
 672, 232, 238, 305, 356
 673, 304, 352, 305, 202
 674, 305, 201, 208, 207
 675, 330, 321, 350, 283
 676, 327, 352, 283, 209
 677, 231, 237, 122, 133
 678, 318, 350, 348, 341
 679, 324, 322,  45, 315
 680, 339, 322, 317, 229
 681, 316, 312, 125, 320
 682, 340,  91, 320, 102
 683, 337, 314, 100, 230
 684, 229, 230, 100, 111
 685, 111, 122, 229, 230
 686, 341, 348,  79, 338
 687, 348,  78,  79, 338
 688, 347, 283, 349, 211
 689, 347, 313,  23,  77
 690, 340, 296,  91,  80
 691, 283, 321, 350, 352
 692, 290, 109,  98,  99
 693,  47, 237,  48, 206
 694, 265, 235, 271, 330
 695, 330, 290, 347, 350
 696, 274,  11, 355,  10
 697, 337, 350, 238, 341
 698, 323, 331,  49, 212
 699, 152, 144, 143,  55
 700, 350, 230, 337, 238
 701, 337, 229, 100, 101
 702, 232, 356, 200, 194
 703, 231, 229, 322, 123
 704, 337, 348, 350, 341
 705, 337, 229, 230, 100
 706, 285, 286, 294, 293
 707, 220, 222, 333, 219
 708, 291, 264, 268, 262
 709, 282,  83, 264,  29
 710, 312, 115, 294, 126
 711, 260, 175, 168, 169
 712, 281, 264,  83,  82
 713,  19, 214, 354, 329
 714, 286, 104, 310,  93
 715, 286, 104, 294, 115
 716, 300, 301, 306, 268
 717, 348,  25,  79,  78
 718, 192, 299, 193, 295
 719, 296, 295,  27, 252
 720, 340,  91,  90, 338
 721, 301,  81, 296,  27
 722, 258, 173, 261, 167
 723, 258, 260, 174, 168
 724, 263, 306, 175, 264
 725, 256, 262, 248, 261
 726, 302, 173, 263, 179
 727, 263, 181, 174, 175
 728, 238, 356, 353, 305
 729, 351, 352, 203, 284
 730, 343, 189, 190, 196
 731, 270, 268, 302, 292
 732, 183, 343, 189, 190
 733, 295, 270, 185, 191
 734, 231, 229, 123, 122
 735, 285,  81, 301,  82
 736, 319, 343, 189, 183
 737, 356, 194, 315, 361
 738, 250, 348, 353, 349
 739, 295, 299, 191, 192
 740, 319, 315, 188, 361
 741, 337, 350, 314, 230
 742, 340,  90,  91, 101
 743, 318, 348, 350, 353
 744, 232, 237,  47, 200
 745, 243, 332, 303, 362
 746, 218, 223, 220, 280
 747, 277,  32,  86,  85
 748, 220, 336, 334, 332
 749, 248, 262, 255, 261
 750, 359, 147, 151, 146
 751, 363, 147,  33, 149
 752, 325, 244, 106, 117
 753, 332, 359, 146, 362
 754, 265, 355, 266, 326
 755, 265, 274, 272, 355
 756, 266, 265, 326, 342
 757, 342,  59, 288,  57
 758, 289, 326,  56,   9
 759, 288, 326,  57,  56
 760, 233, 236, 235,  21
 761, 330, 321, 290, 350
 762, 357,   2, 328, 235
 763, 236,  19, 329,  20
 764, 228,   6, 288,  59
 765, 330, 275, 321, 331
 766, 354, 327, 271, 329
 767, 248, 218, 261, 221
 768, 359,  36, 362, 119
 769, 218, 162, 223, 280
 770, 288,   7,  56,  57
 771, 303, 141,  37,  38
 772, 332, 151, 359, 336
 773, 362, 146,  37,  36
 774, 295, 300, 297, 301
 775, 264, 285, 268, 306
 776, 281, 249, 294, 105
 777, 174, 256, 175, 260
 778, 310, 296,  81,  92
 779, 285,  82, 310,  81
 780, 269,  44, 267, 182
 781, 295, 296, 298, 251
 782, 111, 230, 100, 110
 783, 355,  11,  63,  61
 784, 285,  82, 301,  28
 785, 234,  72,  70,  71
 786, 256, 263, 264, 262
 787, 221, 248, 247, 291
 788, 221, 291, 254, 255
 789, 117, 240, 118, 244
 790, 245, 294, 105, 116
 791, 266, 326, 355,  61
 792, 266, 355, 272,  63
 793, 272, 355,  11,  63
 794, 265, 274, 275, 273
 795, 265, 272, 266, 355
 796, 330, 350, 347, 283
 797, 266,  66, 273,  65
 798, 344,  71,  19, 234
 799, 266,  65, 226, 227
 800,  65, 226, 227, 345
 801, 266, 355,  63,  61
 802, 233,  75, 236,  21
 803, 225,  69,  72,   1
 804, 225,  69,   1,  15
 805, 323, 360, 206, 305
 806, 327, 208, 209, 358
 807, 265, 271, 236, 226
 808, 358, 329, 215, 209
 809, 329,  20, 216, 357
 810, 288,   2, 233, 235
 811, 274, 272, 355,  11
 812, 227, 266,  65,  64
 813, 274, 287, 273, 272
 814, 226, 273,   3,  14
 815, 354,  68, 346,  17
 816, 274, 276,  10, 355
 817, 288, 235, 228, 265
 818, 323, 132,  48,  49
 819, 217,   2, 328, 357
 820, 266, 273,  66, 272
 821, 266, 326,  61,  62
 822, 326,  58, 355,  61
 823, 289, 355, 326,   9
 824, 326, 355,  58,   9
 825, 324, 135, 136,  45
 826, 300, 181, 187, 180
 827,  74, 228,   7, 233
 828, 231, 133, 122, 123
 829, 103, 104, 310, 114
 830, 320, 113, 102, 103
 831, 340, 341,  80, 338
 832, 280, 278,  30,  31
 833, 267, 176, 182,  43
 834,  26,  80, 252,  79
 835, 340, 251,  80, 341
 836, 224, 159, 166, 165
 837, 340, 320,  91, 296
 838, 298, 317, 318, 251
 839, 316, 309, 125, 312
 840, 291, 247, 307, 308
 841, 356, 200, 194, 201
 842, 234, 228,  74, 233
 843, 353, 352, 349, 350
 844, 228,   7, 233, 288
 845, 267, 182,  44,  43
 846, 299, 197, 196, 190
 847, 323, 331, 287,  49
 848, 195, 361, 189, 188
 849, 356, 361, 195, 194
 850, 339, 320, 113, 102
 851, 182, 189, 319, 188
 852, 337, 101, 100,  90
 853,  78, 348, 314, 338
 854, 299, 190, 191, 197
 855, 188, 194, 195, 361
 856, 283, 217, 357, 216
 857, 358, 329, 214, 215
 858, 358, 208, 215, 214
 859, 208, 352, 327, 209
 860, 344,  70,  68,  71
 861, 281,  94, 105, 104
 862, 265, 227, 226, 228
 863, 294, 115, 104, 105
 864, 307,  43, 137, 138
 865, 313,  77,  88,  87
 866, 301,  27,  28,  81
 867, 351, 250, 318, 353
 868, 189, 319, 188, 361
 869, 232, 194, 200,  46
 870, 217, 216,  21, 357
 871, 300, 186, 179, 180
 872, 261, 166, 173, 172
 873,  80, 252,  79, 251
 874, 218, 246, 221, 248
 875, 343, 270, 183, 319
 876, 278,  85,  96,  95
 877,  19, 234, 236, 344
 878, 328,  22,   2, 217
 879, 231, 239, 238, 230
 880, 323, 212,  49,  48
 881, 351, 196, 197, 203
 882, 228, 342,  59, 288
 883, 319, 183, 189, 182
 884, 312, 311, 125, 126
 885, 237, 231, 122, 239
 886, 270, 184, 177, 178
 887, 227, 228, 342,  59
 888, 345,  67,  15,  14
 889, 279, 241, 118, 119
 890, 327, 208, 214, 207
 891, 276,  87,  98,  10
 892, 274, 109,  11,  98
 893, 313,  98,  87,  88
 894, 276,   9,  87,  10
 895, 342, 265, 326, 288
 896, 328,  23,  22, 211
 897, 358, 215, 208, 209
 898, 227,   6,  59,   1
 899, 279, 359,  97, 336
 900, 272,  12,  63,  11
 901, 279, 119, 359, 362
 902, 351, 204, 284, 203
 903, 344, 346,  68,  16
 904, 329,  20,  19, 215
 905, 360, 207, 213, 206
 906, 206, 305, 200, 237
 907, 305, 207, 206, 200
 908, 351, 204, 197, 198
 909, 357, 216,  21,  20
 910, 250, 205, 199,  24
 911, 332, 333, 144, 150
 912, 243, 279, 332, 362
 913, 356, 201, 194, 195
 914, 283, 329, 209, 210
 915, 250, 205, 198, 199
 916, 342,  64,  59,  62
 917, 283, 216, 210, 217
 918, 332, 362, 279, 359
 919, 351, 197, 204, 203
 920, 250, 199,  25,  24
 921, 252, 199, 193,  25
 922, 341, 338, 337, 348
 923, 304, 196, 202, 195
 924, 304, 195, 202, 201
 925, 229, 123, 122, 112
 926, 329, 215, 216,  20
 927,   2,  21, 357, 217
 928, 334, 332, 150, 333
 929, 245, 127, 116, 117
 930, 351, 352, 202, 203
 931, 252,  26,  25, 193
 932, 299, 198, 192, 199
 933, 295, 192, 191, 185
 934, 299, 191, 192, 198
 935, 353, 318, 351, 304
 936, 317, 251, 340, 341
 937, 266,  63,  65,  62
 938, 346, 212, 213,  17
 939, 263, 173, 174, 180
 940, 345,  14,  15,  65
 941, 312, 125, 114, 115
 942, 320, 124, 113, 114
 943, 237,  48, 132, 133
 944, 299, 192, 193, 199
 945, 305, 200, 201, 207
 946, 306,  27, 187, 181
 947, 340,  80, 251, 296
 948, 298, 297, 319, 316
 949, 263, 179, 173, 180
 950, 340, 102, 101,  91
 951, 295, 192, 186, 193
 952, 270, 183, 177, 184
 953, 285, 296, 297, 301
 954, 332, 279, 336, 359
 955, 295, 185, 300, 186
 956, 253, 222, 153, 333
 957, 295, 192, 185, 186
 958, 219, 223, 155, 142
 959, 306,  28,  27, 181
 960, 295, 187, 301,  27
 961, 306, 181, 175,  28
 962, 252, 250, 251, 299
 963, 185, 300, 179, 270
 964, 270, 191, 184, 185
 965, 306,  28, 301,  27
 966, 327, 207, 213, 360
 967, 267, 183, 182, 176
 968, 363, 149, 335, 336
 969,  27, 252,  80, 296
 970,  90,  80,  79, 338
 971, 294, 126, 115, 116
 972, 270, 190, 184, 191
 973, 302, 179, 178, 172
 974, 329, 214, 215,  19
 975, 278,  95,  84,  85
 976, 300, 185, 179, 186
 977, 295, 186, 187, 193
 978, 258, 167, 174, 173
 979, 234,  71,  19,  73
 980, 360, 331, 212, 213
 981, 307, 309, 311, 137
 982, 258, 174, 167, 168
 983, 337, 314,  89, 100
 984, 337, 339, 229, 101
 985, 323, 360, 331, 212
 986, 325,  96, 107, 106
 987, 360, 206, 213, 212
 988, 323, 212,  48, 206
 989, 316, 310, 320, 296
 990, 234, 233,  74, 236
 991, 240, 128, 117, 118
 992, 283, 284, 210, 209
 993, 298, 270, 343, 319
 994, 233, 228, 235, 234
 995, 354, 344, 346,  68
 996, 260, 174, 168, 175
 997,  29, 175,  28, 264
 998, 260, 280,  30, 169
 999, 302, 179, 172, 173
1000,  29, 256, 175, 264
1001, 352, 203, 284, 209
1002, 282,  29, 260,  30
1003, 224, 221,  40,  41
1004, 347, 205,  24,  23
1005, 284, 211, 204, 205
1006, 175,  28, 264, 306
1007, 209, 203, 284, 210
1008, 250, 198, 205, 204
1009, 205, 250, 204, 284
1010, 300, 302, 263, 179
1011, 309, 137,  43,  44
1012, 282,  94,  84,  95
1013, 254, 170, 164, 171
1014, 171, 254, 291, 255
1015, 162, 280, 169, 163
1016, 260,  30,  29, 169
1017, 260, 175, 169,  29
1018, 223, 162, 156, 163
1019, 240, 243, 129, 241
1020, 218, 248, 256, 246
1021, 280,  31,  30, 163
1022, 325,  96, 279, 107
1023, 219, 159, 153, 160
1024, 240, 247, 139,  41
1025, 255, 166, 172, 165
1026, 325, 244, 118, 241
1027,  43, 267, 309,  44
1028, 224, 159, 160, 166
1029, 157, 156, 148,  51
1030, 219, 160, 154, 161
1031, 165, 254, 164, 171
1032, 359, 362,  36, 146
1033, 261, 166, 160, 167
1034, 254, 165, 224, 255
1035, 267, 176, 177, 183
1036, 322, 134, 123, 124
1037, 363, 336, 277,  97
1038, 291, 254, 170,  42
1039, 240, 129, 243, 140
1040, 154,  54, 153, 143
1041, 333, 154, 153, 143
1042, 254, 164, 170,  41
1043, 157,  50,  51, 148
1044, 293, 297, 286, 312
1045, 155, 154, 142,  53
1046, 219, 155, 154, 142
1047, 219, 160, 153, 154
1048, 156,  51, 142, 148
1049, 143, 333, 253, 153
1050,  30, 282, 278, 260
1051, 275, 265, 331, 330
1052, 142,  52,  51, 156
1053, 334, 150, 149, 148
1054, 335,  32, 157,  50
1055, 253, 158,  39, 152
1056, 332, 151, 150, 145
1057, 279,  97, 359, 108
1058, 279, 359, 119, 108
1059, 253, 144, 152,  39
1060, 178, 292, 171, 177
1061, 246, 277, 220, 279
1062, 220, 332, 279, 336
1063, 363,  97,  86,  33
1064, 277,  96,  85,  86
1065, 362, 146, 145,  37
1066, 243, 241, 279, 119
1067, 332, 362, 146, 145
1068, 335, 334, 149, 148
1069, 223, 156, 157, 163
1070, 218, 161, 261, 160
1071, 244, 249,  95, 106
1072, 253, 152, 153, 159
1073, 333, 144, 150, 143
1074, 303,  38, 145, 144
1075, 302, 172, 178, 292
1076, 223, 142, 156, 155
1077, 291, 247,  42, 307
1078, 355,  10,  58,   9
1079, 153,  55, 143,  54
1080, 243, 362, 303, 130
1081, 253,  40,  39, 158
1082, 359, 119, 108,  35
1083, 163, 223, 280, 157
1084, 240, 129, 128, 118
1085, 359,  35, 146,  36
1086, 255, 165, 172, 171
1087,  52, 155, 156, 142
1088, 334, 148, 142, 150
1089, 154, 143,  53,  54
1090, 291, 171, 292, 170
1091, 153, 152, 143,  55
1092, 334, 150, 151, 149
1093, 303,  38,  37, 145
1094, 303, 141, 130,  37
1095, 279, 107,  96,  97
1096, 335,   4,  50, 148
1097, 333, 143, 150, 142
1098, 218, 256, 248, 261
1099, 152, 144,   5,  39
1100, 140, 242, 221,  40
1101, 268, 264, 263, 262
1102, 230, 110, 111, 121
1103, 155,  53, 142,  52
1104, 218, 256, 261, 259
1105, 223, 157, 335,  32
1106, 152,  55,   5, 144
1107, 223, 156, 142, 148
1108, 303,  38,   5,  39
1109, 253, 159, 158, 152
1110, 171, 292, 178, 172
1111, 344, 345,  67,  70
1112, 224, 164,  41,  40
1113,  42, 170,  41, 254
1114, 224, 164,  40, 158
1115, 253,  39,  40, 141
1116, 292, 170, 177, 176
1117, 240, 129, 140, 139
1118, 144, 333, 253, 143
1119, 240, 129, 139, 128
1120, 227,  15,  64,  65
1121, 270, 190, 183, 184
1122, 292, 270, 177, 178
1123, 307,  42, 176,  43
1124,  72, 234,  70, 225
1125, 333, 142, 154, 143
1126, 294, 127, 126, 116
1127, 363, 335,  86, 277
1128, 234,  70, 225, 344
1129, 307, 127, 126, 293
1130, 335,  50,   4,  32
1131, 337,  90, 100,  89
1132, 315, 194,  46,  45
1133, 247, 254,  42,  41
1134,  74,  72,   6, 228
1135, 247, 139,  41,  42
1136, 279, 118, 107, 108
1137, 243, 140, 130, 141
1138, 154,  53, 143, 142
1139, 285, 301, 306,  28
1140, 281, 285, 249, 264
1141, 287,  12, 120,  13
1142, 126, 307, 311, 137
1143, 332, 144, 303, 145
1144, 256, 248, 262, 264
1145, 308, 127, 128, 138
1146, 260, 169, 168, 259
1147, 247, 248, 245, 291
1148, 246, 244, 325, 241
1149, 296,  91,  80,  81
1150, 307,  43, 138,  42
1151, 282,  94,  83,  84
1152, 225, 234, 228,  72
1153, 349, 283, 352, 284
1154,   7, 288,   8,   2
1155, 166, 255, 172, 261
1156, 261, 167, 173, 166
1157, 247, 139, 138, 128
1158, 218, 246, 280, 220
1159, 343, 189, 196, 195
1160, 316, 322, 317, 320
1161, 261, 259, 167, 161
1162, 324,  45,  44, 188
1163, 347, 349, 350, 348
1164, 259, 162, 168, 161
1165, 309, 136, 137,  44
1166, 354,  17, 213,  18
1167, 229, 122, 111, 112
1168, 351, 203, 202, 196
1169, 258, 259, 260, 168
1170, 319, 343, 361, 189
1171, 230, 121, 111, 122
1172, 237,  48, 133,  47
1173, 331,   3,  49,  16
1174, 258, 261, 173, 262
1175,  40, 140,  41, 221
1176, 236,  20, 329, 357
1177, 223, 157, 156, 148
1178, 243, 130, 140, 129
1179, 287,   3, 331, 273
1180, 334, 150, 332, 151
1181, 246, 241, 325, 279
1182, 362, 130, 119,  36
1183, 224, 164, 158, 165
1184, 223, 162, 155, 156
1185, 118, 119, 241, 129
1186, 315, 188, 194,  45
1187, 324, 188,  44, 182
1188, 325, 107, 118, 117
1189, 332, 145, 150, 144
1190, 332, 151, 145, 146
1191, 279, 242, 241, 243
1192, 245, 106, 117, 116
1193, 316, 322, 320, 124
1194, 258, 261, 259, 167
1195, 325, 107, 117, 106
1196, 320, 103, 102,  92
1197, 312, 125, 115, 126
1198, 360, 206, 305, 207
1199, 259, 161, 168, 167
1200, 305, 202, 208, 201
1201, 237, 232,  47, 133
1202, 311, 126, 136, 125
1203, 232,  46,  47, 134
1204, 281,  93,  82,  83
1205, 320, 102,  91,  92
1206, 179, 270, 178, 185
1207, 315, 316, 319, 324
1208, 274, 275, 109,  98
1209, 352, 209, 202, 203
1210, 359, 108,  97,  34
1211, 362,  36,  37, 130
1212, 243, 119, 130, 129
1213, 336, 151, 147, 149
1214, 322, 124, 135, 134
1215, 243, 362, 130, 119
1216, 137, 307, 138, 127
1217, 344,  16,  68,  67
1218, 293, 307, 311, 126
1219, 324, 125, 309, 136
1220, 309, 125, 311, 136
1221, 245, 128, 127, 117
1222, 245, 106, 116, 105
1223, 363,  33, 335, 149
1224, 320, 103, 114, 113
1225, 320, 125, 124, 114
1226, 339, 113, 112, 102
1227, 339, 229, 112, 123
1228, 273,  66,  13,  14
1229, 339, 123, 112, 113
1230, 299, 197, 191, 198
1231, 286, 104, 115, 114
1232, 294, 105, 116, 115
1233, 324, 125, 135, 124
1234, 274, 120,  12, 109
1235, 347,  77,  24,  78
1236, 297, 316, 269, 319
1237, 331,  49, 212,  16
1238, 287,  13, 131,   3
1239, 252,  26, 187,  27
1240, 162, 169, 259, 168
1241, 233,  75,   2,   7
1242, 289,  87, 313, 276
1243, 322,  45,  46, 135
1244, 324, 269, 182,  44
1245,  90,  91,  80, 338
1246, 231, 133, 123, 134
1247, 354, 360, 327, 213
1248, 324, 182, 319, 188
1249, 236,  75,  20,  21
1250,  45, 188, 324, 315
1251, 283, 329, 216, 357
1252, 359, 147, 146,  35
1253, 359,  36, 119,  35
1254, 279, 119, 118, 108
1255, 277,  97,  96,  86
1256, 310,  92,  81,  82
1257, 170, 171, 254, 291
1258, 113, 339, 124, 320
1259, 240,  41, 139, 140
1260, 270, 178, 185, 184
1261, 249,  95, 105,  94
1262, 267, 176, 292, 177
1263, 259, 162, 280, 169
1264,  92, 296, 320, 310
1265, 224, 165, 158, 159
1266, 137, 127, 126, 307
1267, 324,  45, 322, 135
1268, 306, 301, 187,  27
1269, 322,  46, 134, 135
1270, 318, 238, 356, 353
1271, 324, 136, 135, 125
1272, 269, 319, 182, 183
1273, 314, 100,  99,  89
1274, 314, 110,  99, 100
1275, 232, 134,  47, 133
1276, 210, 203, 284, 204
1277, 262, 292, 171, 172
1278, 275, 120, 110, 121
1279, 313,  88,  99,  98
1280, 255, 171, 254, 165
1281, 254, 221, 224,  41
1282, 207, 208, 305, 327
1283, 359,  34,  35, 108
1284, 334, 335, 223, 148
1285, 339, 317, 320, 340
1286, 279,  97, 108, 107
1287, 363, 335,  33,  86
1288, 314,  89,  88,  78
1289, 249, 106, 105,  95
1290, 325, 106,  95,  96
1291, 363, 359, 147, 336
1292, 244, 249, 257,  95
1293, 282,  84,  83,  30
1294, 363,  33, 147,  34
1295, 270, 319, 269, 183
1296, 281,  93,  94, 104
1297, 339, 123, 113, 124
1298, 310,  92,  82,  93
1299, 247, 138, 308, 128
1300, 310,  92,  93, 103
1301, 319, 361, 343, 315
1302,  42, 176, 291, 307
1303, 300, 186, 180, 187
1304, 358, 327, 329, 209
1305, 347, 211, 205,  23
1306, 263, 174, 181, 180
1307, 190, 270, 183, 343
1308, 234, 235, 236, 265
1309, 363, 335, 277, 336
1310, 314,  88, 347,  78
1311, 335,  33,   4, 149
1312, 335,   4, 148, 149
1313, 335,   4,  86,  32
1314, 363,  34,  97,  33
1315, 340, 338,  80,  91
1316, 278,  31,  85,  84
1317, 277,  32,  85,  31
1318, 296,  91,  81,  92
1319, 282,  29,  30,  83
1320, 264,  29,  82,  28
1321, 335,  86, 277,  32
1322, 277, 279,  96,  97
1323, 240, 242, 221, 140
1324, 176, 291, 267, 292
1325, 264,  83,  82,  29
1326, 250, 251, 341,  25
1327, 363,  97, 277,  86
1328, 132, 275, 121, 131
1329, 220, 277, 336, 279
1330, 306, 300, 263, 181
1331, 219, 161, 154, 155
1332, 339, 112, 101, 102
1333, 278,  31,  84,  30
1334, 263, 256, 175, 174
1335, 263, 175, 306, 181
1336, 252,  26, 193, 187
1337, 310,  93, 104, 103
1338, 296,  27,  81,  80
1339, 335, 149, 334, 336
1340, 348, 338, 337, 314
1341, 324, 136,  44,  45
1342, 274,  11, 109,  12
1343, 349, 205, 211, 284
1344, 277, 278,  85,  96
1345, 301,  28,  82,  81
1346, 329, 215, 209, 216
1347, 277, 278,  31,  85
1348, 232,  46, 200,  47
1349, 347,  77,  23,  24
1350, 326, 288, 265, 289
1351, 314,  99,  88,  89
1352, 235, 271, 330, 328
1353,  26,  27, 252,  80
1354, 277, 280,  31, 278
1355,  18,  19, 214, 354
1356, 283, 329, 210, 216
1357, 277, 279,  97, 336
1358, 290, 109,  99, 110
1359, 206, 237,  48, 323
1360, 265, 226, 234, 228
1361, 283, 211, 217, 210
1362, 334, 333, 150, 142
1363, 284, 210, 204, 211
1364, 335,  50, 157, 148
1365, 295, 252, 193, 187
1366, 334, 336, 149, 151
1367, 328, 357, 283, 217
1368, 334, 151, 332, 336
1369, 220, 334, 333, 332
1370, 246, 242, 241, 279
1371, 289,  22,  76,   8
1372, 346,  16, 212,  17
1373,  19, 344,  18,  71
1374, 289,  76,  87,   9
1375, 287, 131,  13, 120
1376, 315, 361, 194, 188
1377, 343, 361, 189, 195
1378, 339, 229, 101, 112
1379, 225,   1,  72,   6
1380, 345,  70,  69,  67
1381,  20,  74, 236,  73
1382, 300, 263, 180, 179
1383, 269, 312, 297, 293
1384, 344,  18,  71,  68
1385, 239, 275, 121, 132
1386, 337, 317, 341, 238
1387, 287, 120, 275, 131
1388, 236,  20,  73,  19
1389, 344, 226, 234, 236
1390, 236, 357,  21,  20
1391, 226, 271, 236, 344
1392, 339, 124, 322, 123
1393, 326,  58,  57,  56
1394, 339, 124, 320, 322
1395, 234,  71,  73,  72
1396, 344,  68,  70,  67
1397, 237, 122, 133, 132
1398, 272,  12,  66,  63
1399, 234,  74,  72,  73
1400, 298, 315, 319, 343
1401, 287,  13, 273,  66
1402, 288,   6,  57,  59
1403, 275, 290, 110, 109
1404, 335,  33,  86,   4
1405, 290, 239, 121, 230
1406, 266,  63, 272,  66
1407, 313,  99, 290,  98
1408,  73, 234, 236,  19
1409,  98, 275, 109, 290
1410, 354,  17,  18,  68
1411, 350, 239, 290, 230
1412, 313,  87,  76,  77
1413, 233,  21,   2,  75
1414, 314, 350, 290, 230
1415, 355,  11,  61,  10
1416, 289,  22,   8,   2
1417, 275, 109, 110, 120
1418, 346,  17,  68,  16
1419, 230, 100, 110, 314
1420, 200, 237,  47, 206
1421, 337, 338,  89, 314
1422, 314, 338,  89,  78
1423, 225,  69,  70,  72
1424,  72, 234, 228,  74
1425, 220, 280, 223, 277
1426, 323,  49, 131, 132
1427,  75,  20,  74, 236
1428, 309, 136, 311, 137
1429, 335, 223, 148, 157
1430, 235,  21, 357,   2
1431, 273,   3,  14,  13
** TRUE EXTERIOR C3D4 FACE SETS; internal tetra faces excluded
*Elset, elset=ROBOT_EXTERIOR_S1
62, 72, 477, 855, 870, 970, 997, 1040, 1043, 1052, 1087, 1106, 1113, 1134, 1175, 1245
1266, 1355, 1427
*Elset, elset=ROBOT_EXTERIOR_S2
35, 466, 488, 829, 834, 851, 927, 1007, 1029, 1045, 1079, 1091, 1103, 1185, 1240, 1276
1353, 1381
*Elset, elset=ROBOT_EXTERIOR_S3
48, 63, 75, 76, 93, 105, 115, 151, 166, 169, 171, 237, 263, 271, 304, 306
323, 326, 329, 330, 340, 374, 389, 390, 404, 429, 464, 465, 478, 484, 490, 526
557, 559, 571, 583, 587, 591, 624, 626, 632, 647, 666, 674, 692, 699, 711, 717
727, 730, 742, 747, 750, 751, 770, 771, 773, 783, 785, 803, 804, 818, 825, 826
828, 830, 833, 836, 841, 845, 846, 852, 854, 858, 860, 861, 863, 864, 865, 866
869, 871, 872, 876, 878, 880, 881, 883, 886, 888, 890, 891, 892, 893, 894, 896
897, 898, 900, 904, 905, 907, 908, 909, 910, 913, 915, 916, 917, 919, 920, 921
923, 924, 925, 926, 929, 931, 932, 933, 934, 937, 938, 939, 940, 941, 942, 943
944, 945, 946, 949, 950, 951, 952, 957, 959, 961, 964, 967, 971, 972, 973, 974
975, 976, 977, 978, 979, 982, 986, 987, 988, 991, 996, 999, 1004, 1005, 1008, 1011
1012, 1013, 1016, 1017, 1018, 1021, 1023, 1025, 1028, 1030, 1033, 1035, 1036, 1042, 1043, 1047
1048, 1052, 1053, 1054, 1055, 1056, 1063, 1064, 1065, 1069, 1072, 1073, 1074, 1078, 1079, 1081
1082, 1084, 1085, 1086, 1088, 1089, 1092, 1093, 1094, 1095, 1096, 1097, 1102, 1103, 1106, 1108
1109, 1112, 1114, 1115, 1116, 1117, 1119, 1120, 1121, 1123, 1126, 1130, 1131, 1132, 1135, 1136
1137, 1138, 1141, 1145, 1149, 1150, 1151, 1156, 1157, 1159, 1162, 1164, 1165, 1166, 1167, 1168
1171, 1172, 1173, 1178, 1182, 1183, 1184, 1186, 1187, 1188, 1189, 1190, 1192, 1195, 1196, 1197
1199, 1200, 1202, 1203, 1204, 1205, 1209, 1210, 1211, 1212, 1213, 1214, 1217, 1221, 1222, 1224
1225, 1226, 1228, 1229, 1230, 1231, 1232, 1233, 1234, 1235, 1237, 1238, 1239, 1241, 1243, 1246
1249, 1252, 1253, 1254, 1255, 1256, 1259, 1260, 1261, 1265, 1269, 1271, 1273, 1274, 1275, 1278
1279, 1283, 1286, 1288, 1289, 1290, 1293, 1294, 1296, 1297, 1298, 1300, 1303, 1305, 1306, 1311
1312, 1313, 1314, 1316, 1317, 1318, 1319, 1320, 1325, 1331, 1332, 1333, 1336, 1337, 1338, 1341
1342, 1345, 1346, 1348, 1349, 1351, 1358, 1361, 1363, 1371, 1372, 1374, 1375, 1379, 1380, 1384
1388, 1393, 1395, 1396, 1397, 1398, 1399, 1402, 1404, 1410, 1412, 1413, 1415, 1416, 1417, 1418
1423, 1426, 1431
*Elset, elset=ROBOT_EXTERIOR_S4
159, 207, 233, 257, 565, 597, 693, 732, 782, 848, 1015, 1031, 1060, 1089, 1099, 1110
1154, 1206, 1216, 1328, 1373, 1420
*Nset, nset=ROBOT_CEL_BODY, generate
   1,  363,    1
*Elset, elset=ROBOT_CEL_BODY, generate
    1,  1431,     1
*Elset, elset=ROBOT_SOLID_ALL, generate
1, 1431, 1
*Surface, type=ELEMENT, name=ROBOT_SOLID_SURF
ROBOT_EXTERIOR_S1, S1
ROBOT_EXTERIOR_S2, S2
ROBOT_EXTERIOR_S3, S3
ROBOT_EXTERIOR_S4, S4
** Section: SEC_ROBOT_RIGID
*Solid Section, elset=ROBOT_CEL_BODY, material=MAT_ROBOT_RIGID
,
*End Part
**  
**
** ASSEMBLY
**
*Assembly, name=Assembly
*Instance, name=Pipe_WALL_HELPER-1, part=Pipe_WALL_HELPER
*End Instance
**  
*Instance, name=Pipe_TERMINAL_STOP-1, part=Pipe_TERMINAL_STOP
*End Instance
**  
*Instance, name=Pipe_TERMINAL_STOP_HIGH-1, part=Pipe_TERMINAL_STOP_HIGH
*End Instance
**  
*Elset, elset=PIPE_TERMINAL_STOP_CEL_ALL, instance=Pipe_TERMINAL_STOP-1, generate
1, 75, 1
*Elset, elset=PIPE_TERMINAL_STOP_HIGH_CEL_ALL, instance=Pipe_TERMINAL_STOP_HIGH-1, generate
1, 23, 1
*Elset, elset=PIPE_WALL_HELPER_CEL_ALL, instance=Pipe_WALL_HELPER-1, generate
1, 764, 1
**  
*Instance, name=Pipe_SOLID-1, part=Pipe_SOLID
*End Instance
**  
*Instance, name=Robot_SOLID-1, part=Robot_SOLID
-12.4046543000, 1.3357653000, -2.9992361000
*End Instance
**  
*Elset, elset=PIPE_SOLID_CEL_ALL, instance=Pipe_SOLID-1, generate
1, 5203, 1
*Elset, elset=ROBOT_SOLID_CEL_ALL, instance=Robot_SOLID-1, generate
1, 1431, 1
**  
*Node
      1,  -5.80302477,  -9.99273777,  -5.95533371
*Node
      2, -7.468174204284, -3.676918015967, -9.550745259298
*Nset, nset=RP_PIPE
 1,
*Nset, nset=RP_ROBOT
 2,
*Elset, elset=PIPE_RIGID_ALL
PIPE_SOLID_CEL_ALL,
PIPE_WALL_HELPER_CEL_ALL,
PIPE_TERMINAL_STOP_CEL_ALL,
PIPE_TERMINAL_STOP_HIGH_CEL_ALL,
*Rigid Body, ref node=RP_PIPE, elset=PIPE_RIGID_ALL
** Constraint: RB_PIPE
** Constraint: RB_ROBOT
*Rigid Body, ref node=RP_ROBOT, elset=ROBOT_SOLID_CEL_ALL
*End Assembly
** Reduced-Hydro: CEL fluid part, material, initialization and CEL contact were removed.
** 
** MATERIALS
** 
*Material, name=MAT_PIPE_RIGID
*Density
 1e-09,
*Elastic
 1e+06, 0.3
*Material, name=MAT_ROBOT_RIGID
*Density
7.80906654321e-09, 
*Elastic
 1e+06, 0.3
** 
** INTERACTION PROPERTIES
** 
*Surface Interaction, name=PROP_CEL_HARD
*Friction
0.03,
*Surface Behavior, pressure-overclosure=HARD
*Contact Damping, definition=CRITICAL DAMPING FRACTION
0.055
** 
** BOUNDARY CONDITIONS
** 
** Name: BC_PIPE_FIXED Type: Symmetry/Antisymmetry/Encastre
*Boundary
RP_PIPE, ENCASTRE
** ----------------------------------------------------------------
** 
** STEP: Step_Drive
** 
*Contact
*Contact Inclusions
ROBOT_SOLID-1.ROBOT_SOLID_SURF, Pipe_WALL_HELPER-1.PIPE_WALL_HELPER_SURF
*Contact Property Assignment
ROBOT_SOLID-1.ROBOT_SOLID_SURF, Pipe_WALL_HELPER-1.PIPE_WALL_HELPER_SURF, PROP_CEL_HARD
** REDUCED-HYDRO BASELINE; CEL REMOVED; production external Magpylib retained.
** FREE-TRANSLATION PARAMETERS: phase=248.0 deg; cone=30 deg; Bias40; gradient=6.000 mT=0.006000 T; server-side analytic field
** SOCKET BASELINE JOB: Job_RouteA_CEL_Socket_ConnectorFixed_Capsule_0p003
** Local centerline frame at COM RP (metadata only); COM translations constrained in calibration
** COM-fixed RP_ROBOT = (-7.468174204284, -3.676918015967, -9.550745259298) mm; volume-weighted mesh COM
** tangent-X = (-0.928048296, 0.179421111, -0.326396119)
** transported-Y = (0.140416425, 0.988230515, -0.0606933022)
** binormal-Z = (0.312362773, -0.102386426, -0.944429202)
** CSF rho=1.0007e-09 tonne/mm^3; mu=7.1e-10 N*s/mm^2; c0=1480000 mm/s
*Step, name=Step_Drive, nlgeom=YES
*Dynamic, Explicit, DIRECT
1.0e-7, 0.001300
*Bulk Viscosity
0.06, 1.2
** 
** BOUNDARY CONDITIONS
** 
** REDUCED-HYDRO LOAD INTERFACE: magnetic Socket loads plus dissipative body-following hydro loads.
** SOCKET_* remain production Magpylib loads; HYDRO_* are local dissipative loads from RP V/VR sensors.
** DOF 1..3: Fx,Fy,Fz [N]; DOF 4..6: Mx,My,Mz [N*mm].
** Abaqus uses *CLOAD for both concentrated forces and moments;
** CFORCE/CMOMENT are output quantities, not input keywords.
*Amplitude, name=SOCKET_FX, definition=USER
*Amplitude, name=SOCKET_FY, definition=USER
*Amplitude, name=SOCKET_FZ, definition=USER
*Amplitude, name=SOCKET_MX, definition=USER
*Amplitude, name=SOCKET_MY, definition=USER
*Amplitude, name=SOCKET_MZ, definition=USER
*Cload, amplitude=SOCKET_FX
RP_ROBOT, 1, 1.
*Cload, amplitude=SOCKET_FY
RP_ROBOT, 2, 1.
*Cload, amplitude=SOCKET_FZ
RP_ROBOT, 3, 1.
*Cload, amplitude=SOCKET_MX
RP_ROBOT, 4, 1.
*Cload, amplitude=SOCKET_MY
RP_ROBOT, 5, 1.
*Cload, amplitude=SOCKET_MZ
RP_ROBOT, 6, 1.
*Amplitude, name=HYDRO_FX, definition=USER
*Amplitude, name=HYDRO_FY, definition=USER
*Amplitude, name=HYDRO_FZ, definition=USER
*Amplitude, name=HYDRO_MX, definition=USER
*Amplitude, name=HYDRO_MY, definition=USER
*Amplitude, name=HYDRO_MZ, definition=USER
*Cload, amplitude=HYDRO_FX
RP_ROBOT, 1, 1.
*Cload, amplitude=HYDRO_FY
RP_ROBOT, 2, 1.
*Cload, amplitude=HYDRO_FZ
RP_ROBOT, 3, 1.
*Cload, amplitude=HYDRO_MX
RP_ROBOT, 4, 1.
*Cload, amplitude=HYDRO_MY
RP_ROBOT, 5, 1.
*Cload, amplitude=HYDRO_MZ
RP_ROBOT, 6, 1.
** 
** OUTPUT REQUESTS
** 
*Restart, write, number interval=1, time marks=NO
** 
** FIELD OUTPUT: F-Output-1
** 
** IMPACT ENERGY DIAGNOSTIC: preserve all existing physics; save contact and energy fields every 1 us.
*Output, field, time interval=5.0e-7, time marks=NO
*Node Output
U
*Node Output, nset=RP_ROBOT
U, UR, V, VR, A, AR, CF, RF, RM
*Contact Output, general contact
CSTRESS, CFORCE
*Contact Output, surface=ROBOT_SOLID-1.ROBOT_SOLID_SURF
CDISP
*Output, history, frequency=1
*Node Output, nset=RP_ROBOT
COORD, U, UR, V, VR, A, AR, CF, RF, RM
*Contact Output, surface=ROBOT_SOLID-1.ROBOT_SOLID_SURF
CFN, CFS, CFT
*Contact Output, surface=Pipe_WALL_HELPER-1.PIPE_WALL_HELPER_SURF
CFN, CFS, CFT
*Output, history, time interval=5.0e-5
*Energy Output, variable=ALL
*Output, history, frequency=1, sensor, name=RP_U1
*Node Output, nset=RP_ROBOT
U1
*Output, history, frequency=1, sensor, name=RP_U2
*Node Output, nset=RP_ROBOT
U2
*Output, history, frequency=1, sensor, name=RP_U3
*Node Output, nset=RP_ROBOT
U3
*Output, history, frequency=1, sensor, name=RP_UR1
*Node Output, nset=RP_ROBOT
UR1
*Output, history, frequency=1, sensor, name=RP_UR2
*Node Output, nset=RP_ROBOT
UR2
*Output, history, frequency=1, sensor, name=RP_UR3
*Node Output, nset=RP_ROBOT
UR3
*Output, history, frequency=1, sensor, name=RP_V1
*Node Output, nset=RP_ROBOT
V1
*Output, history, frequency=1, sensor, name=RP_V2
*Node Output, nset=RP_ROBOT
V2
*Output, history, frequency=1, sensor, name=RP_V3
*Node Output, nset=RP_ROBOT
V3
*Output, history, frequency=1, sensor, name=RP_VR1
*Node Output, nset=RP_ROBOT
VR1
*Output, history, frequency=1, sensor, name=RP_VR2
*Node Output, nset=RP_ROBOT
VR2
*Output, history, frequency=1, sensor, name=RP_VR3
*Node Output, nset=RP_ROBOT
VR3
*End Step
