** R014 exterior mesh analytic-field probe; 10 mg; D055; gradient 3 mT; Bias40; forward
** RESTORED ROBOT: _robot_true_R014_source.inp mesh; exact 6 mg; 2.01 mm wall helper offset=0.005 mm
** HIGH-WOBBLE 6 ms PROBE: only damping 0.055 -> 0.020; all other physics unchanged
** BOUNDED MEDIUM PROBE: 6 ms; no geometry/physics change; output 2 us
** COPEN PRECHECK: physics unchanged; robot exterior-only surface output added
** ROBOT CONTACT SANITIZED: TRUE EXTERIOR FACES ONLY
** ROBOT PART TRANSPLANTED FROM UNROUNDED BASE; no stacked fillet
** donor=_robot_true_R014_source.inp
** High-end robot-only stop added; CEL remains open; band=0.8 mm, faces=23
** CAPSULE/FILLET VARIANT; rf=0.1 mm; source=CEL_CurrentCenterline_Cone15_Z110_PolarityPlus_Mu003_Damp055_AfterBendReverse_015.inp
** MATRIX VARIANT: mu003
** Z=110 mm single-variable probe; 5 Hz fixed; m_robot=1.168e-3 A*m^2; adaptive-lead=0.
** POLARITY-PLUS CLOSED-LOOP 0.03 s: +robot_axis_global end assumed N; adaptive-lead=0.
** FULL 3D LIVE-MAGNETIC FORCE/TORQUE CLOSED-LOOP: the force is projected onto the local DXF tangent; torque remains live from Magpylib; endpoint caps are retained in the wall helper; duration=0.03 s
** FULL 3D LIVE-MAGNETIC FORCE/TORQUE CLOSED-LOOP: the force is projected onto the local DXF tangent; torque remains live from Magpylib; endpoint caps are retained in the wall helper; duration=0.006 s
** FULL 3D LIVE-MAGNETIC FORCE/TORQUE CLOSED-LOOP: the force is projected onto the local DXF tangent; torque remains live from Magpylib; endpoint caps are retained in the wall helper; duration=0.03 s
** Terminal robot-only outlet stop added at low-s end; CEL remains open; cap_band=0.8 mm, faces=75
** FULL 3D LIVE-MAGNETIC FORCE/TORQUE CLOSED-LOOP: the force is projected onto the local DXF tangent; torque remains live from Magpylib; endpoint caps are retained in the wall helper; duration=0.03 s
** FORWARD-ONLY DIAGNOSTIC: live Magpylib force projected onto the local DXF pipe tangent; magnetic torque is disabled; 0.010 s probe
** WALL/CEL FACTORIAL DIAGNOSTIC; only contact inclusions changed
** CEL boundary-wall probe: Pipe_SOLID retained as fixed mass but excluded from contact; helper R3D4 wall offset=0.2 mm, end caps removed=98
*Heading
** WALL/CEL FACTORIAL: WobbleCal_COMFixed_F30_Cone30_B10; Wall=OFF; CEL=ON; 1.8 ms; phase=248 deg; gradient=3.000 mT=0.003000 T; spin=30 Hz
** COM-FIXED CALIBRATION: F40; cone30; B=10 mT; Wall-OFF; CEL-ON; translations fixed, rotations free
** Robot refined contact mesh, centerline translation + tangent-following orientation
** Job name: Job_RouteA_CEL_SOLID_robotfine Model name: RouteA_SolidCEL_Probe
** Generated by: Abaqus/CAE 2025
*Preprint, echo=NO, model=NO, history=NO, contact=NO
**
** PARTS
**
*Part, name=FLUID_EULERIAN
*Node
      1,  -16.7237701,  -16.9749355,  -1.60377359
      2,   -17.105442,  -16.6798229,  -1.42346621
      3,  -17.5757713,  -16.4768677,  -1.47709882
      4,  -18.0087299,  -16.4204502,  -1.75030053
      5,   -18.288311,  -16.5256882,  -2.16986728
      6,  -16.5330219,  -17.2831306,  -1.96970761
      7,  -18.3395977,  -16.7643833,  -2.62337637
      8,  -18.1488495,  -17.0725784,   -2.9893105
      9,  -17.7671776,   -17.367691,  -3.16961789
     10,  -17.2968483,  -17.5706463,  -3.11598539
     11,  -16.8638878,  -17.6270638,  -2.84278345
     12,  -16.5843086,  -17.5218258,  -2.42321682
     13,  -17.0575333,  -16.9468861,  -1.84088337
     14,  -17.3320179,  -17.1738396,  -2.46499729
     15,  -17.2073231,  -16.7667675,  -1.65976119
     16,  -17.4819317,  -16.6840191,  -1.75243568
     17,  -17.9236317,  -16.7408257,   -2.2274344
     18,  -17.6498013,  -17.0410252,  -2.50863981
     19,  -17.3224373,  -17.0277367,  -2.20605063
     20,  -16.9682102,  -17.1470375,  -2.10806751
     21,  -16.9801159,   -17.315731,  -2.40777421
     22,   -17.057663,  -17.4310532,  -2.67197657
     23,  -17.7579269,  -16.6584454,  -1.94442427
     24,  -17.9692249,  -16.8944721,   -2.5301075
     25,  -17.9371681,  -17.0578804,  -2.78316998
     26,  -17.3425808,  -17.3474064,   -2.7719183
     27,  -17.3615875,  -16.8697224,  -1.96830928
     28,  -17.6701641,  -17.2090111,   -2.8143611
     29,  -17.6269436,  -16.9057407,  -2.25691628
     30,  -17.5837688,  -16.8142185,  -2.06293368
     31,  -16.5270805,  -16.5799465,  -1.83391154
     32,  -16.9087543,  -16.2848339,  -1.65360415
     33,  -17.3790817,  -16.0818787,  -1.70723677
     34,  -17.8120422,  -16.0254612,  -1.98043847
     35,  -18.0916214,  -16.1306992,  -2.40000534
     36,  -16.3363323,  -16.8881416,  -2.19984555
     37,  -18.1429081,  -16.3693943,  -2.85351443
     38,  -17.9521599,  -16.6775894,  -3.21944857
     39,   -17.570488,   -16.972702,  -3.39975595
     40,  -17.1001587,  -17.1756573,  -3.34612322
     41,  -16.6672001,  -17.2320747,  -3.07292151
     42,   -16.387619,  -17.1268368,  -2.65335464
     43,  -16.8608456,   -16.551897,  -2.07102156
     44,  -17.1353302,  -16.7788486,  -2.69513655
     45,  -17.0106354,  -16.3717785,  -1.88989937
     46,   -17.285244,  -16.2890301,  -1.98257422
     47,  -17.7269421,  -16.3458347,  -2.45757365
     48,  -17.4531136,  -16.6460342,  -2.73877835
     49,  -17.1257496,  -16.6327477,  -2.43618917
     50,  -16.7715225,  -16.7520485,  -2.33820534
     51,  -16.7834282,   -16.920742,   -2.6379118
     52,  -16.8609753,  -17.0360641,  -2.90211439
     53,  -17.5612392,  -16.2634563,  -2.17456317
     54,  -17.7725353,  -16.4994812,  -2.76024652
     55,  -17.7404785,  -16.6628895,  -3.01330876
     56,  -17.1458912,  -16.9524155,  -3.00205708
     57,  -17.1648998,  -16.4747334,  -2.19844818
     58,  -17.4734745,  -16.8140202,  -3.04450011
     59,   -17.430254,  -16.5107498,   -2.4870553
     60,  -17.3870811,  -16.4192295,  -2.29307222
     61,  -16.3303928,  -16.1849575,  -2.06404948
     62,  -16.7120647,  -15.8898458,  -1.88374209
     63,   -17.182394,  -15.6868896,  -1.93737471
     64,  -17.6153526,  -15.6304722,  -2.21057653
     65,  -17.8949337,  -15.7357101,  -2.63014317
     66,  -16.1396446,  -16.4931526,  -2.42998362
     67,  -17.9462204,  -15.9744062,  -3.08365226
     68,  -17.7554722,  -16.2826004,  -3.44958639
     69,  -17.3737984,   -16.577713,  -3.62989378
     70,   -16.903471,  -16.7806683,  -3.57626128
     71,  -16.4705105,  -16.8370857,  -3.30305934
     72,  -16.1909313,  -16.7318478,  -2.88349271
     73,  -16.6641598,   -16.156908,  -2.30115962
     74,  -16.9386444,  -16.3838596,  -2.92527437
     75,  -16.8139477,  -15.9767895,  -2.12003803
     76,  -17.0885582,  -15.8940401,    -2.212713
     77,  -17.5302563,  -15.9508448,  -2.68771219
     78,  -17.2564259,  -16.2510452,  -2.96891737
     79,  -16.9290657,  -16.2377567,  -2.66632843
     80,  -16.5748367,  -16.3570595,   -2.5683434
     81,  -16.5867405,   -16.525753,  -2.86805058
     82,  -16.6642876,  -16.6410751,  -3.13225293
     83,  -17.3645515,  -15.8684654,  -2.40470195
     84,  -17.5758476,  -16.1044922,  -2.99038506
     85,  -17.5437908,  -16.2679005,  -3.24344707
     86,  -16.9492054,  -16.5574265,   -3.2321949
     87,   -16.968214,  -16.0797424,  -2.42858672
     88,  -17.2767868,  -16.4190311,  -3.27463794
     89,  -17.2335701,  -16.1157608,  -2.71719384
     90,  -17.1903954,  -16.0242386,  -2.52321124
     91,  -16.1337032,  -15.7899694,  -2.29418731
     92,   -16.515377,  -15.4948568,  -2.11387992
     93,  -16.9857044,  -15.2919006,  -2.16751266
     94,  -17.4186649,  -15.2354832,  -2.44071436
     95,  -17.6982441,  -15.3407211,  -2.86028123
     96,   -15.942955,  -16.0981636,  -2.66012144
     97,  -17.7495308,  -15.5794172,  -3.31379032
     98,  -17.5587826,  -15.8876114,  -3.67972445
     99,  -17.1771107,   -16.182724,  -3.86003184
    100,  -16.7067814,  -16.3856792,  -3.80639911
    101,  -16.2738228,  -16.4420967,   -3.5331974
    102,  -15.9942417,  -16.3368587,  -3.11363053
    103,  -16.4674721,   -15.761919,  -2.53129864
    104,  -16.7419567,  -15.9888697,  -3.15541315
    105,    -16.61726,  -15.5818005,  -2.35017681
    106,  -16.8918686,  -15.4990501,  -2.44285178
    107,  -17.3335667,  -15.5558548,  -2.91785121
    108,  -17.0597382,  -15.8560543,  -3.19905639
    109,   -16.732378,  -15.8427677,  -2.89646721
    110,   -16.378149,  -15.9620714,   -2.7984817
    111,  -16.3900528,   -16.130764,  -3.09818816
    112,  -16.4675999,  -16.2460861,  -3.36239076
    113,  -17.1678638,  -15.4734755,  -2.63484073
    114,  -17.3791599,  -15.7095013,  -3.22052431
    115,  -17.3471012,  -15.8729095,  -3.47358608
    116,  -16.7525158,  -16.1624374,  -3.46233368
    117,  -16.7715263,  -15.6847534,   -2.6587255
    118,  -17.0800991,  -16.0240402,  -3.50477719
    119,  -17.0368805,  -15.7207708,  -2.94733286
    120,  -16.9937057,  -15.6292486,  -2.75335002
    121,  -15.9370146,  -15.3949804,  -2.52432537
    122,  -16.3186874,  -15.0998678,  -2.34401798
    123,  -16.7890167,  -14.8969116,  -2.39765048
    124,  -17.2219753,  -14.8404942,  -2.67085242
    125,  -17.5015564,  -14.9457321,  -3.09041905
    126,  -15.7462664,  -15.7031746,   -2.8902595
    127,  -17.5528431,  -15.1844282,  -3.54392815
    128,  -17.3620949,  -15.4926224,  -3.90986228
    129,  -16.9804211,   -15.787735,  -4.09016991
    130,  -16.5100937,  -15.9906912,  -4.03653717
    131,  -16.0771332,  -16.0471077,  -3.76333523
    132,  -15.7975531,  -15.9418697,   -3.3437686
    133,  -16.2707844,    -15.36693,  -2.76143718
    134,  -16.5452709,  -15.5938807,  -3.38555193
    135,  -16.4205723,  -15.1868114,  -2.58031511
    136,  -16.6951828,  -15.1040611,  -2.67299056
    137,   -17.136879,  -15.1608648,  -3.14798999
    138,  -16.8630505,  -15.4610643,  -3.42919517
    139,  -16.5356922,  -15.4477787,  -3.12660623
    140,  -16.1814613,  -15.5670815,  -3.02862096
    141,  -16.1933651,  -15.7357759,  -3.32832646
    142,  -16.2709122,  -15.8510962,   -3.5925293
    143,  -16.9711761,  -15.0784864,  -2.86497974
    144,  -17.1824703,  -15.3145113,  -3.45066285
    145,  -17.1504135,  -15.4779196,  -3.70372462
    146,    -16.55583,  -15.7674484,  -3.69247198
    147,  -16.5748405,  -15.2897644,  -2.88886452
    148,  -16.8834095,  -15.6290512,  -3.73491573
    149,  -16.8401947,  -15.3257809,  -3.17747188
    150,    -16.79702,  -15.2342596,  -2.98348904
    151,  -15.7403259,  -14.9999914,   -2.7544632
    152,  -16.1219978,  -14.7048788,  -2.57415581
    153,  -16.5923271,  -14.5019226,  -2.62778854
    154,  -17.0252876,  -14.4455051,  -2.90099025
    155,  -17.3048668,  -14.5507431,  -3.32055712
    156,  -15.5495777,  -15.3081856,  -3.12039733
    157,  -17.3561535,  -14.7894392,  -3.77406621
    158,  -17.1654053,  -15.0976334,  -4.14000034
    159,  -16.7837334,   -15.392746,  -4.32030773
    160,  -16.3134041,  -15.5957022,    -4.266675
    161,  -15.8804445,  -15.6521196,  -3.99347329
    162,  -15.6008644,  -15.5468807,  -3.57390642
    163,  -16.0740967,   -14.971941,  -2.99157548
    164,  -16.3485832,  -15.1988897,  -3.61569071
    165,  -16.2238846,  -14.7918224,  -2.81045294
    166,  -16.4984951,  -14.7090712,  -2.90312934
    167,  -16.9401894,  -14.7658749,  -3.37812901
    168,  -16.6663628,  -15.0660744,  -3.65933371
    169,  -16.3390045,  -15.0527878,  -3.35674524
    170,  -15.9847736,  -15.1720924,  -3.25875854
    171,  -15.9966774,   -15.340786,  -3.55846429
    172,  -16.0742245,  -15.4561062,  -3.82266736
    173,  -16.7744865,  -14.6834955,  -3.09511876
    174,  -16.9857826,  -14.9195213,  -3.68080163
    175,  -16.9537239,  -15.0829287,  -3.93386388
    176,  -16.3591404,  -15.3724575,  -3.92261052
    177,  -16.3781509,  -14.8947754,  -3.11900282
    178,  -16.6867218,  -15.2340612,  -3.96505404
    179,   -16.643507,  -14.9307909,  -3.40761042
    180,  -16.6003304,  -14.8392696,  -3.21362782
    181,  -15.5436373,  -14.6050024,  -2.98460126
    182,  -15.9253101,  -14.3098898,  -2.80429387
    183,  -16.3956375,  -14.1069336,  -2.85792637
    184,   -16.828598,  -14.0505161,  -3.13112831
    185,  -17.1081791,  -14.1557541,  -3.55069494
    186,  -15.3528891,  -14.9131966,  -3.35053539
    187,  -17.1594658,  -14.3944502,  -4.00420427
    188,  -16.9687176,  -14.7026443,  -4.37013817
    189,  -16.5870438,   -14.997757,  -4.55044556
    190,  -16.1167164,  -15.2007132,  -4.49681282
    191,  -15.6837559,  -15.2571306,  -4.22361135
    192,  -15.4041758,  -15.1518917,  -3.80404449
    193,  -15.8774099,   -14.576952,  -3.22171378
    194,  -16.1518974,  -14.8039007,  -3.84582925
    195,  -16.0271988,  -14.3968325,  -3.04059219
    196,  -16.3018074,  -14.3140821,  -3.13326764
    197,  -16.7435017,  -14.3708839,  -3.60826826
    198,   -16.469677,  -14.6710854,  -3.88947248
    199,  -16.1423187,  -14.6577988,  -3.58688402
    200,  -15.7880869,  -14.7771034,  -3.48889709
    201,  -15.7999907,  -14.9457979,  -3.78860259
    202,  -15.8775368,  -15.0611172,   -4.0528059
    203,  -16.5777988,  -14.2885065,   -3.3252573
    204,  -16.7890949,  -14.5245304,  -3.91094112
    205,  -16.7570362,  -14.6879387,  -4.16400242
    206,  -16.1624546,  -14.9774685,  -4.15274906
    207,  -16.1814651,  -14.4997864,   -3.3491416
    208,  -16.4900341,  -14.8390713,  -4.19519281
    209,  -16.4468193,  -14.5358019,  -3.63774943
    210,  -16.4036446,  -14.4442806,  -3.44376683
    211,  -15.3469486,  -14.2100134,  -3.21473908
    212,  -15.7286215,  -13.9149008,   -3.0344317
    213,  -16.1989498,  -13.7119446,  -3.08806443
    214,  -16.6319103,  -13.6555271,  -3.36126614
    215,  -16.9114895,  -13.7607651,  -3.78083301
    216,  -15.1562004,  -14.5182076,  -3.58067322
    217,  -16.9627762,  -13.9994612,   -4.2343421
    218,   -16.772028,  -14.3076553,  -4.60027599
    219,  -16.3903561,  -14.6027679,  -4.78058338
    220,  -15.9200277,  -14.8057241,  -4.72695112
    221,  -15.4870672,  -14.8621416,  -4.45374918
    222,  -15.2074871,  -14.7569027,  -4.03418255
    223,  -15.6807232,   -14.181963,  -3.45185184
    224,  -15.9552107,  -14.4089108,  -4.07596779
    225,  -15.8305111,  -14.0018435,   -3.2707305
    226,  -16.1051197,  -13.9190931,  -3.36340618
    227,   -16.546814,   -13.975894,   -3.8384068
    228,  -16.2729874,  -14.2760944,  -4.11961126
    229,   -15.945632,  -14.2628088,  -3.81702304
    230,  -15.5914001,  -14.3821154,  -3.71903491
    231,   -15.603303,  -14.5508089,  -4.01874065
    232,  -15.6808491,  -14.6661282,  -4.28294373
    233,  -16.3811131,  -13.8935165,  -3.55539608
    234,  -16.5924053,  -14.1295404,  -4.14107943
    235,  -16.5603466,  -14.2929478,   -4.3941412
    236,   -15.965766,  -14.5824785,  -4.38288736
    237,  -15.9847784,  -14.1047964,  -3.57928038
    238,  -16.2933445,  -14.4440804,  -4.42533159
    239,  -16.2501316,   -14.140811,  -3.86788821
    240,  -16.2069569,  -14.0492907,  -3.67390513
    241,    -15.15026,  -13.8150244,  -3.44487715
    242,  -15.5319328,  -13.5199118,  -3.26456976
    243,  -16.0022602,  -13.3169556,  -3.31820226
    244,  -16.4352207,  -13.2605381,   -3.5914042
    245,  -16.7148018,  -13.3657761,  -4.01097107
    246,  -14.9595118,  -14.1232185,  -3.81081128
    247,  -16.7660885,  -13.6044722,  -4.46447992
    248,  -16.5753403,  -13.9126663,   -4.8304143
    249,  -16.1936665,  -14.2077789,  -5.01072168
    250,  -15.7233391,  -14.4107351,  -4.95708895
    251,  -15.2903786,  -14.4671526,    -4.683887
    252,  -15.0107985,  -14.3619137,  -4.26432037
    253,  -15.4840355,   -13.786974,  -3.68199062
    254,  -15.7585249,  -14.0139208,  -4.30610609
    255,  -15.6338234,  -13.6068544,   -3.5008688
    256,   -15.908432,  -13.5241032,   -3.5935452
    257,  -16.3501263,   -13.580904,  -4.06854582
    258,  -16.0763016,  -13.8811045,  -4.34975004
    259,  -15.7489462,  -13.8678188,  -4.04716158
    260,  -15.3947124,  -13.9871264,  -3.94917297
    261,  -15.4066162,  -14.1558189,  -4.24887848
    262,  -15.4841623,  -14.2711382,  -4.51308155
    263,  -16.1844234,  -13.4985256,  -3.78553534
    264,  -16.3957195,  -13.7345505,   -4.3712182
    265,  -16.3636608,  -13.8979578,  -4.62427998
    266,  -15.7690792,  -14.1874895,  -4.61302567
    267,  -15.7880917,  -13.7098074,  -3.80941916
    268,  -16.0966568,  -14.0490913,  -4.65546989
    269,  -16.0534458,   -13.745821,  -4.09802675
    270,  -16.0102692,  -13.6542997,  -3.90404415
    271,  -14.9535713,  -13.4200354,  -3.67501497
    272,  -15.3352442,  -13.1249228,  -3.49470758
    273,  -15.8055725,  -12.9219666,  -3.54834032
    274,   -16.238533,  -12.8655491,  -3.82154202
    275,  -16.5181122,   -12.970787,  -4.24110889
    276,  -14.7628231,  -13.7282295,  -4.04094934
    277,  -16.5693989,  -13.2094831,  -4.69461775
    278,  -16.3786507,  -13.5176773,  -5.06055212
    279,  -15.9969788,  -13.8127899,  -5.24085951
    280,  -15.5266504,  -14.0157461,  -5.18722677
    281,  -15.0936899,  -14.0721636,  -4.91402483
    282,  -14.8141098,  -13.9669247,   -4.4944582
    283,  -15.2873487,  -13.3919849,  -3.91212845
    284,  -15.5618382,  -13.6189308,  -4.53624439
    285,  -15.4371357,  -13.2118654,  -3.73100734
    286,  -15.7117453,  -13.1291142,   -3.8236835
    287,  -16.1534386,  -13.1859131,  -4.29868412
    288,  -15.8796139,  -13.4861135,  -4.57988834
    289,  -15.5522604,  -13.4728289,  -4.27730036
    290,  -15.1980257,  -13.5921373,  -4.17931128
    291,  -15.2099285,  -13.7608309,   -4.4790163
    292,  -15.2874746,  -13.8761501,  -4.74321985
    293,  -15.9877367,  -13.1035366,  -4.01567364
    294,  -16.1990299,  -13.3395586,  -4.60135746
    295,  -16.1669712,  -13.5029669,  -4.85441828
    296,  -15.5723915,  -13.7924995,  -4.84316349
    297,   -15.591404,  -13.3148174,  -4.03955793
    298,  -15.8999701,  -13.6541014,  -4.88560867
    299,  -15.8567581,  -13.3508301,  -4.32816553
    300,  -15.8135824,  -13.2593098,  -4.13418293
    301,  -14.7568827,  -13.0250463,  -3.90515304
    302,  -15.1385555,  -12.7299337,  -3.72484565
    303,  -15.6088839,  -12.5269775,  -3.77847815
    304,  -16.0418434,  -12.4705601,  -4.05168009
    305,  -16.3214245,   -12.575798,  -4.47124672
    306,  -14.5661345,  -13.3332405,  -4.27108717
    307,  -16.3727112,  -12.8144941,  -4.92475605
    308,   -16.181963,  -13.1226883,  -5.29068995
    309,  -15.8002901,  -13.4178009,  -5.47099733
    310,  -15.3299608,  -13.6207571,   -5.4173646
    311,  -14.8970013,  -13.6771746,  -5.14416313
    312,  -14.6174212,  -13.5719357,  -4.72459602
    313,   -15.090662,  -12.9969969,  -4.14226675
    314,  -15.3651524,  -13.2239408,  -4.76638317
    315,   -15.240448,  -12.8168764,  -3.96114564
    316,  -15.5150576,  -12.7341242,  -4.05382204
    317,  -15.9567509,  -12.7909231,  -4.52882338
    318,  -15.6829262,  -13.0911236,  -4.81002712
    319,  -15.3555746,  -13.0778389,  -4.50743961
    320,   -15.001339,  -13.1971483,  -4.40944958
    321,  -15.0132418,  -13.3658409,  -4.70915461
    322,  -15.0907879,  -13.4811611,  -4.97335768
    323,   -15.791049,  -12.7085466,  -4.24581289
    324,  -16.0023422,  -12.9445686,  -4.83149624
    325,  -15.9702826,  -13.1079769,  -5.08455706
    326,  -15.3757038,  -13.3975105,  -5.07330179
    327,  -15.3947172,  -12.9198284,  -4.26969671
    328,  -15.7032824,  -13.2591114,  -5.11574697
    329,  -15.6600714,  -12.9558401,  -4.55830479
    330,  -15.6168957,  -12.8643208,  -4.36432171
    331,   -14.560194,  -12.6300573,   -4.1352911
    332,  -14.9418669,  -12.3349447,  -3.95498347
    333,  -15.4121952,  -12.1319885,  -4.00861597
    334,  -15.8451548,  -12.0755711,  -4.28181791
    335,  -16.1247349,   -12.180809,  -4.70138454
    336,  -14.3694458,  -12.9382515,  -4.50122499
    337,  -16.1760216,  -12.4195051,  -5.15489388
    338,  -15.9852734,  -12.7276993,  -5.52082777
    339,  -15.6036015,  -13.0228119,  -5.70113516
    340,  -15.1332722,  -13.2257681,   -5.6475029
    341,  -14.7003126,  -13.2821856,  -5.37430096
    342,  -14.4207325,  -13.1769466,  -4.95473433
    343,  -14.8939753,  -12.6020069,  -4.37240553
    344,  -15.1684647,  -12.8289509,  -4.99652195
    345,  -15.0437613,  -12.4218874,   -4.1912837
    346,  -15.3183708,  -12.3391352,  -4.28396082
    347,  -15.7600622,  -12.3959332,  -4.75896215
    348,  -15.4862385,  -12.6961336,   -5.0401659
    349,  -15.1588879,  -12.6828499,  -4.73757839
    350,  -14.8046522,  -12.8021593,   -4.6395874
    351,  -14.8165541,  -12.9708529,  -4.93929243
    352,  -14.8940992,  -13.0861712,  -5.20349598
    353,  -15.5943604,  -12.3135567,  -4.47595167
    354,  -15.8056526,  -12.5495787,  -5.06163454
    355,  -15.7735929,  -12.7129869,  -5.31469536
    356,  -15.1790161,  -13.0025206,  -5.30344057
    357,  -15.1980305,  -12.5248384,  -4.49983549
    358,  -15.5065937,  -12.8641214,  -5.34588528
    359,  -15.4633837,  -12.5608511,  -4.78844357
    360,   -15.420208,  -12.4693308,  -4.59446049
    361,  -14.3635054,  -12.2350683,  -4.36542892
    362,  -14.7451782,  -11.9399557,  -4.18512154
    363,  -15.2155066,  -11.7369995,  -4.23875427
    364,  -15.6484661,   -11.680582,  -4.51195574
    365,  -15.9280462,    -11.78582,  -4.93152285
    366,  -14.1727571,  -12.5432625,  -4.73136282
    367,  -15.9793329,  -12.0245161,   -5.3850317
    368,  -15.7885847,  -12.3327103,  -5.75096607
    369,  -15.4069118,  -12.6278229,  -5.93127346
    370,  -14.9365835,  -12.8307791,  -5.87764072
    371,   -14.503624,  -12.8871965,  -5.60443878
    372,  -14.2240438,  -12.7819576,  -5.18487215
    373,  -14.6972876,  -12.2070189,  -4.60254335
    374,  -14.9717779,  -12.4339609,  -5.22666025
    375,  -14.8470736,  -12.0268993,    -4.421422
    376,  -15.1216831,  -11.9441452,   -4.5140996
    377,  -15.5633736,  -12.0009422,  -4.98910093
    378,  -15.2895508,  -12.3011436,   -5.2703042
    379,  -14.9622011,  -12.2878609,  -4.96771622
    380,  -14.6079645,  -12.4071703,  -4.86972523
    381,  -14.6198664,  -12.5758638,  -5.16943026
    382,  -14.6974125,  -12.6911821,   -5.4336338
    383,  -15.3976727,  -11.9185667,  -4.70609045
    384,   -15.608964,  -12.1545877,  -5.29177332
    385,  -15.5769043,   -12.317996,  -5.54483414
    386,  -14.9823284,  -12.6075315,   -5.5335784
    387,  -15.0013428,  -12.1298494,  -4.72997379
    388,  -15.3099051,  -12.4691315,  -5.57602406
    389,   -15.266696,  -12.1658611,  -5.01858187
    390,  -15.2235203,  -12.0743418,  -4.82459927
    391,  -14.1668167,  -11.8400793,  -4.59556675
    392,  -14.5484896,  -11.5449667,  -4.41525936
    393,  -15.0188179,  -11.3420105,   -4.4688921
    394,  -15.4517775,   -11.285593,  -4.74209404
    395,  -15.7313576,   -11.390831,  -5.16166067
    396,  -13.9760685,  -12.1482735,  -4.96150112
    397,  -15.7826443,  -11.6295271,  -5.61516953
    398,  -15.5918961,  -11.9377213,   -5.9811039
    399,  -15.2102232,  -12.2328339,  -6.16141129
    400,  -14.7398949,  -12.4357901,  -6.10777855
    401,  -14.3069353,  -12.4922075,  -5.83457661
    402,  -14.0273552,  -12.3869686,  -5.41500998
    403,  -14.5006008,  -11.8120298,  -4.83268118
    404,  -14.7750921,  -12.0389719,  -5.45679903
    405,  -14.6503859,  -11.6319094,  -4.65156031
    406,  -14.9249954,  -11.5491552,  -4.74423838
    407,  -15.3666859,  -11.6059523,  -5.21923971
    408,   -15.092864,  -11.9061537,   -5.5004425
    409,  -14.7655153,  -11.8928709,  -5.19785547
    410,  -14.4112778,  -12.0121813,  -5.09986353
    411,  -14.4231796,  -12.1808748,  -5.39956808
    412,  -14.5007248,  -12.2961931,  -5.66377163
    413,   -15.200985,  -11.5235767,  -4.93622923
    414,  -15.4122753,  -11.7595968,  -5.52191257
    415,  -15.3802156,  -11.9230061,  -5.77497292
    416,  -14.7856407,  -12.2125416,  -5.76371717
    417,   -14.804656,  -11.7348604,  -4.96011257
    418,  -15.1132174,  -12.0741415,  -5.80616236
    419,  -15.0700092,  -11.7708712,  -5.24872065
    420,  -15.0268326,  -11.6793518,  -5.05473804
    421,  -13.9701281,  -11.4450903,  -4.82570457
    422,     -14.3518,  -11.1499777,  -4.64539719
    423,  -14.8221292,  -10.9470215,  -4.69902992
    424,  -15.2550888,   -10.890604,  -4.97223186
    425,  -15.5346689,   -10.995842,   -5.3917985
    426,  -13.7793789,  -11.7532845,  -5.19163895
    427,  -15.5859556,  -11.2345381,  -5.84530783
    428,  -15.3952074,  -11.5427322,  -6.21124172
    429,  -15.0135345,  -11.8378448,  -6.39154911
    430,  -14.5432062,   -12.040801,  -6.33791637
    431,  -14.1102467,  -12.0972185,  -6.06471491
    432,  -13.8306665,  -11.9919796,   -5.6451478
    433,  -14.3039141,  -11.4170408,  -5.06281948
    434,  -14.5784054,  -11.6439819,  -5.68693733
    435,  -14.4536982,  -11.2369213,  -4.88169861
    436,  -14.7283087,  -11.1541662,  -4.97437668
    437,  -15.1699972,  -11.2109623,  -5.44937849
    438,  -14.8961763,  -11.5111637,  -5.73058128
    439,  -14.5688295,  -11.4978809,  -5.42799425
    440,   -14.214591,  -11.6171932,  -5.33000135
    441,  -14.2264919,  -11.7858858,  -5.62970638
    442,  -14.3040371,  -11.9012041,  -5.89390993
    443,  -15.0042973,  -11.1285868,  -5.16636801
    444,  -15.2155876,  -11.3646069,  -5.75205135
    445,   -15.183527,  -11.5280151,  -6.00511169
    446,   -14.588953,  -11.8175526,  -5.99385548
    447,  -14.6079693,  -11.3398705,  -5.19025135
    448,  -14.9165287,  -11.6791515,  -6.03630114
    449,  -14.8733215,  -11.3758812,  -5.47885942
    450,  -14.8301458,  -11.2843618,  -5.28487682
    451,  -13.7734385,  -11.0501013,  -5.05584288
    452,  -14.1551113,  -10.7549887,  -4.87553549
    453,  -14.6254406,  -10.5520325,  -4.92916775
    454,  -15.0584002,   -10.495615,  -5.20236969
    455,  -15.3379803,   -10.600853,  -5.62193632
    456,  -13.5826902,  -11.3582954,  -5.42177677
    457,   -15.389267,  -10.8395491,  -6.07544565
    458,  -15.1985188,  -11.1477432,  -6.44137955
    459,  -14.8168459,  -11.4428558,  -6.62168694
    460,  -14.3465176,   -11.645812,  -6.56805468
    461,   -13.913558,  -11.7022295,  -6.29485273
    462,  -13.6339779,  -11.5969906,   -5.8752861
    463,  -14.1072264,  -11.0220528,  -5.29295826
    464,  -14.3817196,   -11.248992,  -5.91707611
    465,  -14.2570114,  -10.8419323,  -5.11183691
    466,   -14.531621,  -10.7591772,  -5.20451546
    467,  -14.9733095,  -10.8159714,  -5.67951775
    468,  -14.6994886,  -11.1161728,  -5.96072054
    469,  -14.3721428,   -11.102891,  -5.65813351
    470,  -14.0179033,  -11.2222033,  -5.56014013
    471,  -14.0298042,  -11.3908968,  -5.85984468
    472,  -14.1073494,  -11.5062151,  -6.12404776
    473,  -14.8076096,  -10.7335968,  -5.39650631
    474,   -15.018899,  -10.9696169,  -5.98218966
    475,  -14.9868383,  -11.1330252,     -6.23525
    476,  -14.3922663,  -11.4225616,  -6.22399426
    477,  -14.4112816,  -10.9448814,  -5.42038965
    478,   -14.719841,  -11.2841616,  -6.26643944
    479,  -14.6766348,  -10.9808912,   -5.7089982
    480,  -14.6334581,  -10.8893719,  -5.51501513
    481,  -13.5767498,  -10.6551123,   -5.2859807
    482,  -13.9584227,  -10.3599997,  -5.10567331
    483,   -14.428751,  -10.1570435,  -5.15930605
    484,  -14.8617115,   -10.100626,  -5.43250751
    485,  -15.1412916,   -10.205864,  -5.85207462
    486,  -13.3860016,  -10.9633064,   -5.6519146
    487,  -15.1925783,  -10.4445601,  -6.30558348
    488,  -15.0018301,  -10.7527542,  -6.67151785
    489,  -14.6201572,  -11.0478668,  -6.85182524
    490,  -14.1498289,   -11.250823,   -6.7981925
    491,  -13.7168694,  -11.3072405,  -6.52499056
    492,  -13.4372892,  -11.2020016,  -6.10542393
    493,  -13.9105396,  -10.6270638,  -5.52309608
    494,  -14.1850328,   -10.854002,  -6.14721489
    495,  -14.0603237,  -10.4469433,  -5.34197521
    496,  -14.3349333,  -10.3641882,  -5.43465376
    497,  -14.7766218,  -10.4209814,  -5.90965652
    498,  -14.5028009,  -10.7211828,  -6.19085932
    499,   -14.175457,   -10.707902,  -5.88827181
    500,  -13.8212166,  -10.8272152,  -5.79027796
    501,  -13.8331175,  -10.9959078,  -6.08998251
    502,  -13.9106627,  -11.1112261,  -6.35418558
    503,  -14.6109219,  -10.3386078,  -5.62664557
    504,  -14.8222103,  -10.5746269,  -6.21232843
    505,  -14.7901497,  -10.7380352,  -6.46538877
    506,  -14.1955786,  -11.0275726,  -6.45413303
    507,  -14.2145948,  -10.5498924,  -5.65052843
    508,  -14.5231524,  -10.8891716,  -6.49657869
    509,   -14.479948,  -10.5859003,  -5.93913746
    510,  -14.4367714,  -10.4943829,  -5.74515438
    511,  -13.3800611,  -10.2601233,  -5.51611853
    512,   -13.761734,  -9.96501064,  -5.33581114
    513,  -14.2320623,  -9.76205444,  -5.38944387
    514,  -14.6650229,  -9.70563698,  -5.66264582
    515,   -14.944603,  -9.81087494,  -6.08221245
    516,  -13.1893129,  -10.5683174,   -5.8820529
    517,  -14.9958897,   -10.049571,   -6.5357213
    518,  -14.8051414,  -10.3577652,  -6.90165567
    519,  -14.4234686,  -10.6528778,  -7.08196306
    520,  -13.9531403,   -10.855834,  -7.02833033
    521,  -13.5201807,  -10.9122515,  -6.75512838
    522,  -13.2406006,  -10.8070126,  -6.33556175
    523,  -13.7138519,  -10.2320738,  -5.75323486
    524,  -13.9883461,   -10.459012,  -6.37735319
    525,   -13.863636,  -10.0519543,  -5.57211351
    526,  -14.1382456,  -9.96919823,  -5.66479254
    527,  -14.5799332,  -10.0259914,   -6.1397953
    528,  -14.3061142,  -10.3261938,  -6.42099762
    529,  -13.9787703,   -10.312912,  -6.11841059
    530,  -13.6245289,  -10.4322262,  -6.02041626
    531,  -13.6364298,  -10.6009188,  -6.32012033
    532,   -13.713975,  -10.7162371,  -6.58432341
    533,  -14.4142342,  -9.94361782,  -5.85678434
    534,  -14.6255217,   -10.179636,  -6.44246769
    535,   -14.593461,  -10.3430443,  -6.69552755
    536,  -13.9988909,  -10.6325827,  -6.68427086
    537,  -14.0179081,  -10.1549034,  -5.88066673
    538,  -14.3264647,  -10.4941816,  -6.72671747
    539,  -14.2832603,  -10.1909113,  -6.16927576
    540,  -14.2400837,  -10.0993929,  -5.97529268
    541,  -13.1833725,  -9.86513424,  -5.74625635
    542,  -13.5650454,  -9.57002163,  -5.56594896
    543,  -14.0353737,  -9.36706543,   -5.6195817
    544,  -14.4683342,  -9.31064796,  -5.89278364
    545,  -14.7479143,  -9.41588593,  -6.31235027
    546,  -12.9926243,  -10.1733284,  -6.11219072
    547,   -14.799201,  -9.65458202,   -6.7658596
    548,  -14.6084528,  -9.96277618,   -7.1317935
    549,  -14.2267799,  -10.2578888,  -7.31210089
    550,  -13.7564516,   -10.460845,  -7.25846815
    551,  -13.3234921,  -10.5172625,  -6.98526669
    552,  -13.0439119,  -10.4120235,  -6.56569958
    553,  -13.5171652,  -9.83708572,  -5.98337269
    554,  -13.7916594,  -10.0640221,  -6.60749245
    555,  -13.6669493,  -9.65696526,  -5.80225182
    556,  -13.9415579,  -9.57420826,  -5.89493132
    557,  -14.3832455,  -9.63100052,  -6.36993408
    558,  -14.1094265,  -9.93120289,  -6.65113592
    559,  -13.7820845,  -9.91792202,  -6.34854984
    560,  -13.4278421,  -10.0372372,  -6.25055456
    561,  -13.4397421,  -10.2059307,  -6.55025864
    562,  -13.5172873,  -10.3212471,  -6.81446218
    563,  -14.2175465,   -9.5486269,  -6.08692312
    564,   -14.428834,  -9.78464603,  -6.67260647
    565,  -14.3967724,  -9.94805431,  -6.92566633
    566,  -13.8022032,  -10.2375937,  -6.91440964
    567,  -13.8212214,  -9.75991344,  -6.11080551
    568,   -14.129776,  -10.0991917,   -6.9568553
    569,  -14.0865736,  -9.79592133,  -6.39941454
    570,  -14.0433969,  -9.70440292,  -6.20543146
    571,  -12.9866838,  -9.47014523,  -5.97639465
    572,  -13.3683567,  -9.17503262,  -5.79608727
    573,   -13.838685,  -8.97207642,  -5.84971952
    574,  -14.2716455,  -8.91565895,  -6.12292147
    575,  -14.5512257,  -9.02089691,   -6.5424881
    576,  -12.7959356,  -9.77833939,  -6.34232855
    577,  -14.6025124,  -9.25959301,  -6.99599743
    578,  -14.4117641,  -9.56778717,  -7.36193132
    579,  -14.0300913,  -9.86289978,  -7.54223871
    580,   -13.559763,   -10.065856,  -7.48860645
    581,  -13.1268034,  -10.1222734,  -7.21540451
    582,  -12.8472233,  -10.0170345,  -6.79583788
    583,  -13.3204784,  -9.44209671,  -6.21351099
    584,  -13.5949726,   -9.6690321,  -6.83763075
    585,  -13.4702616,  -9.26197624,  -6.03239012
    586,  -13.7448711,  -9.17921925,  -6.12506962
    587,  -14.1865568,  -9.23601055,  -6.60007286
    588,  -13.9127388,  -9.53621292,   -6.8812747
    589,  -13.5853977,  -9.52293205,  -6.57868862
    590,  -13.2311554,  -9.64224815,  -6.48069239
    591,  -13.2430544,  -9.81094074,  -6.78039646
    592,  -13.3205996,  -9.92625809,  -7.04460001
    593,  -14.0208578,  -9.15363693,   -6.3170619
    594,  -14.2321453,  -9.38965511,  -6.90274525
    595,  -14.2000837,  -9.55306339,  -7.15580511
    596,  -13.6055155,  -9.84260368,  -7.14454794
    597,  -13.6245346,  -9.36492348,  -6.34094477
    598,  -13.9330883,   -9.7042017,   -7.1869936
    599,  -13.8898859,  -9.40093136,  -6.62955332
    600,  -13.8467093,  -9.30941296,  -6.43557024
    601,  -12.7899952,  -9.07515621,  -6.20653248
    602,  -13.1716681,   -8.7800436,  -6.02622509
    603,  -13.6419964,   -8.5770874,  -6.07985783
    604,  -14.0749569,  -8.52066994,  -6.35305929
    605,   -14.354537,   -8.6259079,   -6.7726264
    606,   -12.599247,  -9.38335037,  -6.57246637
    607,  -14.4058237,    -8.864604,  -7.22613525
    608,  -14.2150755,  -9.17279816,  -7.59206963
    609,  -13.8334026,  -9.46791077,  -7.77237701
    610,  -13.3630743,  -9.67086697,  -7.71874428
    611,  -12.9301147,  -9.72728443,  -7.44554234
    612,  -12.6505346,  -9.62204552,   -7.0259757
    613,  -13.1237907,   -9.0471077,  -6.44364929
    614,  -13.3982859,  -9.27404213,  -7.06776953
    615,  -13.2735739,  -8.86698723,  -6.26252842
    616,  -13.5481834,  -8.78422928,  -6.35520887
    617,  -13.9898682,  -8.84101963,  -6.83021212
    618,  -13.7160511,  -9.14122295,  -7.11141348
    619,   -13.388711,  -9.12794304,   -6.8088274
    620,  -13.0344677,  -9.24726009,  -6.71083069
    621,  -13.0463667,  -9.41595268,  -7.01053429
    622,  -13.1239119,  -9.53127003,  -7.27473783
    623,  -13.8241701,  -8.75864792,   -6.5472002
    624,  -14.0354567,  -8.99466515,  -7.13288403
    625,  -14.0033951,  -9.15807343,  -7.38594341
    626,  -13.4088278,  -9.44761372,  -7.37468624
    627,  -13.4278469,  -8.96993446,  -6.57108259
    628,  -13.7363997,  -9.30921173,  -7.41713238
    629,  -13.6931982,  -9.00594139,   -6.8596921
    630,  -13.6500216,  -8.91442299,  -6.66570902
    631,  -12.5933065,   -8.6801672,   -6.4366703
    632,  -12.9749794,  -8.38505459,  -6.25636292
    633,  -13.4453077,  -8.18209839,  -6.30999565
    634,  -13.8782682,  -8.12568092,  -6.58319759
    635,  -14.1578484,  -8.23091888,  -7.00276423
    636,  -12.4025583,  -8.98836136,  -6.80260468
    637,  -14.2091351,  -8.46961498,  -7.45627308
    638,  -14.0183868,  -8.77780914,  -7.82220745
    639,   -13.636714,  -9.07292175,  -8.00251484
    640,  -13.1663857,  -9.27587795,   -7.9488821
    641,  -12.7334261,  -9.33229542,  -7.67568016
    642,   -12.453846,   -9.2270565,  -7.25611353
    643,   -12.927104,  -8.65211868,  -6.67378759
    644,  -13.2016001,  -8.87905216,  -7.29790783
    645,  -13.0768862,  -8.47199821,  -6.49266672
    646,  -13.3514957,  -8.38924026,   -6.5853467
    647,  -13.7931805,  -8.44602966,  -7.06035089
    648,  -13.5193634,  -8.74623203,  -7.34155226
    649,  -13.1920252,  -8.73295307,   -7.0389657
    650,   -12.837781,  -8.85227013,  -6.94096851
    651,  -12.8496799,  -9.02096367,  -7.24067211
    652,  -12.9272242,  -9.13628006,  -7.50487566
    653,  -13.6274824,  -8.36365795,  -6.77733898
    654,   -13.838768,  -8.59967422,   -7.3630228
    655,  -13.8067064,  -8.76308346,  -7.61608171
    656,   -13.212141,   -9.0526247,  -7.60482454
    657,  -13.2311602,   -8.5749445,  -6.80122137
    658,   -13.539711,  -8.91422176,  -7.64727116
    659,  -13.4965115,  -8.61095142,  -7.08983088
    660,  -13.4533339,  -8.51943302,   -6.8958478
    661,  -12.3966179,  -8.28517818,  -6.66680813
    662,  -12.7782907,   -7.9900651,  -6.48650074
    663,  -13.2486191,  -7.78710938,  -6.54013348
    664,  -13.6815796,  -7.73069191,  -6.81333542
    665,  -13.9611597,  -7.83593035,  -7.23290205
    666,  -12.2058697,  -8.59337234,   -7.0327425
    667,  -14.0124464,  -8.07462597,  -7.68641138
    668,  -13.8216982,  -8.38282013,  -8.05234528
    669,  -13.4400253,  -8.67793274,  -8.23265266
    670,   -12.969697,  -8.88088894,  -8.17901993
    671,  -12.5367374,   -8.9373064,  -7.90581846
    672,  -12.2571573,  -8.83206749,  -7.48625135
    673,  -12.7304173,  -8.25712967,  -6.90392542
    674,  -13.0049133,  -8.48406219,  -7.52804613
    675,  -12.8801994,   -8.0770092,  -6.72280455
    676,   -13.154809,  -7.99425077,  -6.81548548
    677,  -13.5964928,   -8.0510397,  -7.29048967
    678,  -13.3226767,  -8.35124302,  -7.57169056
    679,  -12.9953394,   -8.3379631,  -7.26910448
    680,  -12.6410942,  -8.45728111,  -7.17110682
    681,  -12.6529932,   -8.6259737,  -7.47081041
    682,  -12.7305374,  -8.74129105,  -7.73501396
    683,  -13.4307947,  -7.96866798,  -7.00747824
    684,  -13.6420803,  -8.20468426,  -7.59316158
    685,  -13.6100178,  -8.36809254,  -7.84622097
    686,  -13.0154533,  -8.65763474,  -7.83496237
    687,  -13.0344734,  -8.17995548,  -7.03136015
    688,  -13.3430233,   -8.5192318,  -7.87740946
    689,  -13.2998247,  -8.21596146,  -7.31996965
    690,  -13.2566471,  -8.12444401,   -7.1259861
    691,  -12.1999292,  -7.89018917,  -6.89694643
    692,  -12.5816021,  -7.59507608,  -6.71663904
    693,  -13.0519304,  -7.39212036,   -6.7702713
    694,    -13.48489,   -7.3357029,  -7.04347324
    695,  -13.7644701,  -7.44094133,  -7.46303988
    696,   -12.009181,  -8.19838333,  -7.26288033
    697,  -13.8157578,  -7.67963648,  -7.91654921
    698,  -13.6250095,  -7.98783112,   -8.2824831
    699,  -13.2433367,  -8.28294373,  -8.46279049
    700,  -12.7730083,  -8.48589993,  -8.40915775
    701,  -12.3400478,  -8.54231739,  -8.13595581
    702,  -12.0604677,  -8.43707848,  -7.71638966
    703,  -12.5337305,  -7.86214113,  -7.13406372
    704,  -12.8082266,  -8.08907318,  -7.75818491
    705,  -12.6835117,  -7.68202066,  -6.95294333
    706,  -12.9581213,  -7.59926176,  -7.04562426
    707,  -13.3998041,  -7.65604973,  -7.52062798
    708,   -13.125989,  -7.95625257,  -7.80182886
    709,  -12.7986526,  -7.94297361,  -7.49924374
    710,  -12.4444065,  -8.06229305,  -7.40124464
    711,  -12.4563046,  -8.23098564,  -7.70094824
    712,  -12.5338488,  -8.34630203,  -7.96515179
    713,   -13.234107,  -7.57367802,  -7.23761702
    714,  -13.4453917,  -7.80969334,  -7.82330036
    715,  -13.4133291,  -7.97310257,  -8.07635975
    716,  -12.8187647,  -8.26264477,  -8.06510067
    717,  -12.8377867,  -7.78496552,  -7.26149893
    718,  -13.1463356,  -8.12424183,  -8.10754776
    719,   -13.103137,  -7.82097149,  -7.55010843
    720,  -13.0599594,  -7.72945404,  -7.35612535
    721,  -12.0032406,  -7.49520016,  -7.12708426
    722,  -12.3849134,  -7.20008707,  -6.94677687
    723,  -12.8552418,  -6.99713135,   -7.0004096
    724,  -13.2882013,  -6.94071388,  -7.27361107
    725,  -13.5677814,  -7.04595232,  -7.69317818
    726,  -11.8124924,  -7.80339432,  -7.49301815
    727,  -13.6190691,  -7.28464746,  -8.14668751
    728,  -13.4283209,   -7.5928421,  -8.51262093
    729,   -13.046648,  -7.88795471,  -8.69292831
    730,  -12.5763197,  -8.09091091,  -8.63929558
    731,  -12.1433592,  -8.14732838,  -8.36609459
    732,  -11.8637791,  -8.04208946,  -7.94652748
    733,  -12.3370428,  -7.46715164,  -7.36420202
    734,  -12.6115398,  -7.69408274,  -7.98832321
    735,   -12.486825,  -7.28703117,  -7.18308163
    736,  -12.7614336,  -7.20427179,  -7.27576303
    737,  -13.2031164,  -7.26105928,  -7.75076675
    738,  -12.9293013,  -7.56126213,  -8.03196812
    739,  -12.6019669,  -7.54798365,  -7.72938204
    740,  -12.2477198,  -7.66730356,  -7.63138294
    741,  -12.2596169,  -7.83599663,  -7.93108606
    742,  -12.3371611,  -7.95131254,  -8.19528961
    743,  -13.0374184,  -7.17868805,  -7.46775532
    744,   -13.248704,  -7.41470337,  -8.05343914
    745,  -13.2166414,   -7.5781126,  -8.30649757
    746,  -12.6220779,  -7.86765528,  -8.29523945
    747,   -12.641099,   -7.3899765,  -7.49163723
    748,  -12.9496469,  -7.72925186,  -8.33768654
    749,  -12.9064503,  -7.42598104,  -7.78024673
    750,  -12.8632717,  -7.33446407,  -7.58626366
    751,  -11.8065519,  -7.10021114,  -7.35722208
    752,  -12.1882248,  -6.80509806,  -7.17691469
    753,  -12.6585531,  -6.60214233,  -7.23054743
    754,  -13.0915127,  -6.54572487,  -7.50374937
    755,  -13.3710928,  -6.65096331,    -7.923316
    756,  -11.6158037,   -7.4084053,  -7.72315645
    757,  -13.4223804,  -6.88965845,  -8.37682533
    758,  -13.2316322,  -7.19785309,  -8.74275875
    759,  -12.8499594,   -7.4929657,  -8.92306614
    760,   -12.379631,  -7.69592142,  -8.86943436
    761,  -11.9466705,  -7.75233889,  -8.59623241
    762,  -11.6670904,  -7.64710045,  -8.17666531
    763,  -12.1403551,  -7.07216311,  -7.59434032
    764,  -12.4148531,  -7.29909277,  -8.21846199
    765,  -12.2901373,  -6.89204264,  -7.41321945
    766,  -12.5647459,   -6.8092823,  -7.50590134
    767,  -13.0064278,  -6.86606932,  -7.98090601
    768,  -12.7326145,  -7.16627169,   -8.2621069
    769,  -12.4052801,  -7.15299416,  -7.95952082
    770,  -12.0510321,  -7.27231503,  -7.86152124
    771,  -12.0629301,  -7.44100809,  -8.16122437
    772,  -12.1404743,  -7.55632353,  -8.42542839
    773,  -12.8407307,  -6.78369856,  -7.69789457
    774,  -13.0520153,  -7.01971292,  -8.28357792
    775,  -13.0199528,  -7.18312216,  -8.53663635
    776,  -12.4253902,  -7.47266579,  -8.52537823
    777,  -12.4444122,  -6.99498749,  -7.72177601
    778,  -12.7529593,  -7.33426142,  -8.56782532
    779,  -12.7097626,  -7.03099155,  -8.01038551
    780,   -12.666585,  -6.93947458,  -7.81640244
    781,  -11.6098633,  -6.70522213,  -7.58735991
    782,  -11.9915361,  -6.41010904,  -7.40705252
    783,  -12.4618645,  -6.20715332,  -7.46068525
    784,   -12.894824,  -6.15073586,   -7.7338872
    785,  -13.1744041,  -6.25597429,  -8.15345383
    786,  -11.4191151,  -7.01341629,  -7.95329428
    787,  -13.2256918,  -6.49466944,  -8.60696316
    788,  -13.0349436,  -6.80286407,  -8.97289753
    789,  -12.6532707,  -7.09797668,  -9.15320492
    790,  -12.1829424,  -7.30093241,  -9.09957218
    791,  -11.7499819,  -7.35734987,  -8.82637024
    792,  -11.4704018,  -7.25211143,  -8.40680313
    793,  -11.9436684,  -6.67717409,  -7.82447863
    794,  -12.2181673,   -6.9041028,  -8.44860077
    795,  -12.0934496,  -6.49705362,  -7.64335775
    796,  -12.3680592,  -6.41429281,  -7.73604012
    797,  -12.8097401,  -6.47107887,  -8.21104527
    798,  -12.5359259,  -6.77128172,  -8.49224567
    799,  -12.2085943,  -6.75800467,  -8.18966007
    800,  -11.8543453,  -6.87732601,  -8.09165955
    801,  -11.8662424,  -7.04601908,  -8.39136219
    802,  -11.9437866,  -7.16133451,  -8.65556526
    803,   -12.644043,  -6.38870859,  -7.92803335
    804,  -12.8553267,  -6.62472296,   -8.5137167
    805,  -12.8232641,  -6.78813219,  -8.76677513
    806,  -12.2287035,   -7.0776763,  -8.75551605
    807,  -12.2477255,    -6.599998,  -7.95191479
    808,  -12.5562706,  -6.93927193,   -8.7979641
    809,  -12.5130758,  -6.63600159,  -8.24052525
    810,  -12.4698973,  -6.54448462,  -8.04654217
    811,  -11.4131746,  -6.31023312,  -7.81749821
    812,  -11.7948475,  -6.01512003,  -7.63719082
    813,  -12.2651758,  -5.81216431,  -7.69082308
    814,  -12.6981354,  -5.75574684,  -7.96402502
    815,  -12.9777155,  -5.86098528,  -8.38359165
    816,  -11.2224264,  -6.61842728,  -8.18343258
    817,  -13.0290031,  -6.09968042,  -8.83710098
    818,  -12.8382549,  -6.40787506,  -9.20303535
    819,  -12.4565821,  -6.70298767,  -9.38334274
    820,  -11.9862537,  -6.90594339,  -9.32971001
    821,  -11.5532932,  -6.96236086,  -9.05650806
    822,  -11.2737131,  -6.85712242,  -8.63694096
    823,  -11.7469816,  -6.28218508,  -8.05461693
    824,  -12.0214806,  -6.50911283,  -8.67873955
    825,  -11.8967619,  -6.10206461,  -7.87349653
    826,  -12.1713715,  -6.01930332,  -7.96617889
    827,  -12.6130514,  -6.07608843,  -8.44118404
    828,  -12.3392391,  -6.37629223,   -8.7223835
    829,  -12.0119076,  -6.36301422,  -8.41979885
    830,  -11.6576586,    -6.482337,  -8.32179737
    831,  -11.6695557,  -6.65103006,  -8.62150002
    832,  -11.7470989,  -6.76634502,  -8.88570404
    833,  -12.4473553,  -5.99371862,  -8.15817165
    834,   -12.658639,  -6.22973251,  -8.74385548
    835,  -12.6265755,  -6.39314127,  -8.99691391
    836,  -12.0320148,  -6.68268633,  -8.98565483
    837,  -12.0510387,  -6.20500803,  -8.18205357
    838,  -12.3595829,  -6.54428196,  -9.02810192
    839,  -12.3163881,  -6.24101162,  -8.47066307
    840,  -12.2732105,  -6.14949465,  -8.27667999
    841,  -11.2325392,   -5.9813118,   -8.0003109
    842,  -11.6021595,   -5.6575017,   -7.8381362
    843,  -12.0458603,  -5.42351055,  -7.91288233
    844,  -12.4533329,  -5.33159637,  -8.20050621
    845,  -12.7211018,  -5.40721416,  -8.63680077
    846,  -11.0467548,  -6.30711555,  -8.36130142
    847,  -12.7660437,  -5.63368464,  -9.10334969
    848,   -12.580265,  -5.95950079,  -9.46432972
    849,  -12.2106409,  -6.28330088,  -9.62651157
    850,  -11.7669382,  -6.51728964,  -9.55176926
    851,  -11.3594666,  -6.60920763,  -9.26414394
    852,  -11.0917015,  -6.53360033,  -8.82784367
    853,  -11.5485411,  -5.92669106,  -8.25373077
    854,  -11.8043213,  -6.12746811,  -8.89823723
    855,  -11.6949091,  -5.73696756,  -8.07914829
    856,   -11.953764,  -5.63367844,  -8.18468761
    857,   -12.371932,  -5.64959621,  -8.68122768
    858,  -12.1066866,  -5.96922398,  -8.95445347
    859,   -11.797575,  -5.98428345,  -8.63526058
    860,   -11.459733,  -6.13243246,  -8.52129078
    861,  -11.4693079,  -6.29765224,  -8.82677078
    862,  -11.5431862,  -6.40270948,  -9.09688187
    863,  -12.2137461,  -5.58443356,  -8.38790131
    864,  -12.4133339,  -5.79701376,  -8.99057007
    865,  -12.3791599,  -5.96148014,  -9.24567699
    866,  -11.8123903,  -6.29572201,  -9.20740891
    867,   -11.837081,  -5.82514477,  -8.39560795
    868,  -12.1220236,  -6.13324833,  -9.26421642
    869,    -12.08815,  -5.83769131,  -8.69906425
    870,  -12.0478382,  -5.75180626,  -8.50072575
    871,   -11.016242,   -5.6680851,  -8.16709995
    872,  -11.3698263,  -5.31603098,  -8.02207851
    873,  -11.7836132,  -5.05167294,  -8.11641216
    874,  -12.1621914,  -4.92540312,  -8.41763687
    875,  -12.4141769,  -4.97186279,  -8.86967468
    876,  -10.8366947,  -6.00927353,  -8.52432823
    877,  -12.4516087,  -5.18785143,  -9.34738159
    878,  -12.2720833,  -5.52907467,  -9.70458412
    879,  -11.9184818,  -5.88110018,  -9.84962463
    880,  -11.5046902,  -6.14545202,  -9.75529861
    881,  -11.1261158,  -6.27173185,    -9.454072
    882,  -10.8741465,   -6.2253027,  -9.00201893
    883,  -11.3110399,  -5.58729029,  -8.43559361
    884,  -11.5448103,  -5.76259375,  -9.09888458
    885,   -11.452528,  -5.38791609,  -8.26725769
    886,  -11.6935415,  -5.26493549,  -8.38460159
    887,  -12.0834312,  -5.24118328,  -8.90119648
    888,  -11.8290501,  -5.57976675,  -9.16678143
    889,  -11.5412989,  -5.62228727,   -8.8321228
    890,  -11.2234011,  -5.79851913,  -8.70340443
    891,   -11.229949,  -5.96011543,   -9.0143404
    892,  -11.2987652,   -6.0549407,  -9.29020119
    893,  -11.9351168,  -5.19304991,  -8.59807873
    894,  -12.1196814,  -5.38236475,  -9.21673584
    895,  -12.0837946,  -5.54790926,  -9.47384357
    896,  -11.5499344,  -5.92563677,   -9.4103651
    897,  -11.5812216,  -5.46211576,  -8.59080124
    898,  -11.8390484,  -5.74007511,  -9.48015881
    899,  -11.8151588,   -5.4517889,  -8.90808678
    900,  -11.7785463,  -5.37150383,  -8.70566463
    901,   -10.766696,  -5.37344313,  -8.31653214
    902,  -11.1002874,  -4.99410343,  -8.18728542
    903,   -11.481039,  -4.70034695,  -8.29938889
    904,  -11.8274584,  -4.54126883,  -8.61326599
    905,  -12.0596895,  -4.55958033,   -9.0797596
    906,  -10.5943327,   -5.7278614,  -8.67089272
    907,  -12.0888233,  -4.76661158,  -9.56677055
    908,   -11.916503,  -5.12108183,   -9.9210968
    909,  -11.5828781,  -5.50037909,  -10.0503683
    910,   -11.202117,  -5.79412603,  -9.93827534
    911,  -10.8557062,  -5.95321846,  -9.62439442
    912,  -10.6235065,  -5.93495131,  -9.15787888
    913,    -11.03724,  -5.26729059,  -8.59888649
    914,  -11.2460146,  -5.41801977,  -9.27910137
    915,  -11.1723242,  -5.05845785,  -8.43637085
    916,    -11.39359,  -4.91674423,  -8.56429386
    917,  -11.7506046,  -4.85504818,  -9.09910488
    918,  -11.5095015,  -5.21177053,  -9.35767174
    919,  -11.2461443,  -5.28057575,  -9.00897217
    920,  -10.9514351,  -5.48372889,  -8.86675549
    921,  -10.9542418,  -5.64159679,  -9.18262863
    922,  -11.0163975,  -5.72644329,  -9.46374512
    923,  -11.6146183,  -4.82346487,  -8.78709221
    924,  -11.7809486,  -4.99002266,  -9.42046452
    925,  -11.7432556,  -5.15667439,  -9.67892838
    926,    -11.24753,   -5.5760541,  -9.59274483
    927,   -11.286438,  -5.11951208,   -8.7662096
    928,  -11.5140009,  -5.36854601,  -9.67428875
    929,  -11.5004721,  -5.08718443,  -9.09600735
    930,  -11.4683962,  -5.01238012,  -8.88990688
    931,  -10.4865236,  -5.10006762,   -8.4474268
    932,  -10.7963181,   -4.6949172,  -8.33219528
    933,  -11.1411467,  -4.37302399,  -8.45999527
    934,  -11.4523468,  -4.18306494,  -8.78545475
    935,   -11.660985,  -4.17480707,  -9.26482677
    936,  -10.3220797,  -5.46567631,  -8.79953861
    937,  -11.6812925,  -4.37415171,  -9.75933743
    938,  -11.5169039,  -4.73981428,  -10.1114159
    939,  -11.2070646,   -5.1449213,  -10.2266712
    940,  -10.8622246,  -5.46680355,  -10.0988817
    941,  -10.5510368,  -5.65677738,  -9.77341747
    942,  -10.3424406,  -5.66508055,  -9.29402542
    943,  -10.7298918,  -4.96976233,  -8.74211121
    944,  -10.9108744,  -5.09708881,  -9.43708801
    945,  -10.8570766,  -4.75187302,  -8.58480549
    946,  -11.0568686,  -4.59253025,  -8.72199631
    947,  -11.3769264,  -4.49509192,    -9.273283
    948,  -11.1511421,  -4.86887598,  -9.52519608
    949,   -10.915019,  -4.96246672,  -9.16406727
    950,   -10.646595,  -5.19097853,  -9.00985241
    951,  -10.6449642,  -5.34509802,   -9.3299942
    952,  -10.6989689,  -5.42044544,  -9.61581326
    953,  -11.2553864,  -4.47929907,   -8.9530983
    954,  -11.4002876,  -4.62406731,  -9.59950638
    955,  -11.3611679,  -4.79166412,  -9.85909939
    956,  -10.9081554,  -5.25040054,  -9.75273037
    957,  -10.9556389,  -4.80067778,  -8.92014694
    958,  -11.1499624,  -5.02227497,  -9.84458828
    959,   -11.147294,   -4.7474947,   -9.2611208
    960,  -11.1204739,  -4.67796421,  -9.05170727
    961,  -10.1785393,  -4.85043097,   -8.5587492
    962,  -10.4610176,  -4.42144489,  -8.45542526
    963,   -10.767314,  -4.07295799,  -8.59663391
    964,   -11.040493,  -3.85439324,  -8.93249416
    965,  -11.2219629,  -3.82170129,  -9.42289925
    966,  -10.0226383,   -5.2253232,  -8.90898609
    967,  -11.2330666,  -4.01437235,  -9.92316723
    968,    -11.07722,  -4.38930655,  -10.2733822
    969,  -10.7946987,  -4.81825924,  -10.3767223
    970,  -10.4883909,  -5.16673756,  -10.2355204
    971,  -10.2152233,  -5.38531303,   -9.8996563
    972,  -10.0337944,   -5.4180398,  -9.40923691
    973,  -10.3921328,  -4.69750023,  -8.86414242
    974,  -10.5427475,  -4.80288553,  -9.57135677
    975,  -10.5100164,  -4.47118616,  -8.71126938
    976,     -10.6868,  -4.29543447,  -8.85633564
    977,  -10.9658289,   -4.1650691,  -9.42165375
    978,  -10.7576275,  -4.55439091,  -9.66792393
    979,  -10.5513468,  -4.67096233,  -9.29617405
    980,  -10.3119898,   -4.9229188,  -9.13155365
    981,  -10.3052711,  -5.07336235,  -9.45514393
    982,  -10.3497534,  -5.13991308,  -9.74502945
    983,  -10.8609896,  -4.16389084,  -9.09457302
    984,  -10.9815044,  -4.28825855,   -9.7520752
    985,  -10.9412842,  -4.45655537,  -10.0125141
    986,  -10.5352497,  -4.95182705,  -9.88886738
    987,  -10.5921593,  -4.50868416,  -9.05127525
    988,   -10.750576,  -4.70455122,  -9.98953724
    989,  -10.7590609,  -4.43610191,  -9.40176964
    990,  -10.7382402,  -4.37151718,  -9.18957996
    991,  -9.84573555,  -4.62678814,  -8.64960575
    992,  -10.0977783,  -4.17640972,  -8.55578804
    993,  -10.3632545,  -3.80313063,  -8.70794773
    994,  -10.5959215,  -3.55854392,  -9.05292606
    995,  -10.7470369,  -3.50407147,  -9.55229092
    996,  -9.69898796,  -5.00919151,  -8.99814892
    997,     -10.7486,   -3.6908493,   -10.056633
    998,  -10.6018858,  -4.07327366,  -10.4051666
    999,  -10.3498163,  -4.52363539,   -10.498991
   1000,  -10.0843325,  -4.89691019,  -10.3468342
   1001,  -9.85167217,  -5.14150143,  -10.0018539
   1002,  -9.70058441,  -5.19599199,  -9.50248241
   1003,  -10.0271959,  -4.45311689,  -8.96378613
   1004,  -10.1453409,   -4.5381732,  -9.68080044
   1005,  -10.1345377,  -4.21922398,  -8.81442451
   1006,  -10.2869616,   -4.0283823,  -8.96592808
   1007,  -10.5215616,  -3.86827278,   -9.5429945
   1008,  -10.3327274,  -4.27141809,  -9.78434658
   1009,  -10.1585751,  -4.40889549,  -9.40389347
   1010,  -9.95081329,  -4.68202925,  -9.23069859
   1011,  -9.93843937,  -4.82895422,   -9.5568161
   1012,  -9.97215271,  -4.88764954,  -9.84999275
   1013,  -10.4353504,  -3.88023019,  -9.21033669
   1014,  -10.5287457,  -3.98607945,  -9.87652588
   1015,  -10.4876976,   -4.1547513,  -10.1374903
   1016,  -10.1324329,  -4.68325758,  -9.99975872
   1017,  -10.1995869,  -4.24632692,  -9.15843964
   1018,  -10.3196936,  -4.41843367,   -10.107687
   1019,  -10.3396177,  -4.15609264,  -9.51660347
   1020,   -10.325449,  -4.09601116,  -9.30224705
   1021,  -9.49127293,  -4.43116903,  -8.71923923
   1022,  -9.71026039,  -3.96225595,  -8.63230705
   1023,  -9.93298626,  -3.56622314,  -8.79283047
   1024,  -10.1230001,  -3.29846692,  -9.14555836
   1025,   -10.241065,  -3.22531581,  -9.65162373
   1026,  -9.35434246,  -4.81942844,  -9.06613922
   1027,   -10.232707,  -3.40679765,  -10.1584072
   1028,  -10.0957766,  -3.79505706,  -10.5053072
   1029,  -9.87678909,  -4.26397038,  -10.5922394
   1030,  -9.65406322,  -4.66000271,  -10.4317169
   1031,  -9.46404934,  -4.92775917,  -10.0789881
   1032,  -9.34598446,  -5.00091028,  -9.57292271
   1033,   -9.6386137,  -4.23893881,   -9.0401392
   1034,  -9.72243786,  -4.30553389,  -9.76423073
   1035,  -9.73438263,  -3.99850559,  -8.89325809
   1036,  -9.86128139,  -3.79398417,  -9.04971886
   1037,  -10.0484886,  -3.60775232,  -9.63597107
   1038,  -9.88053322,  -4.02279139,   -9.8731575
   1039,  -9.74045658,  -4.17887354,  -9.48599243
   1040,  -9.56647682,  -4.47057867,  -9.30627728
   1041,  -9.54800034,  -4.61422157,  -9.63394451
   1042,  -9.56988239,  -4.66622162,  -9.92951202
   1043,   -9.9825182,  -3.63107562,  -9.29918003
   1044,  -10.0465736,  -3.72064567,  -9.97155762
   1045,  -10.0049372,  -3.88929272,  -10.2327461
   1046,  -9.70362854,  -4.44735622,  -10.0842199
   1047,  -9.78168297,   -4.0161581,  -9.24055195
   1048,  -9.86148071,  -4.16665649,  -10.1979151
   1049,  -9.89303112,  -3.91030002,  -9.60433292
   1050,  -9.88609791,  -3.85414624,  -9.38857269
   1051,  -9.11846352,  -4.26537371,  -8.76703548
   1052,  -9.30235767,  -3.78112912,  -8.68422222
   1053,  -9.48078346,  -3.36459112,  -8.85043716
   1054,  -9.62638474,  -3.07673717,  -9.20947456
   1055,  -9.70929432,  -2.98837066,  -9.71985245
   1056,  -8.99212837,  -4.65792084,  -9.11228275
   1057,  -9.69051647,  -3.16504025,   -10.227478
   1058,  -9.56414318,  -3.55757284,  -10.5727282
   1059,  -9.38027954,  -4.04182911,  -10.6555395
   1060,  -9.20186138,  -4.45837021,  -10.4893236
   1061,  -9.05625153,  -4.74622154,  -10.1302881
   1062,  -8.97331142,  -4.83457708,   -9.6199131
   1063,   -9.2301302,  -4.05701828,  -9.09248638
   1064,  -9.27814293,  -4.10722399,  -9.82082367
   1065,  -9.31354904,  -3.81123781,   -8.9469862
   1066,  -9.41393757,  -3.59453654,  -9.10689259
   1067,  -9.55135155,  -3.38613224,  -9.69965172
   1068,  -9.40561867,  -3.81079888,  -9.93385696
   1069,  -9.30121994,  -3.98295689,  -9.54210663
   1070,  -9.16270447,  -4.29044867,  -9.35782909
   1071,  -9.13779068,  -4.43114185,  -9.68597603
   1072,  -9.14711475,  -4.47765112,  -9.98320961
   1073,  -9.50686455,    -3.418823,   -9.3602562
   1074,  -9.53988361,  -3.49466968,  -10.0361938
   1075,  -9.49783707,  -3.66284513,  -10.2973204
   1076,  -9.25312424,   -4.2463541,  -10.1416216
   1077,  -9.34251118,  -3.82040644,  -9.29682922
   1078,  -9.38035297,  -3.95163369,  -10.2593594
   1079,  -9.42381763,  -3.70106125,  -9.66434383
   1080,  -9.42447472,  -3.64827609,  -9.44772434
   1081,  -8.73075962,  -4.13096476,  -8.79251766
   1082,  -8.87815952,  -3.63485169,  -8.71100426
   1083,  -9.01114178,  -3.20023727,  -8.88019753
   1084,  -9.11098003,  -2.89553142,  -9.24404716
   1085,   -9.1572752,  -2.79566503,  -9.75627804
   1086,  -8.61594486,  -4.52627373,   -9.1361208
   1087,  -9.12741661,  -2.96798015,  -10.2631607
   1088,  -9.01253128,  -3.36327028,   -10.606761
   1089,  -8.86518669,  -3.85939765,  -10.6882753
   1090,   -8.7322197,  -4.29401684,   -10.519084
   1091,  -8.63236618,   -4.5987196,  -10.1552362
   1092,   -8.5860157,  -4.69857311,  -9.64300442
   1093,  -8.80565262,  -3.90910673,  -9.12030697
   1094,  -8.81676865,  -3.94516873,   -9.8500452
   1095,   -8.8762455,  -3.65929174,     -8.97507
   1096,   -8.9493084,  -3.43199658,  -9.13688374
   1097,  -9.03514957,  -3.20562744,  -9.73339462
   1098,  -8.91256237,   -3.6374948,  -9.96584129
   1099,  -8.84505081,  -3.82302618,  -9.57168484
   1100,  -8.74326134,  -4.14334774,  -9.38485146
   1101,  -8.71173191,  -4.28146076,  -9.71244717
   1102,  -8.70790672,   -4.3240056,  -10.0101328
   1103,  -9.01297092,  -3.24552608,  -9.39296722
   1104,  -9.01384068,  -3.31043744,  -10.0697889
   1105,  -8.97148037,  -3.47767162,  -10.3305721
   1106,  -8.78531265,  -4.08220387,  -10.1714239
   1107,  -8.88631153,  -3.66097093,  -9.32671356
   1108,  -8.88094139,  -3.77544475,  -10.2914219
   1109,   -8.9365797,  -3.53042912,  -9.69604015
   1110,  -8.94506741,  -3.48040843,  -9.47911835
   1111,  -8.33174419,  -4.02926111,  -8.79535198
   1112,  -8.44191456,  -3.52490783,  -8.71235371
   1113,  -8.52872849,  -3.07479548,    -8.881814
   1114,  -8.58188248,  -2.75660229,  -9.24893951
   1115,  -8.59078789,  -2.64908838,  -9.76056099
   1116,  -8.22953129,  -4.42579508,  -9.13741589
   1117,  -8.54900265,  -2.81757569,  -10.2650986
   1118,  -8.44670773,  -3.21409559,   -10.607151
   1119,  -8.33660126,  -3.71845841,  -10.6901569
   1120,  -8.24980545,  -4.16857481,  -10.5207005
   1121,  -8.19663239,  -4.48676777,  -10.1535759
   1122,  -8.18766212,  -4.59427404,  -9.64195061
   1123,   -8.3692522,   -3.7966547,  -9.12327576
   1124,   -8.3427906,  -3.82089233,  -9.85174751
   1125,  -8.42683506,  -3.54417562,  -8.97721004
   1126,  -8.47194576,  -3.30796528,  -9.13937569
   1127,  -8.50509262,  -3.06794834,  -9.73698902
   1128,  -8.40610886,  -3.50474501,  -9.96842861
   1129,  -8.37627316,  -3.70084858,  -9.57398987
   1130,  -8.31202793,  -4.03082752,  -9.38680649
   1131,  -8.27384663,  -4.16678286,  -9.71285152
   1132,  -8.25668526,   -4.2067647,  -10.0101614
   1133,  -8.50560856,  -3.11280966,  -9.39709663
   1134,   -8.4738121,  -3.16976929,  -10.0720358
   1135,  -8.43115425,  -3.33560848,  -10.3322001
   1136,  -8.30472088,  -3.95663571,  -10.1730986
   1137,  -8.41751385,  -3.53936791,  -9.32997036
   1138,  -8.36804199,  -3.63981295,  -10.2937775
   1139,  -8.43608379,    -3.400172,  -9.69889069
   1140,  -8.45256138,  -3.35215783,  -9.48248672
   1141,  -7.92511177,  -3.96133232,  -8.77535343
   1142,  -7.99798632,  -3.45243049,  -8.68820477
   1143,  -8.03833675,  -2.98951268,  -8.85527134
   1144,   -8.0443306,   -2.6612618,  -9.22411633
   1145,  -8.01575375,  -2.54996634,  -9.73272133
   1146,  -7.83672857,  -4.35748339,  -9.11615467
   1147,  -7.96102333,  -2.71532154,  -10.2332745
   1148,  -7.87256622,  -3.11146784,  -10.5740585
   1149,  -7.79974937,  -3.62037182,  -10.6612186
   1150,  -7.75941467,  -4.08329201,  -10.4941578
   1151,  -7.75340462,  -4.41154528,  -10.1253138
   1152,  -7.78192282,   -4.5228405,  -9.61670113
   1153,  -7.92511606,  -3.72073579,  -9.10139179
   1154,   -7.8607688,  -3.73573732,  -9.82570648
   1155,  -7.96979332,  -3.46697521,  -8.95347404
   1156,  -7.98652935,  -3.22362089,   -9.1144228
   1157,   -7.9664855,  -2.97454858,  -9.71011543
   1158,  -7.89125872,  -3.41370177,   -9.9418993
   1159,  -7.89947891,  -3.61746478,  -9.54934883
   1160,  -7.87308741,  -3.95395923,  -9.36380672
   1161,  -7.82836199,  -4.08820629,  -9.68735504
   1162,  -7.79793692,  -4.12704515,  -9.98342133
   1163,  -7.98965406,  -3.02205467,  -9.37240505
   1164,  -7.92529964,  -3.07397628,   -10.043025
   1165,   -7.8822813,  -3.23798156,  -10.3023491
   1166,  -7.81608725,  -3.87081361,  -10.1468096
   1167,   -7.9406333,  -3.45682931,  -9.30644703
   1168,  -7.84660816,  -3.54605222,  -10.2664528
   1169,  -7.92730665,  -3.31151628,  -9.67295647
   1170,  -7.95174503,  -3.26479554,  -9.45773029
   1171,  -7.51466322,   -3.9279933,  -8.73248959
   1172,  -7.55081606,  -3.41819239,  -8.63872242
   1173,  -7.54484177,  -2.94523644,  -8.80083275
   1174,  -7.50364637,  -2.61036181,  -9.16983795
   1175,  -7.43814564,  -2.49904847,  -9.67313862
   1176,  -7.44143867,  -4.32201815,  -9.07254982
   1177,  -7.36932278,  -2.66223407,  -10.1680031
   1178,  -7.29605198,  -3.05626035,  -10.5080481
   1179,  -7.25993586,  -3.56605864,  -10.6018257
   1180,  -7.26591969,  -4.03901577,  -10.4397192
   1181,  -7.30710411,  -4.37389278,   -10.070715
   1182,  -7.37256861,   -4.4852109,  -9.56740665
   1183,   -7.4775033,  -3.68223333,  -9.05458355
   1184,  -7.37540197,  -3.69062614,  -9.77210617
   1185,  -7.50966167,  -3.42852736,   -8.9039011
   1186,  -7.49781179,  -3.17988634,  -9.06207466
   1187,  -7.42475128,  -2.92607427,  -9.65341949
   1188,  -7.37304878,  -3.36537743,  -9.88627911
   1189,  -7.41928196,  -3.57386851,  -9.49769306
   1190,  -7.43057537,  -3.91369224,  -9.31581974
   1191,  -7.37954998,  -4.04667807,  -9.63605213
   1192,   -7.3361969,  -4.08576059,   -9.9300251
   1193,  -7.47013474,  -2.97419763,  -9.31902695
   1194,  -7.37386894,   -3.0239563,  -9.98302841
   1195,  -7.33033848,  -3.18570137,  -10.2413702
   1196,  -7.32419968,  -3.82567716,  -10.0926819
   1197,  -7.46031618,  -3.41425061,  -9.25619316
   1198,  -7.32167673,  -3.49518895,  -10.2095652
   1199,  -7.41527319,  -3.26528621,  -9.61852264
   1200,  -7.44751453,  -3.21921682,  -9.40498447
   1201,  -7.10428858,   -3.9297986,  -8.66688728
   1202,  -7.10488272,  -3.42260242,  -8.56429768
   1203,  -7.05314779,  -2.94240665,  -8.71903992
   1204,  -6.96517944,    -2.604285,  -9.08666134
   1205,  -6.86390638,  -2.49650979,  -9.58254433
   1206,  -7.04759169,  -4.31975126,   -9.0070343
   1207,  -6.77978134,  -2.65884089,  -10.0699329
   1208,  -6.72306919,   -3.0487957,  -10.4100733
   1209,  -6.72248745,  -3.55598974,  -10.5126677
   1210,  -6.77422523,  -4.03618574,  -10.3579264
   1211,  -6.86218977,  -4.37430859,   -9.9903059
   1212,  -6.96345091,  -4.48208666,   -9.4944191
   1213,   -7.0307622,    -3.681602,  -8.98320389
   1214,  -6.89143896,  -3.68603325,  -9.69150639
   1215,  -7.05101442,  -3.42920542,  -8.82898521
   1216,   -7.0106082,  -3.17719889,  -8.98284531
   1217,  -6.88533926,  -2.92305827,  -9.56713295
   1218,  -6.85657787,  -3.36020589,  -9.80217457
   1219,  -6.94037247,  -3.57051682,  -9.41954041
   1220,   -6.9887228,  -3.91058445,  -9.24321175
   1221,  -6.93175411,  -4.04273605,  -9.55943584
   1222,  -6.87606335,  -4.08340502,  -9.85046768
   1223,  -6.95214033,  -2.96970081,  -9.23748016
   1224,  -6.82507372,  -3.01995444,  -9.89288998
   1225,      -6.7809,  -3.17945075,  -10.1496115
   1226,  -6.83390045,  -3.82168412,  -10.0112715
   1227,  -6.98126173,  -3.41206598,  -9.17966557
   1228,  -6.79833984,  -3.48766828,  -10.1238174
   1229,  -6.90506935,   -3.2619822,   -9.5359621
   1230,  -6.94483185,  -3.21588802,  -9.32469654
   1231,  -6.69796133,    -3.967031,  -8.57884884
   1232,  -6.66466761,  -3.46570253,   -8.4655447
   1233,  -6.56814098,  -2.98105097,  -8.61070633
   1234,  -6.43424606,  -2.64293766,  -8.97543621
   1235,   -6.2988596,  -2.54196048,  -9.46200657
   1236,  -6.65910149,  -4.35070562,  -8.92025852
   1237,   -6.1982584,  -2.70517564,  -9.94004059
   1238,  -6.15939856,  -3.08885026,  -10.2814493
   1239,  -6.19269228,  -3.59017849,  -10.3947535
   1240,   -6.2892189,  -4.07483006,  -10.2495928
   1241,  -6.42311382,  -4.41294336,  -9.88486195
   1242,  -6.55850029,  -4.51392078,  -9.39829254
   1243,  -6.58938408,  -3.71913791,  -8.88740349
   1244,  -6.41378403,  -3.72238803,  -9.58419991
   1245,   -6.5985322,  -3.46913075,   -8.7289896
   1246,  -6.52983952,  -3.21576619,  -8.87710571
   1247,  -6.35377455,  -2.96556592,  -9.45185471
   1248,  -6.34709406,  -3.39851737,  -9.68992329
   1249,  -6.46762896,  -3.60780334,  -9.31502342
   1250,  -6.55190468,  -3.94505453,  -9.14621067
   1251,  -6.48943567,  -4.07679129,  -9.45792007
   1252,  -6.42214489,  -4.12013149,   -9.7455101
   1253,  -6.44091511,  -3.00884223,  -9.12801838
   1254,  -6.28456831,   -3.0621655,   -9.7730608
   1255,  -6.23949528,  -3.21911073,  -10.0282183
   1256,  -6.35011244,  -3.85908794,   -9.9030962
   1257,  -6.50833273,  -3.45058084,  -9.07702446
   1258,  -6.28187561,  -3.52399087,  -10.0094547
   1259,  -6.40190601,  -3.30183125,  -9.42566204
   1260,  -6.44880581,  -3.25507855,  -9.21713543
   1261,  -6.21888018,  -4.02619934,  -8.45782566
   1262,  -6.18558645,  -3.52487111,  -8.34452152
   1263,  -6.08905983,  -3.04021955,   -8.4896822
   1264,  -5.95516491,  -2.70210624,  -8.85441208
   1265,  -5.81977844,  -2.60112906,  -9.34098244
   1266,  -6.18002033,  -4.40987396,  -8.79923439
   1267,  -5.71917725,  -2.76434422,  -9.81901646
   1268,   -5.6803174,   -3.1480186,  -10.1604261
   1269,  -5.71361113,  -3.64934707,  -10.2737303
   1270,  -5.81013775,  -4.13399887,  -10.1285686
   1271,  -5.94403267,  -4.47211218,  -9.76383877
   1272,  -6.07941914,  -4.57308912,  -9.27726841
   1273,   -6.1103034,  -3.77830672,  -8.76637936
   1274,  -5.93470287,  -3.78155708,  -9.46317577
   1275,  -6.11945105,  -3.52829957,  -8.60796547
   1276,  -6.05075836,  -3.27493477,  -8.75608158
   1277,  -5.87469244,   -3.0247345,  -9.33082962
   1278,  -5.86801243,  -3.45768595,   -9.5688982
   1279,   -5.9885478,   -3.6669724,  -9.19399929
   1280,  -6.07282448,  -4.00422335,  -9.02518654
   1281,  -6.01035547,   -4.1359601,  -9.33689594
   1282,  -5.94306421,  -4.17930031,  -9.62448597
   1283,    -5.961833,  -3.06801081,  -9.00699425
   1284,   -5.8054862,  -3.12133408,  -9.65203571
   1285,  -5.76041269,   -3.2782793,  -9.90719414
   1286,  -5.87103128,    -3.918257,  -9.78207207
   1287,  -6.02925158,  -3.50974965,  -8.95600033
   1288,  -5.80279398,  -3.58315945,   -9.8884306
   1289,  -5.92282438,  -3.36100006,  -9.30463791
   1290,  -5.96972418,  -3.31424713,   -9.0961113
   1291,   -5.7397995,  -4.08536816,  -8.33680153
   1292,   -5.7065053,  -3.58403969,  -8.22349834
   1293,  -5.60997915,  -3.09938812,  -8.36865902
   1294,  -5.47608376,  -2.76127481,   -8.7333889
   1295,  -5.34069729,  -2.66029763,  -9.21995926
   1296,  -5.70093918,  -4.46904278,  -8.67821121
   1297,  -5.24009609,  -2.82351279,  -9.69799328
   1298,  -5.20123625,  -3.20718718,   -10.039402
   1299,  -5.23452997,  -3.70851564,  -10.1527061
   1300,  -5.33105659,  -4.19316721,  -10.0075455
   1301,  -5.46495152,  -4.53128052,  -9.64281559
   1302,  -5.60033798,  -4.63225794,  -9.15624523
   1303,   -5.6312232,  -3.83747554,  -8.64535618
   1304,  -5.45562172,  -3.84072661,   -9.3421526
   1305,  -5.64037085,  -3.58746815,  -8.48694229
   1306,  -5.57167673,  -3.33410382,  -8.63505745
   1307,  -5.39560986,  -3.08390331,  -9.20980644
   1308,   -5.3889308,  -3.51685476,  -9.44787502
   1309,  -5.50946665,  -3.72614193,  -9.07297611
   1310,  -5.59374428,  -4.06339216,  -8.90416431
   1311,   -5.5312748,  -4.19512892,  -9.21587276
   1312,  -5.46398354,  -4.23846912,  -9.50346279
   1313,  -5.48275137,  -3.12717962,  -8.88597012
   1314,  -5.32640362,  -3.18050289,  -9.53101158
   1315,  -5.28133011,  -3.33744812,  -9.78617001
   1316,  -5.39194965,  -3.97742605,  -9.66104889
   1317,  -5.55017042,  -3.56891847,   -8.8349762
   1318,  -5.32371187,  -3.64232826,  -9.76740646
   1319,  -5.44374275,  -3.42016935,  -9.18361473
   1320,  -5.49064255,  -3.37341619,  -8.97508717
   1321,  -5.26071835,   -4.1445365,  -8.21577835
   1322,  -5.22742462,  -3.64320827,  -8.10247421
   1323,    -5.130898,   -3.1585567,  -8.24763584
   1324,  -4.99700308,  -2.82044339,  -8.61236572
   1325,  -4.86161661,  -2.71946621,  -9.09893608
   1326,   -5.2218585,  -4.52821112,  -8.55718803
   1327,  -4.76101542,  -2.88268137,   -9.5769701
   1328,  -4.72215509,  -3.26635575,  -9.91837883
   1329,   -4.7554493,  -3.76768422,   -10.031683
   1330,  -4.85197544,  -4.25233603,  -9.88652229
   1331,  -4.98587084,  -4.59044886,  -9.52179146
   1332,  -5.12125731,  -4.69142628,  -9.03522205
   1333,    -5.152143,  -3.89664435,  -8.52433205
   1334,  -4.97654104,  -3.89989591,  -9.22112846
   1335,  -5.16129017,  -3.64663696,  -8.36591816
   1336,  -5.09259605,  -3.39327264,  -8.51403427
   1337,  -4.91652822,  -3.14307189,  -9.08878326
   1338,  -4.90984917,  -3.57602358,  -9.32685184
   1339,  -5.03038597,  -3.78531098,  -8.95195198
   1340,  -5.11466408,  -4.12256098,  -8.78314018
   1341,   -5.0521946,  -4.25429773,  -9.09484959
   1342,  -4.98490286,  -4.29763794,  -9.38243961
   1343,  -5.00367022,  -3.18634844,  -8.76494694
   1344,  -4.84732151,  -3.23967195,   -9.4099884
   1345,    -4.802248,  -3.39661717,  -9.66514683
   1346,  -4.91286945,  -4.03659487,  -9.54002476
   1347,  -5.07108974,  -3.62808728,  -8.71395302
   1348,  -4.84463024,  -3.70149708,  -9.64638329
   1349,   -4.9646616,  -3.47933817,   -9.0625906
   1350,  -5.01156187,    -3.432585,  -8.85406399
   1351,  -4.78163719,  -4.20370531,  -8.09475517
   1352,  -4.74834347,  -3.70237684,  -7.98145103
   1353,  -4.65181684,  -3.21772528,  -8.12661171
   1354,  -4.51792192,  -2.87961197,  -8.49134159
   1355,  -4.38253546,  -2.77863479,  -8.97791195
   1356,  -4.74277735,  -4.58737993,   -8.4361639
   1357,  -4.28193426,  -2.94184995,  -9.45594597
   1358,  -4.24307442,  -3.32552433,  -9.79735565
   1359,  -4.27636814,   -3.8268528,  -9.91065979
   1360,  -4.37289476,  -4.31150436,  -9.76549816
   1361,  -4.50678968,  -4.64961767,  -9.40076828
   1362,  -4.64217615,  -4.75059509,  -8.91419792
   1363,  -4.67306232,  -3.95581317,  -8.40330887
   1364,  -4.49745941,   -3.9590652,  -9.10010529
   1365,  -4.68220949,  -3.70580578,  -8.24489498
   1366,   -4.6135149,  -3.45244145,  -8.39301014
   1367,  -4.43744564,  -3.20224047,  -8.96775913
   1368,  -4.43076754,  -3.63519192,  -9.20582771
   1369,  -4.55130482,  -3.84448028,  -8.83092785
   1370,  -4.63558388,  -4.18172979,  -8.66211605
   1371,  -4.57311392,  -4.31346655,  -8.97382545
   1372,  -4.50582266,  -4.35680676,  -9.26141644
   1373,  -4.52458811,  -3.24551725,  -8.64392281
   1374,  -4.36823893,  -3.29884052,  -9.28896427
   1375,  -4.32316542,  -3.45578575,  -9.54412174
   1376,  -4.43378782,  -4.09576368,  -9.41900158
   1377,  -4.59200859,   -3.6872561,  -8.59292889
   1378,  -4.36554813,  -3.76066566,  -9.52535915
   1379,  -4.48557997,  -3.53850698,  -8.94156742
   1380,  -4.53248024,  -3.49175382,  -8.73303986
   1381,  -4.30255604,  -4.26287365,  -7.97373152
   1382,  -4.26926231,  -3.76154542,  -7.86042738
   1383,  -4.17273569,  -3.27689385,  -8.00558853
   1384,  -4.03884077,  -2.93878055,  -8.37031841
   1385,   -3.9034543,  -2.83780336,  -8.85688877
   1386,  -4.26369619,  -4.64654827,  -8.31514072
   1387,  -3.80285311,  -3.00101852,  -9.33492279
   1388,  -3.76399326,  -3.38469291,  -9.67633152
   1389,  -3.79728699,  -3.88602138,  -9.78963566
   1390,  -3.89381361,  -4.37067318,  -9.64447498
   1391,  -4.02770853,  -4.70878601,   -9.2797451
   1392,    -4.163095,  -4.80976343,  -8.79317474
   1393,  -4.19398212,  -4.01498175,  -8.28228474
   1394,  -4.01837873,  -4.01823425,  -8.97908115
   1395,  -4.20312881,  -3.76497436,  -8.12387085
   1396,  -4.13443375,  -3.51161051,  -8.27198601
   1397,  -3.95836329,  -3.26140904,    -8.846735
   1398,  -3.95168543,  -3.69436073,  -9.08480453
   1399,  -4.07222414,  -3.90364957,  -8.70990372
   1400,   -4.1565032,  -4.24089861,  -8.54109287
   1401,  -4.09403372,  -4.37263489,  -8.85280228
   1402,   -4.0267415,  -4.41597557,  -9.14039326
   1403,  -4.04550648,  -3.30468583,  -8.52289867
   1404,  -3.88915682,  -3.35800934,  -9.16794109
   1405,  -3.84408307,  -3.51495481,  -9.42309856
   1406,  -3.95470643,  -4.15493298,  -9.29797745
   1407,  -4.11292744,  -3.74642467,  -8.47190475
   1408,  -3.88646603,  -3.81983423,  -9.40433502
   1409,  -4.00649786,  -3.59767604,  -8.82054329
   1410,  -4.05339861,  -3.55092263,  -8.61201572
   1411,  -3.82347536,  -4.32204247,  -7.85270786
   1412,   -3.7901814,    -3.820714,   -7.7394042
   1413,  -3.69365478,  -3.33606219,  -7.88456488
   1414,  -3.55975986,  -2.99794912,  -8.24929523
   1415,  -3.42437339,  -2.89697194,  -8.73586559
   1416,  -3.78461528,  -4.70571709,  -8.19411755
   1417,  -3.32377219,   -3.0601871,  -9.21389961
   1418,  -3.28491211,  -3.44386148,  -9.55530834
   1419,  -3.31820607,  -3.94518995,  -9.66861248
   1420,  -3.41473246,  -4.42984152,  -9.52345181
   1421,  -3.54862761,  -4.76795483,  -9.15872097
   1422,  -3.68401408,  -4.86893225,  -8.67215157
   1423,  -3.71490192,  -4.07415056,  -8.16126156
   1424,  -3.53929758,  -4.07740402,  -8.85805702
   1425,  -3.72404838,  -3.82414317,  -8.00284767
   1426,  -3.65535259,  -3.57077932,  -8.15096283
   1427,  -3.47928095,  -3.32057786,  -8.72571182
   1428,  -3.47260356,  -3.75352955,  -8.96378136
   1429,  -3.59314322,   -3.9628191,  -8.58888054
   1430,    -3.677423,   -4.3000679,  -8.42006969
   1431,  -3.61495328,  -4.43180418,   -8.7317791
   1432,  -3.54766059,  -4.47514439,  -9.01936913
   1433,  -3.56642461,  -3.36385441,   -8.4018755
   1434,  -3.41007447,  -3.41717815,  -9.04691696
   1435,  -3.36500096,  -3.57412362,  -9.30207443
   1436,  -3.47562528,  -4.21410179,  -9.17695427
   1437,  -3.63384676,  -3.80559325,  -8.35088158
   1438,  -3.40738416,  -3.87900305,  -9.28331184
   1439,  -3.52741647,  -3.65684533,  -8.69952011
   1440,  -3.57431722,  -3.61009145,  -8.49099255
   1441,  -3.34439421,   -4.3812108,  -7.73168468
   1442,  -3.31110048,  -3.87988257,  -7.61838055
   1443,  -3.21457386,  -3.39523077,  -7.76354122
   1444,   -3.0806787,   -3.0571177,   -8.1282711
   1445,  -2.94529223,  -2.95614052,  -8.61484146
   1446,  -3.30553436,  -4.76488543,  -8.07309341
   1447,  -2.84469104,  -3.11935568,  -9.09287548
   1448,  -2.80583119,  -3.50303006,  -9.43428516
   1449,  -2.83912492,  -4.00435829,   -9.5475893
   1450,  -2.93565154,  -4.48901033,  -9.40242767
   1451,  -3.06954646,  -4.82712317,  -9.03769779
   1452,  -3.20493293,  -4.92810059,  -8.55112743
   1453,  -3.23582125,  -4.13331938,  -8.04023838
   1454,  -3.06021667,  -4.13657284,  -8.73703289
   1455,  -3.24496746,  -3.88331199,  -7.88182402
   1456,   -3.1762712,  -3.62994814,   -8.0299387
   1457,  -3.00019884,  -3.37974644,  -8.60468769
   1458,  -2.99352169,  -3.81269813,  -8.84275723
   1459,  -3.11406207,  -4.02198792,  -8.46785641
   1460,  -3.19834232,  -4.35923672,  -8.29904556
   1461,  -3.13587284,    -4.490973,  -8.61075497
   1462,  -3.06858039,   -4.5343132,  -8.89834499
   1463,  -3.08734274,  -3.42302322,  -8.28085136
   1464,  -2.93099189,  -3.47634697,  -8.92589283
   1465,  -2.88591838,  -3.63329244,  -9.18105125
   1466,  -2.99654388,  -4.27327061,  -9.05593014
   1467,  -3.15476561,  -3.86476207,   -8.2298584
   1468,  -2.92830229,  -3.93817163,  -9.16228867
   1469,  -3.04833484,  -3.71601391,  -8.57849598
   1470,  -3.09523535,  -3.66926026,  -8.36996841
   1471,  -2.86531329,  -4.44037962,  -7.61066103
   1472,  -2.83201933,  -3.93905115,  -7.49735689
   1473,  -2.73549271,  -3.45439935,  -7.64251804
   1474,  -2.60159779,  -3.11628628,  -8.00724792
   1475,  -2.46621132,   -3.0153091,  -8.49381828
   1476,  -2.82645321,  -4.82405424,  -7.95207024
   1477,  -2.36561012,  -3.17852426,   -8.9718523
   1478,  -2.32675004,  -3.56219864,  -9.31326103
   1479,    -2.360044,  -4.06352711,  -9.42656517
   1480,  -2.45657039,  -4.54817867,   -9.2814045
   1481,  -2.59046555,  -4.88629198,  -8.91667461
   1482,  -2.72585201,   -4.9872694,  -8.43010426
   1483,  -2.75674129,  -4.19248867,  -7.91921425
   1484,  -2.58113551,  -4.19574261,  -8.61600971
   1485,  -2.76588702,   -3.9424808,  -7.76080036
   1486,  -2.69719052,  -3.68911719,  -7.90891504
   1487,  -2.52111673,  -3.43891501,  -8.48366451
   1488,  -2.51443982,  -3.87186694,  -8.72173405
   1489,  -2.63498139,  -4.08115768,  -8.34683228
   1490,  -2.71926236,  -4.41840601,  -8.17802238
   1491,   -2.6567924,  -4.55014181,  -8.48973179
   1492,  -2.58949947,  -4.59348202,  -8.77732182
   1493,  -2.60826111,  -3.48219204,  -8.15982819
   1494,  -2.45190978,  -3.53551579,  -8.80486965
   1495,  -2.40683627,  -3.69246125,  -9.06002712
   1496,  -2.51746273,   -4.3324399,  -8.93490696
   1497,  -2.67568469,  -3.92393112,  -8.10883427
   1498,  -2.44922042,  -3.99734068,  -9.04126453
   1499,  -2.56925344,  -3.77518296,  -8.45747185
   1500,  -2.61615419,  -3.72842908,  -8.24894524
   1501,  -2.38623214,  -4.49954796,  -7.48963737
   1502,  -2.35293841,  -3.99821973,  -7.37633371
   1503,  -2.25641179,  -3.51356792,  -7.52149439
   1504,  -2.12251663,  -3.17545485,  -7.88622475
   1505,  -1.98713028,  -3.07447767,   -8.3727951
   1506,  -2.34737229,  -4.88322258,  -7.83104658
   1507,  -1.88652897,  -3.23769283,  -8.85082912
   1508,  -1.84766912,  -3.62136722,  -9.19223785
   1509,  -1.88096285,  -4.12269545,  -9.30554199
   1510,  -1.97748947,  -4.60734749,  -9.16038132
   1511,  -2.11138439,  -4.94546032,  -8.79565048
   1512,   -2.2467711,  -5.04643774,  -8.30908108
   1513,  -2.27766085,  -4.25165701,  -7.79819107
   1514,   -2.1020546,  -4.25491142,  -8.49498558
   1515,  -2.28680658,  -4.00164938,  -7.63977718
   1516,  -2.21810961,  -3.74828601,  -7.78789139
   1517,  -2.04203463,  -3.49808359,  -8.36264038
   1518,  -2.03535795,  -3.93103576,  -8.60070992
   1519,  -2.15590072,   -4.1403265,  -8.22580814
   1520,   -2.2401824,  -4.47757435,  -8.05699825
   1521,   -2.1777122,  -4.60931015,  -8.36870861
   1522,  -2.11041903,  -4.65265083,  -8.65629864
   1523,  -2.12917948,  -3.54136086,  -8.03880405
   1524,  -1.97282743,  -3.59468436,  -8.68384552
   1525,  -1.92775393,  -3.75163007,  -8.93900394
   1526,  -2.03838158,  -4.39160872,  -8.81388283
   1527,  -2.19660378,  -3.98309994,  -7.98781061
   1528,  -1.97013855,  -4.05650902,   -8.9202404
   1529,  -2.09017205,  -3.83435178,  -8.33644772
   1530,  -2.13707304,  -3.78759789,   -8.1279211
   1531,   -1.9071511,  -4.55871677,   -7.3686142
   1532,  -1.87385726,  -4.05738831,  -7.25531006
   1533,  -1.77733076,   -3.5727365,  -7.40047121
   1534,  -1.64343572,  -3.23462343,  -7.76520109
   1535,  -1.50804925,  -3.13364625,  -8.25177097
   1536,  -1.86829114,   -4.9423914,   -7.7100234
   1537,  -1.40744793,  -3.29686141,  -8.72980499
   1538,  -1.36858809,  -3.68053579,  -9.07121468
   1539,  -1.40188181,  -4.18186426,  -9.18451881
   1540,  -1.49840844,  -4.66651583,  -9.03935719
   1541,  -1.63230348,  -5.00462914,   -8.6746273
   1542,  -1.76768994,  -5.10560656,  -8.18805695
   1543,  -1.79858017,  -4.31082582,  -7.67716789
   1544,  -1.62297356,  -4.31408072,   -8.3739624
   1545,  -1.80772555,   -4.0608182,  -7.51875305
   1546,  -1.73902786,  -3.80745482,  -7.66686773
   1547,   -1.5629524,  -3.55725241,  -8.24161625
   1548,  -1.55627644,  -3.99020457,  -8.47968674
   1549,  -1.67681956,  -4.19949579,  -8.10478497
   1550,  -1.76110184,  -4.53674316,  -7.93597555
   1551,  -1.69863164,  -4.66847897,  -8.24768448
   1552,  -1.63133824,  -4.71181965,  -8.53527546
   1553,  -1.65009761,  -3.60052943,  -7.91778088
   1554,  -1.49374497,  -3.65385342,  -8.56282139
   1555,  -1.44867134,  -3.81079912,  -8.81797981
   1556,  -1.55930054,  -4.45077753,   -8.6928587
   1557,  -1.71752274,  -4.04226828,  -7.86678743
   1558,  -1.49105668,  -4.11567831,  -8.79921722
   1559,   -1.6110903,  -3.89352083,  -8.21542454
   1560,  -1.65799141,  -3.84676671,  -8.00689793
   1561,  -1.42807007,  -4.61788511,  -7.24759054
   1562,  -1.39477623,  -4.11655712,   -7.1342864
   1563,  -1.29824972,  -3.63190508,  -7.27944756
   1564,  -1.16435468,  -3.29379201,  -7.64417744
   1565,  -1.02896821,  -3.19281483,   -8.1307478
   1566,   -1.3892101,  -5.00155973,  -7.58899975
   1567, -0.928366959,  -3.35602999,  -8.60878181
   1568, -0.889506996,  -3.73970437,  -8.95019054
   1569, -0.922800839,   -4.2410326,  -9.06349468
   1570,   -1.0193274,  -4.72568464,  -8.91833401
   1571,  -1.15322244,  -5.06379747,  -8.55360413
   1572,  -1.28860891,  -5.16477489,  -8.06703377
   1573,  -1.31949973,  -4.36999464,  -7.55614424
   1574,  -1.14389253,  -4.37325001,  -8.25293922
   1575,  -1.32864499,  -4.11998701,   -7.3977294
   1576,   -1.2599467,  -3.86662364,   -7.5458436
   1577,  -1.08387029,  -3.61642075,  -8.12059307
   1578,  -1.07719469,  -4.04937315,  -8.35866356
   1579,  -1.19773853,  -4.25866508,  -7.98376131
   1580,  -1.28202152,  -4.59591198,   -7.8149519
   1581,  -1.21955132,  -4.72764778,  -8.12666225
   1582,  -1.15225732,  -4.77098846,  -8.41425228
   1583,  -1.17101586,  -3.65969825,  -7.79675674
   1584,  -1.01466262,  -3.71302199,  -8.44179821
   1585, -0.969589114,   -3.8699677,  -8.69695568
   1586,  -1.08021903,  -4.50994682,  -8.57183552
   1587,  -1.23844171,  -4.10143709,  -7.74576378
   1588,  -1.01197469,  -4.17484665,  -8.67819405
   1589,  -1.13200879,  -3.95268965,  -8.09440136
   1590,  -1.17890978,  -3.90593553,  -7.88587379
   1591, -0.948989093,  -4.67705393,  -7.12656689
   1592,  -0.91569525,  -4.17572546,  -7.01326323
   1593, -0.819168687,  -3.69107366,   -7.1584239
   1594, -0.685273647,  -3.35296059,  -7.52315426
   1595,  -0.54988718,   -3.2519834,  -8.00972462
   1596,  -0.91012913,  -5.06072807,  -7.46797609
   1597, -0.449285924,  -3.41519856,  -8.48775864
   1598, -0.410425991,  -3.79887295,  -8.82916737
   1599, -0.443719804,  -4.30020142,   -8.9424715
   1600, -0.540246367,  -4.78485298,  -8.79731083
   1601, -0.674141407,  -5.12296629,  -8.43257999
   1602, -0.809527874,  -5.22394371,  -7.94601011
   1603, -0.840419292,  -4.42916346,  -7.43512011
   1604, -0.664811611,  -4.43241978,  -8.13191509
   1605, -0.849564373,  -4.17915583,  -7.27670574
   1606, -0.780865669,  -3.92579246,  -7.42481995
   1607, -0.604788125,  -3.67558932,  -7.99956989
   1608, -0.598112643,  -4.10854149,  -8.23764038
   1609, -0.718657553,  -4.31783438,  -7.86273718
   1610, -0.802941084,   -4.6550808,  -7.69392824
   1611, -0.740470946,  -4.78681707,  -8.00563812
   1612, -0.673176885,  -4.83015728,  -8.29322815
   1613, -0.691934049,  -3.71886706,  -7.67573357
   1614, -0.535580158,  -3.77219057,  -8.32077503
   1615, -0.490506768,  -3.92913651,   -8.5759325
   1616, -0.601137877,  -4.56911612,  -8.45081234
   1617, -0.759360552,  -4.16060591,  -7.62474012
   1618, -0.532892764,  -4.23401546,  -8.55716991
   1619,  -0.65292716,  -4.01185846,  -7.97337723
   1620, -0.699828446,  -3.96510434,  -7.76485014
   1621, -0.469908029,  -4.73622227,  -7.00554371
   1622, -0.436614215,  -4.23489428,  -6.89223957
   1623, -0.340087682,  -3.75024223,  -7.03740072
   1624, -0.206192613,  -3.41212916,   -7.4021306
   1625, -0.0708061308,  -3.31115198,  -7.88870049
   1626, -0.431048095,  -5.11989689,  -7.34695292
   1627, 0.0297950953,  -3.47436714,   -8.3667345
   1628, 0.0686550438,  -3.85804152,  -8.70814419
   1629, 0.0353612155,  -4.35936975,  -8.82144833
   1630, -0.0611653291,   -4.8440218,   -8.6762867
   1631, -0.195060387,  -5.18213463,  -8.31155682
   1632, -0.330446869,  -5.28311205,  -7.82498693
   1633, -0.361339003,  -4.48833227,  -7.31409645
   1634, -0.185730636,  -4.49158859,  -8.01089096
   1635, -0.370483667,  -4.23832464,  -7.15568209
   1636, -0.301784426,  -3.98496151,  -7.30379629
   1637, -0.125705883,   -3.7347579,  -7.87854576
   1638, -0.119030952,   -4.1677103,   -8.1166172
   1639, -0.239576668,  -4.37700367,  -7.74171305
   1640, -0.323860943,  -4.71425009,  -7.57290459
   1641, -0.261390418,  -4.84598589,  -7.88461447
   1642, -0.194096118,   -4.8893261,  -8.17220497
   1643, -0.212852299,  -3.77803564,  -7.55470943
   1644, -0.0564976856,  -3.83135939,   -8.1997509
   1645, -0.0114242071,  -3.98830533,  -8.45490932
   1646, -0.122056887,  -4.62828493,  -8.32978821
   1647, -0.280279517,  -4.21977472,  -7.50371599
   1648, -0.053810861,   -4.2931838,  -8.43614674
   1649, -0.173845664,  -4.07102776,   -7.8523531
   1650, -0.220747024,   -4.0242734,  -7.64382601
   1651, 0.00917298906,  -4.79539108,  -6.88452005
   1652, 0.0424668156,  -4.29406261,  -6.77121592
   1653,  0.138993353,  -3.80941081,  -6.91637707
   1654,  0.272888422,  -3.47129774,  -7.28110695
   1655,  0.408274889,  -3.37032056,  -7.76767731
   1656, 0.0480329357,  -5.17906523,  -7.22592926
   1657,  0.508876145,  -3.53353572,  -8.24571133
   1658,  0.547736049,   -3.9172101,  -8.58712006
   1659,  0.514442265,  -4.41853857,  -8.70042419
   1660,  0.417915702,  -4.90319014,  -8.55526352
   1661,  0.284020662,  -5.24130344,  -8.19053364
   1662,  0.148634166,  -5.34228086,  -7.70396328
   1663,  0.117741443,  -4.54750109,   -7.1930728
   1664,  0.293350399,  -4.55075836,  -7.88986778
   1665,  0.108597025,  -4.29749298,  -7.03465843
   1666,  0.177296683,  -4.04413033,  -7.18277216
   1667,  0.353376329,  -3.79392672,  -7.75752211
   1668,  0.360050857,  -4.22687912,  -7.99559307
   1669,  0.239504382,  -4.43617296,  -7.62068939
   1670,  0.155219451,   -4.7734189,  -7.45188093
   1671,   0.21769008,  -4.90515471,  -7.76359129
   1672,  0.284984499,  -4.94849539,  -8.05118179
   1673,   0.26622957,  -3.83720446,  -7.43368578
   1674,  0.422584534,   -3.8905282,  -8.07872677
   1675,  0.467658013,  -4.04747438,  -8.33388519
   1676,  0.357024401,  -4.68745375,  -8.20876503
   1677,  0.198801517,  -4.27894354,  -7.38269234
   1678,  0.425270885,  -4.35235262,   -8.3151226
   1679,  0.305236101,  -4.13019657,  -7.73132944
   1680,  0.258334458,  -4.08344221,  -7.52280283
   1681,  0.488254011,  -4.85455942,   -6.7634964
   1682,  0.521547854,  -4.35323143,  -6.65019274
   1683,  0.618074417,  -3.86857939,  -6.79535341
   1684,  0.751969457,  -3.53046632,  -7.16008377
   1685,  0.887355924,  -3.42948914,  -7.64665365
   1686,  0.527113974,  -5.23823404,  -7.10490561
   1687,   0.98795718,   -3.5927043,  -8.12468815
   1688,   1.02681708,  -3.97637868,  -8.46609688
   1689,    0.9935233,  -4.47770691,  -8.57940102
   1690,  0.896996737,  -4.96235895,  -8.43424034
   1691,  0.763101697,  -5.30047178,  -8.06950951
   1692,   0.62771517,   -5.4014492,  -7.58293962
   1693,  0.596821845,   -4.6066699,  -7.07204914
   1694,  0.772431433,  -4.60992765,  -7.76884365
   1695,  0.587677658,   -4.3566618,  -6.91363478
   1696,  0.656377912,  -4.10329914,  -7.06174803
   1697,  0.832458496,  -3.85309529,  -7.63649845
   1698,  0.839132607,  -4.28604746,  -7.87456989
   1699,  0.718585253,  -4.49534225,  -7.49966526
   1700,  0.634299755,  -4.83258772,  -7.33085728
   1701,  0.696770549,  -4.96432352,  -7.64256763
   1702,  0.764065087,  -5.00766373,  -7.93015814
   1703,   0.74531126,  -3.89637327,  -7.31266165
   1704,  0.901667058,  -3.94969702,  -7.95770407
   1705,  0.946740389,   -4.1066432,  -8.21286201
   1706,  0.836105704,  -4.74662304,   -8.0877409
   1707,  0.677882552,  -4.33811235,  -7.26166868
   1708,  0.904352844,  -4.41152096,  -8.19409943
   1709,  0.784317553,  -4.18936539,  -7.61030531
   1710,  0.737415969,  -4.14261103,   -7.4017787
   1711,  0.967335045,  -4.91372824,  -6.64247322
   1712,   1.00062883,  -4.41239977,  -6.52916908
   1713,   1.09715545,  -3.92774796,  -6.67433023
   1714,   1.23105049,   -3.5896349,  -7.03906012
   1715,   1.36643696,  -3.48865771,  -7.52563047
   1716,   1.00619495,  -5.29740238,  -6.98388243
   1717,   1.46703815,  -3.65187287,  -8.00366402
   1718,   1.50589812,  -4.03554726,   -8.3450737
   1719,   1.47260427,  -4.53687572,  -8.45837784
   1720,   1.37607777,  -5.02152729,  -8.31321621
   1721,   1.24218273,   -5.3596406,  -7.94848633
   1722,   1.10679626,  -5.46061802,  -7.46191645
   1723,   1.07590222,  -4.66583872,  -6.95102596
   1724,   1.25151253,  -4.66909695,     -7.64782
   1725,   1.06675828,  -4.41583061,  -6.79261112
   1726,   1.13545907,  -4.16246796,  -6.94072485
   1727,   1.31154072,  -3.91226411,   -7.5154748
   1728,   1.31821442,  -4.34521627,  -7.75354671
   1729,   1.19766617,  -4.55451155,  -7.37864161
   1730,   1.11338007,  -4.89175653,   -7.2098341
   1731,   1.17585099,  -5.02349234,  -7.52154446
   1732,   1.24314594,  -5.06683302,  -7.80913496
   1733,   1.22439301,  -3.95554161,  -7.19163799
   1734,   1.38074934,  -4.00886583,  -7.83667994
   1735,   1.42582273,  -4.16581202,  -8.09183788
   1736,   1.31518686,  -4.80579185,  -7.96671724
   1737,   1.15696359,  -4.39728117,  -7.14064503
   1738,   1.38343465,  -4.47068977,  -8.07307625
   1739,   1.26339924,  -4.24853468,  -7.48928213
   1740,   1.21649754,  -4.20177984,  -7.28075504
   1741,   1.44641602,  -4.97289658,  -6.52144957
   1742,   1.47970986,  -4.47156858,  -6.40814543
   1743,   1.57623649,  -3.98691654,  -6.55330658
   1744,   1.71013153,  -3.64880347,  -6.91803646
   1745,   1.84551799,  -3.54782629,  -7.40460682
   1746,   1.48527598,   -5.3565712,  -6.86285877
   1747,   1.94611919,  -3.71104145,  -7.88264084
   1748,   1.98497915,  -4.09471607,  -8.22404957
   1749,   1.95168531,  -4.59604406,  -8.33735371
   1750,   1.85515881,  -5.08069611,  -8.19219303
   1751,   1.72126377,  -5.41880894,  -7.82746315
   1752,    1.5858773,  -5.51978636,  -7.34089279
   1753,   1.55498266,  -4.72500753,  -6.83000231
   1754,   1.73059344,  -4.72826624,  -7.52679586
   1755,   1.54583895,  -4.47499943,  -6.67158747
   1756,   1.61454046,  -4.22163677,  -6.81970119
   1757,   1.79062295,  -3.97143292,  -7.39445066
   1758,    1.7972964,  -4.40438509,  -7.63252258
   1759,   1.67674708,  -4.61368084,  -7.25761747
   1760,   1.59246051,  -4.95092583,  -7.08881044
   1761,   1.65493143,  -5.08266115,   -7.4005208
   1762,   1.72222662,  -5.12600136,  -7.68811131
   1763,   1.70347476,  -4.01471043,  -7.07061386
   1764,   1.85983181,  -4.06803465,  -7.71565628
   1765,    1.9049052,  -4.22498083,  -7.97081423
   1766,   1.79426813,  -4.86496115,  -7.84569359
   1767,    1.6360445,  -4.45644999,  -7.01962137
   1768,    1.8625164,  -4.52985859,  -7.95205212
   1769,   1.74248087,   -4.3077035,  -7.36825752
   1770,   1.69557893,  -4.26094866,  -7.15973091
   1771,   1.92549706,  -5.03206539,  -6.40042591
   1772,    1.9587909,  -4.53073692,  -6.28712225
   1773,    2.0553174,  -4.04608536,  -6.43228292
   1774,   2.18921256,  -3.70797205,  -6.79701328
   1775,   2.32459903,  -3.60699463,  -7.28358316
   1776,   1.96435702,  -5.41573954,  -6.74183512
   1777,   2.42520022,  -3.77021003,  -7.76161718
   1778,   2.46406007,  -4.15388441,  -8.10302639
   1779,   2.43076634,  -4.65521288,  -8.21633053
   1780,   2.33423972,  -5.13986444,  -8.07116985
   1781,    2.2003448,  -5.47797775,   -7.7064395
   1782,   2.06495833,  -5.57895517,  -7.21986914
   1783,   2.03406286,  -4.78417683,  -6.70897865
   1784,   2.20967436,  -4.78743553,  -7.40577173
   1785,   2.02491951,  -4.53416824,  -6.55056381
   1786,   2.09362149,  -4.28080606,  -6.69867706
   1787,   2.26970482,  -4.03060102,  -7.27342701
   1788,   2.27637815,  -4.46355343,  -7.51149893
   1789,     2.155828,  -4.67285013,  -7.13659334
   1790,   2.07154083,  -5.01009417,  -6.96778631
   1791,   2.13401175,  -5.14182997,  -7.27949667
   1792,    2.2013073,  -5.18517065,  -7.56708765
   1793,   2.18255663,  -4.07387924,  -6.94959021
   1794,   2.33891416,  -4.12720299,  -7.59463215
   1795,   2.38398743,  -4.28414917,  -7.84979057
   1796,   2.27334929,  -4.92412996,  -7.72466946
   1797,   2.11512542,   -4.5156188,  -6.89859724
   1798,   2.34159827,   -4.5890274,  -7.83102846
   1799,   2.22156239,  -4.36687231,  -7.24723387
   1800,   2.17466044,  -4.32011747,  -7.03870726
   1801,   2.40457821,  -5.09123373,  -6.27940273
   1802,   2.43787193,  -4.58990574,  -6.16609859
   1803,   2.53439856,   -4.1052537,  -6.31125975
   1804,   2.66829348,  -3.76714063,  -6.67598963
   1805,   2.80367994,  -3.66616321,  -7.16255999
   1806,   2.44343805,  -5.47490835,  -6.62081194
   1807,   2.90428138,   -3.8293786,  -7.64059401
   1808,   2.94314122,  -4.21305323,  -7.98200321
   1809,    2.9098475,  -4.71438122,  -8.09530735
   1810,   2.81332088,  -5.19903326,   -7.9501462
   1811,   2.67942572,  -5.53714609,  -7.58541584
   1812,   2.54403925,  -5.63812351,  -7.09884596
   1813,    2.5131433,  -4.84334517,  -6.58795547
   1814,   2.68875575,  -4.84660482,  -7.28474855
   1815,   2.50400019,  -4.59333706,  -6.42954016
   1816,   2.57270265,  -4.33997488,  -6.57765341
   1817,    2.7487874,  -4.08976936,  -7.15240335
   1818,   2.75546002,  -4.52272224,  -7.39047575
   1819,   2.63490891,  -4.73201942,  -7.01556969
   1820,   2.55062127,  -5.06926346,  -6.84676313
   1821,   2.61309218,  -5.20099878,  -7.15847397
   1822,   2.68038821,  -5.24433899,  -7.44606447
   1823,    2.6616385,  -4.13304758,  -6.82856655
   1824,   2.81799674,   -4.1863718,  -7.47360849
   1825,   2.86307001,  -4.34331846,  -7.72876692
   1826,   2.75243068,  -4.98329926,  -7.60364628
   1827,   2.59420681,  -4.57478714,  -6.77757406
   1828,   2.82068038,  -4.64819622,  -7.71000528
   1829,   2.70064402,  -4.42604113,  -7.12621021
   1830,   2.65374184,  -4.37928581,   -6.9176836
   1831,   2.88365912,  -5.15040255,  -6.15837908
   1832,   2.91695309,  -4.64907408,  -6.04507494
   1833,   3.01347947,  -4.16442251,  -6.19023609
   1834,   3.14737463,   -3.8263092,  -6.55496597
   1835,    3.2827611,  -3.72533178,  -7.04153633
   1836,   2.92251921,  -5.53407669,  -6.49978828
   1837,   3.38336229,  -3.88854718,  -7.51957035
   1838,   3.42222214,  -4.27222157,  -7.86097956
   1839,   3.38892841,  -4.77355003,   -7.9742837
   1840,   3.29240179,   -5.2582016,  -7.82912254
   1841,   3.15850687,  -5.59631491,  -7.46439266
   1842,    3.0231204,  -5.69729233,   -6.9778223
   1843,   2.99222374,  -4.90251398,  -6.46693182
   1844,   3.16783667,  -4.90577459,  -7.16372395
   1845,   2.98308086,   -4.6525054,   -6.3085165
   1846,   3.05178404,  -4.39914417,  -6.45662975
   1847,   3.22786927,  -4.14893818,   -7.0313797
   1848,   3.23454189,  -4.58189106,   -7.2694521
   1849,   3.11398983,  -4.79118872,  -6.89454556
   1850,   3.02970171,  -5.12843227,  -6.72573948
   1851,   3.09217286,  -5.26016808,  -7.03744984
   1852,   3.15946865,  -5.30350828,  -7.32504082
   1853,   3.14072037,  -4.19221687,  -6.70754242
   1854,   3.29707885,  -4.24554062,  -7.35258484
   1855,   3.34215212,  -4.40248728,  -7.60774326
   1856,   3.23151183,  -5.04246807,  -7.48262215
   1857,   3.07328773,  -4.63395643,  -6.65654993
   1858,   3.29976225,  -4.70736504,  -7.58898115
   1859,   3.17972565,  -4.48521042,  -7.00518608
   1860,   3.13282347,   -4.4384551,  -6.79665947
   1861,   3.36274028,  -5.20957088,  -6.03735542
   1862,     3.396034,  -4.70824242,  -5.92405176
   1863,   3.49256063,  -4.22359085,  -6.06921244
   1864,   3.62645555,  -3.88547778,  -6.43394279
   1865,   3.76184201,  -3.78450036,  -6.92051268
   1866,   3.40160012,  -5.59324551,  -6.37876463
   1867,   3.86244321,  -3.94771576,   -7.3985467
   1868,   3.90130329,  -4.33139038,   -7.7399559
   1869,   3.86800933,  -4.83271837,  -7.85326004
   1870,   3.77148294,  -5.31737041,  -7.70809889
   1871,   3.63758779,  -5.65548325,  -7.34336901
   1872,   3.50220132,  -5.75646067,  -6.85679865
   1873,   3.47130394,   -4.9616828,  -6.34590816
   1874,   3.64691758,  -4.96494341,  -7.04270029
   1875,   3.46216154,  -4.71167421,  -6.18749285
   1876,   3.53086495,  -4.45831251,  -6.33560562
   1877,   3.70695138,  -4.20810699,  -6.91035557
   1878,   3.71362352,  -4.64105988,  -7.14842844
   1879,   3.59307098,  -4.85035753,  -6.77352142
   1880,   3.50878191,  -5.18760109,  -6.60471582
   1881,    3.5712533,  -5.31933641,  -6.91642666
   1882,   3.63854933,   -5.3626771,  -7.20401716
   1883,     3.619802,  -4.25138521,  -6.58651876
   1884,   3.77616119,  -4.30470943,  -7.23156071
   1885,   3.82123446,  -4.46165609,  -7.48671913
   1886,   3.71059299,  -5.10163689,  -7.36159801
   1887,   3.55236888,  -4.69312477,  -6.53552628
   1888,   3.77884412,  -4.76653337,   -7.4679575
   1889,    3.6588068,  -4.54437923,  -6.88416195
   1890,   3.61190486,  -4.49762344,  -6.67563581
   1891,   3.84182119,   -5.2687397,  -5.91633224
   1892,   3.87511516,  -4.76741123,  -5.80302811
   1893,   3.97164154,  -4.28275967,  -5.94818926
   1894,   4.10553646,  -3.94464636,  -6.31291914
   1895,   4.24092293,  -3.84366894,   -6.7994895
   1896,   3.88068128,  -5.65241385,  -6.25774145
   1897,   4.34152412,   -4.0068841,  -7.27752352
   1898,   4.38038445,  -4.39055872,  -7.61893272
   1899,   4.34709024,  -4.89188719,  -7.73223639
   1900,    4.2505641,  -5.37653875,  -7.58707571
   1901,    4.1166687,  -5.71465206,  -7.22234535
   1902,   3.98128247,  -5.81562948,  -6.73577547
   1903,   3.95038438,  -5.02085161,  -6.22488451
   1904,    4.1259985,   -5.0241127,  -6.92167664
   1905,   3.94124222,  -4.77084303,  -6.06646967
   1906,   4.00994635,   -4.5174818,  -6.21458197
   1907,   4.18603373,  -4.26727581,  -6.78933191
   1908,   4.19270515,  -4.70022869,  -7.02740479
   1909,   4.07215166,   -4.9095273,  -6.65249777
   1910,   3.98786235,  -5.24676991,  -6.48369217
   1911,    4.0503335,  -5.37850523,  -6.79540348
   1912,   4.11763048,  -5.42184591,  -7.08299398
   1913,   4.09888363,  -4.31055403,  -6.46549511
   1914,    4.2552433,  -4.36387825,  -7.11053705
   1915,   4.30031681,  -4.52082491,  -7.36569548
   1916,   4.18967438,   -5.1608057,  -7.24057484
   1917,   4.03144979,  -4.75229359,  -6.41450262
   1918,   4.25792599,  -4.82570267,  -7.34693384
   1919,   4.13788843,  -4.60354853,  -6.76313829
   1920,   4.09098577,  -4.55679274,  -6.55461216
   1921,   4.32090235,  -5.32790804,  -5.79530859
   1922,   4.35419607,  -4.82657957,  -5.68200445
   1923,   4.45072269,  -4.34192801,   -5.8271656
   1924,   4.58461761,   -4.0038147,  -6.19189548
   1925,   4.72000408,  -3.90283751,  -6.67846584
   1926,   4.35976219,  -5.71158266,   -6.1367178
   1927,   4.82060528,  -4.06605291,  -7.15649986
   1928,   4.85946512,  -4.44972754,  -7.49790907
   1929,    4.8261714,  -4.95105553,  -7.61121321
   1930,   4.72964478,  -5.43570757,  -7.46605206
   1931,   4.59574986,   -5.7738204,  -7.10132217
   1932,   4.46036339,  -5.87479782,  -6.61475182
   1933,   4.42946482,  -5.08001995,  -6.10386086
   1934,   4.60507965,  -5.08328152,   -6.8006525
   1935,   4.42032242,  -4.83001137,  -5.94544554
   1936,    4.4890275,  -4.57665014,  -6.09355831
   1937,   4.66511583,  -4.32644415,  -6.66830826
   1938,   4.67178726,  -4.75939751,  -6.90638113
   1939,   4.55123281,  -4.96869612,  -6.53147364
   1940,   4.46694231,  -5.30593872,  -6.36266851
   1941,   4.52941465,  -5.43767357,  -6.67437935
   1942,   4.59671116,  -5.48101425,  -6.96197033
   1943,   4.57796574,  -4.36972284,  -6.34447098
   1944,   4.73432589,  -4.42304707,   -6.9895134
   1945,   4.77939939,  -4.57999372,  -7.24467182
   1946,   4.66875553,  -5.21997499,   -7.1195507
   1947,   4.51053095,   -4.8114624,  -6.29347897
   1948,   4.73700809,  -4.88487101,  -7.22591019
   1949,   4.61697006,  -4.66271734,  -6.64211464
   1950,   4.57006741,  -4.61596155,   -6.4335885
   1951,    4.7999835,  -5.38707685,  -5.67428493
   1952,   4.83327723,  -4.88574839,  -5.56098127
   1953,   4.92980385,  -4.40109682,  -5.70614195
   1954,   5.06369877,  -4.06298351,  -6.07087231
   1955,   5.19908524,  -3.96200609,  -6.55744219
   1956,   4.83884335,    -5.770751,  -6.01569414
   1957,   5.29968643,  -4.12522125,  -7.03547621
   1958,   5.33854628,  -4.50889587,  -7.37688541
   1959,   5.30525255,  -5.01022434,  -7.49018955
   1960,   5.20872593,  -5.49487591,   -7.3450284
   1961,   5.07483101,  -5.83298922,  -6.98029852
   1962,   4.93944454,  -5.93396664,  -6.49372816
   1963,   4.90854549,  -5.13918924,  -5.98283768
   1964,    5.0841608,  -5.14245129,  -6.67962837
   1965,   4.89940357,  -4.88918066,  -5.82442236
   1966,   4.96810913,  -4.63581991,  -5.97253466
   1967,   5.14419842,  -4.38561249,  -6.54728413
   1968,   5.15086889,  -4.81856585,  -6.78535748
   1969,   5.03031349,  -5.02786589,  -6.41044998
   1970,   4.94602299,  -5.36510754,  -6.24164534
   1971,   5.00849533,  -5.49684286,  -6.55335569
   1972,   5.07579231,  -5.54018354,  -6.84094667
   1973,   5.05704737,  -4.42889166,   -6.2234478
   1974,   5.21340847,  -4.48221588,  -6.86848927
   1975,    5.2584815,  -4.63916254,  -7.12364769
   1976,   5.14783716,  -5.27914381,  -6.99852657
   1977,    4.9896121,  -4.87063122,  -6.17245531
   1978,   5.21608973,  -4.94403982,  -7.10488653
   1979,   5.09605217,  -4.72188616,  -6.52109051
   1980,   5.04914904,  -4.67513037,  -6.31256485
   1981,   5.27906418,  -5.44624519,  -5.55326176
   1982,    5.3123579,  -4.94491673,  -5.43995762
   1983,   5.40888453,  -4.46026516,  -5.58511877
   1984,   5.54277992,  -4.12215185,  -5.94984865
   1985,   5.67816639,  -4.02117491,  -6.43641901
   1986,   5.31792402,  -5.82991982,  -5.89467096
   1987,   5.77876759,  -4.18439007,  -6.91445303
   1988,   5.81762743,  -4.56806421,  -7.25586224
   1989,   5.78433371,  -5.06939268,   -7.3691659
   1990,   5.68780708,  -5.55404472,  -7.22400522
   1991,   5.55391216,  -5.89215755,  -6.85927486
   1992,    5.4185257,  -5.99313498,  -6.37270498
   1993,   5.38762569,  -5.19835806,   -5.8618145
   1994,   5.56324196,  -5.20162058,  -6.55860472
   1995,   5.37848425,    -4.948349,   -5.7033987
   1996,   5.44718981,  -4.69498825,    -5.851511
   1997,   5.62328053,   -4.4447813,  -6.42626095
   1998,     5.629951,  -4.87773418,   -6.6643343
   1999,   5.50939512,  -5.08703518,  -6.28942585
   2000,   5.42510271,  -5.42427683,  -6.12062168
   2001,   5.48757553,  -5.55601168,  -6.43233252
   2002,   5.55487251,  -5.59935236,  -6.71992302
   2003,   5.53612947,     -4.48806,  -6.10242367
   2004,   5.69249105,   -4.5413847,  -6.74746609
   2005,   5.73756409,  -4.69833088,  -7.00262451
   2006,   5.62691832,   -5.3383131,   -6.8775034
   2007,    5.4686923,  -4.92979956,  -6.05143213
   2008,   5.69517183,  -5.00320816,  -6.98386288
   2009,   5.57513332,  -4.78105497,  -6.40006733
   2010,   5.52823067,  -4.73429871,  -6.19154119
   2011,   5.75814533,  -5.50541401,   -5.4322381
   2012,   5.79143906,  -5.00408554,  -5.31893396
   2013,   5.88796568,  -4.51943398,  -5.46409512
   2014,    6.0218606,  -4.18132067,    -5.828825
   2015,   6.15724707,  -4.08034325,  -6.31539536
   2016,   5.79700518,  -5.88908815,  -5.77364731
   2017,   6.25784826,  -4.24355841,  -6.79342937
   2018,   6.29670858,  -4.62723303,  -7.13483858
   2019,   6.26341438,   -5.1285615,  -7.24814272
   2020,   6.16688824,  -5.61321306,  -7.10298157
   2021,   6.03299284,  -5.95132637,  -6.73825169
   2022,   5.89760637,  -6.05230379,  -6.25168133
   2023,   5.86670637,  -5.25752687,  -5.74079037
   2024,   6.04232264,  -5.26078987,  -6.43758059
   2025,   5.85756445,  -5.00751781,  -5.58237505
   2026,   5.92627096,  -4.75415754,  -5.73048687
   2027,   6.10236263,  -4.50395012,  -6.30523682
   2028,   6.10903215,    -4.936903,  -6.54331017
   2029,    5.9884758,  -5.14620447,  -6.16840172
   2030,   5.90418339,  -5.48344564,  -5.99959803
   2031,   5.96665621,  -5.61518049,  -6.31130886
   2032,   6.03395319,  -5.65852118,  -6.59889984
   2033,   6.01521111,  -4.54722881,  -5.98140001
   2034,   6.17157269,  -4.60055304,  -6.62644148
   2035,   6.21664619,  -4.75750017,   -6.8815999
   2036,   6.10599947,  -5.39748192,  -6.75647926
   2037,   5.94777346,  -4.98896885,    -5.930408
   2038,   6.17425346,  -5.06237698,  -6.86283875
   2039,   6.05421495,  -4.84022427,   -6.2790432
   2040,    6.0073123,    -4.793468,  -6.07051706
   2041,   6.23722649,  -5.56458235,  -5.31121445
   2042,   6.27052021,  -5.06325388,  -5.19791079
   2043,   6.36704683,  -4.57860231,  -5.34307146
   2044,   6.50094175,  -4.24048901,  -5.70780182
   2045,   6.63632822,  -4.13951206,   -6.1943717
   2046,   6.27608633,  -5.94825697,  -5.65262365
   2047,   6.73692942,  -4.30272722,  -6.67240572
   2048,   6.77578926,  -4.68640137,  -7.01381493
   2049,   6.74249554,  -5.18772984,  -7.12711906
   2050,   6.64596891,  -5.67238188,  -6.98195791
   2051,   6.51207399,  -6.01049471,  -6.61722803
   2052,   6.37668753,  -6.11147213,  -6.13065815
   2053,   6.34579229,  -5.31667519,  -5.61977959
   2054,   6.52141619,  -5.31991053,   -6.3165822
   2055,   6.33665085,   -5.0666728,   -5.4613657
   2056,   6.40535831,  -4.81330633,  -5.60947752
   2057,   6.58144331,  -4.56312513,  -6.18421125
   2058,   6.58811331,  -4.99606991,  -6.42228222
   2059,   6.46756983,  -5.20532656,   -6.0474062
   2060,   6.38327122,  -5.54258728,  -5.87859058
   2061,   6.44574213,  -5.67432833,  -6.19029665
   2062,   6.51303816,  -5.71766949,  -6.47788239
   2063,   6.49429512,  -4.60639381,  -5.86038208
   2064,   6.65065527,  -4.65971994,  -6.50541687
   2065,   6.69572878,  -4.81666231,  -6.76057386
   2066,    6.5850873,  -5.45662498,  -6.63546896
   2067,   6.42685938,  -5.04812479,  -5.80939579
   2068,   6.65333557,  -5.12154388,  -6.74181366
   2069,   6.53330231,   -4.8993721,  -6.15803194
   2070,   6.48639822,  -4.85262394,  -5.94950342
*Element, type=EC3D8R
   1,   36,   31,   43,   50,    6,    1,   13,   20
   2,   50,   43,   57,   49,   20,   13,   27,   19
   3,   31,   32,   45,   43,    1,    2,   15,   13
   4,   33,   46,   45,   32,    3,   16,   15,    2
   5,   47,   59,   60,   53,   17,   29,   30,   23
   6,   49,   59,   48,   44,   19,   29,   18,   14
   7,   49,   44,   51,   50,   19,   14,   21,   20
   8,   54,   48,   59,   47,   24,   18,   29,   17
   9,   60,   57,   46,   53,   30,   27,   16,   23
  10,   44,   56,   52,   51,   14,   26,   22,   21
  11,   41,   42,   51,   52,   11,   12,   21,   22
  12,   33,   34,   53,   46,    3,    4,   23,   16
  13,   53,   34,   35,   47,   23,    4,    5,   17
  14,   35,   37,   54,   47,    5,    7,   24,   17
  15,   54,   37,   38,   55,   24,    7,    8,   25
  16,   55,   38,   39,   58,   25,    8,    9,   28
  17,   59,   49,   57,   60,   29,   19,   27,   30
  18,   42,   36,   50,   51,   12,    6,   20,   21
  19,   52,   56,   40,   41,   22,   26,   10,   11
  20,   54,   55,   58,   48,   24,   25,   28,   18
  21,   58,   39,   40,   56,   28,    9,   10,   26
  22,   58,   56,   44,   48,   28,   26,   14,   18
  23,   57,   43,   45,   46,   27,   13,   15,   16
  24,   66,   61,   73,   80,   36,   31,   43,   50
  25,   80,   73,   87,   79,   50,   43,   57,   49
  26,   61,   62,   75,   73,   31,   32,   45,   43
  27,   63,   76,   75,   62,   33,   46,   45,   32
  28,   77,   89,   90,   83,   47,   59,   60,   53
  29,   79,   89,   78,   74,   49,   59,   48,   44
  30,   79,   74,   81,   80,   49,   44,   51,   50
  31,   84,   78,   89,   77,   54,   48,   59,   47
  32,   90,   87,   76,   83,   60,   57,   46,   53
  33,   74,   86,   82,   81,   44,   56,   52,   51
  34,   71,   72,   81,   82,   41,   42,   51,   52
  35,   63,   64,   83,   76,   33,   34,   53,   46
  36,   83,   64,   65,   77,   53,   34,   35,   47
  37,   65,   67,   84,   77,   35,   37,   54,   47
  38,   84,   67,   68,   85,   54,   37,   38,   55
  39,   85,   68,   69,   88,   55,   38,   39,   58
  40,   89,   79,   87,   90,   59,   49,   57,   60
  41,   72,   66,   80,   81,   42,   36,   50,   51
  42,   82,   86,   70,   71,   52,   56,   40,   41
  43,   84,   85,   88,   78,   54,   55,   58,   48
  44,   88,   69,   70,   86,   58,   39,   40,   56
  45,   88,   86,   74,   78,   58,   56,   44,   48
  46,   87,   73,   75,   76,   57,   43,   45,   46
  47,   96,   91,  103,  110,   66,   61,   73,   80
  48,  110,  103,  117,  109,   80,   73,   87,   79
  49,   91,   92,  105,  103,   61,   62,   75,   73
  50,   93,  106,  105,   92,   63,   76,   75,   62
  51,  107,  119,  120,  113,   77,   89,   90,   83
  52,  109,  119,  108,  104,   79,   89,   78,   74
  53,  109,  104,  111,  110,   79,   74,   81,   80
  54,  114,  108,  119,  107,   84,   78,   89,   77
  55,  120,  117,  106,  113,   90,   87,   76,   83
  56,  104,  116,  112,  111,   74,   86,   82,   81
  57,  101,  102,  111,  112,   71,   72,   81,   82
  58,   93,   94,  113,  106,   63,   64,   83,   76
  59,  113,   94,   95,  107,   83,   64,   65,   77
  60,   95,   97,  114,  107,   65,   67,   84,   77
  61,  114,   97,   98,  115,   84,   67,   68,   85
  62,  115,   98,   99,  118,   85,   68,   69,   88
  63,  119,  109,  117,  120,   89,   79,   87,   90
  64,  102,   96,  110,  111,   72,   66,   80,   81
  65,  112,  116,  100,  101,   82,   86,   70,   71
  66,  114,  115,  118,  108,   84,   85,   88,   78
  67,  118,   99,  100,  116,   88,   69,   70,   86
  68,  118,  116,  104,  108,   88,   86,   74,   78
  69,  117,  103,  105,  106,   87,   73,   75,   76
  70,  126,  121,  133,  140,   96,   91,  103,  110
  71,  140,  133,  147,  139,  110,  103,  117,  109
  72,  121,  122,  135,  133,   91,   92,  105,  103
  73,  123,  136,  135,  122,   93,  106,  105,   92
  74,  137,  149,  150,  143,  107,  119,  120,  113
  75,  139,  149,  138,  134,  109,  119,  108,  104
  76,  139,  134,  141,  140,  109,  104,  111,  110
  77,  144,  138,  149,  137,  114,  108,  119,  107
  78,  150,  147,  136,  143,  120,  117,  106,  113
  79,  134,  146,  142,  141,  104,  116,  112,  111
  80,  131,  132,  141,  142,  101,  102,  111,  112
  81,  123,  124,  143,  136,   93,   94,  113,  106
  82,  143,  124,  125,  137,  113,   94,   95,  107
  83,  125,  127,  144,  137,   95,   97,  114,  107
  84,  144,  127,  128,  145,  114,   97,   98,  115
  85,  145,  128,  129,  148,  115,   98,   99,  118
  86,  149,  139,  147,  150,  119,  109,  117,  120
  87,  132,  126,  140,  141,  102,   96,  110,  111
  88,  142,  146,  130,  131,  112,  116,  100,  101
  89,  144,  145,  148,  138,  114,  115,  118,  108
  90,  148,  129,  130,  146,  118,   99,  100,  116
  91,  148,  146,  134,  138,  118,  116,  104,  108
  92,  147,  133,  135,  136,  117,  103,  105,  106
  93,  156,  151,  163,  170,  126,  121,  133,  140
  94,  170,  163,  177,  169,  140,  133,  147,  139
  95,  151,  152,  165,  163,  121,  122,  135,  133
  96,  153,  166,  165,  152,  123,  136,  135,  122
  97,  167,  179,  180,  173,  137,  149,  150,  143
  98,  169,  179,  168,  164,  139,  149,  138,  134
  99,  169,  164,  171,  170,  139,  134,  141,  140
 100,  174,  168,  179,  167,  144,  138,  149,  137
 101,  180,  177,  166,  173,  150,  147,  136,  143
 102,  164,  176,  172,  171,  134,  146,  142,  141
 103,  161,  162,  171,  172,  131,  132,  141,  142
 104,  153,  154,  173,  166,  123,  124,  143,  136
 105,  173,  154,  155,  167,  143,  124,  125,  137
 106,  155,  157,  174,  167,  125,  127,  144,  137
 107,  174,  157,  158,  175,  144,  127,  128,  145
 108,  175,  158,  159,  178,  145,  128,  129,  148
 109,  179,  169,  177,  180,  149,  139,  147,  150
 110,  162,  156,  170,  171,  132,  126,  140,  141
 111,  172,  176,  160,  161,  142,  146,  130,  131
 112,  174,  175,  178,  168,  144,  145,  148,  138
 113,  178,  159,  160,  176,  148,  129,  130,  146
 114,  178,  176,  164,  168,  148,  146,  134,  138
 115,  177,  163,  165,  166,  147,  133,  135,  136
 116,  186,  181,  193,  200,  156,  151,  163,  170
 117,  200,  193,  207,  199,  170,  163,  177,  169
 118,  181,  182,  195,  193,  151,  152,  165,  163
 119,  183,  196,  195,  182,  153,  166,  165,  152
 120,  197,  209,  210,  203,  167,  179,  180,  173
 121,  199,  209,  198,  194,  169,  179,  168,  164
 122,  199,  194,  201,  200,  169,  164,  171,  170
 123,  204,  198,  209,  197,  174,  168,  179,  167
 124,  210,  207,  196,  203,  180,  177,  166,  173
 125,  194,  206,  202,  201,  164,  176,  172,  171
 126,  191,  192,  201,  202,  161,  162,  171,  172
 127,  183,  184,  203,  196,  153,  154,  173,  166
 128,  203,  184,  185,  197,  173,  154,  155,  167
 129,  185,  187,  204,  197,  155,  157,  174,  167
 130,  204,  187,  188,  205,  174,  157,  158,  175
 131,  205,  188,  189,  208,  175,  158,  159,  178
 132,  209,  199,  207,  210,  179,  169,  177,  180
 133,  192,  186,  200,  201,  162,  156,  170,  171
 134,  202,  206,  190,  191,  172,  176,  160,  161
 135,  204,  205,  208,  198,  174,  175,  178,  168
 136,  208,  189,  190,  206,  178,  159,  160,  176
 137,  208,  206,  194,  198,  178,  176,  164,  168
 138,  207,  193,  195,  196,  177,  163,  165,  166
 139,  216,  211,  223,  230,  186,  181,  193,  200
 140,  230,  223,  237,  229,  200,  193,  207,  199
 141,  211,  212,  225,  223,  181,  182,  195,  193
 142,  213,  226,  225,  212,  183,  196,  195,  182
 143,  227,  239,  240,  233,  197,  209,  210,  203
 144,  229,  239,  228,  224,  199,  209,  198,  194
 145,  229,  224,  231,  230,  199,  194,  201,  200
 146,  234,  228,  239,  227,  204,  198,  209,  197
 147,  240,  237,  226,  233,  210,  207,  196,  203
 148,  224,  236,  232,  231,  194,  206,  202,  201
 149,  221,  222,  231,  232,  191,  192,  201,  202
 150,  213,  214,  233,  226,  183,  184,  203,  196
 151,  233,  214,  215,  227,  203,  184,  185,  197
 152,  215,  217,  234,  227,  185,  187,  204,  197
 153,  234,  217,  218,  235,  204,  187,  188,  205
 154,  235,  218,  219,  238,  205,  188,  189,  208
 155,  239,  229,  237,  240,  209,  199,  207,  210
 156,  222,  216,  230,  231,  192,  186,  200,  201
 157,  232,  236,  220,  221,  202,  206,  190,  191
 158,  234,  235,  238,  228,  204,  205,  208,  198
 159,  238,  219,  220,  236,  208,  189,  190,  206
 160,  238,  236,  224,  228,  208,  206,  194,  198
 161,  237,  223,  225,  226,  207,  193,  195,  196
 162,  246,  241,  253,  260,  216,  211,  223,  230
 163,  260,  253,  267,  259,  230,  223,  237,  229
 164,  241,  242,  255,  253,  211,  212,  225,  223
 165,  243,  256,  255,  242,  213,  226,  225,  212
 166,  257,  269,  270,  263,  227,  239,  240,  233
 167,  259,  269,  258,  254,  229,  239,  228,  224
 168,  259,  254,  261,  260,  229,  224,  231,  230
 169,  264,  258,  269,  257,  234,  228,  239,  227
 170,  270,  267,  256,  263,  240,  237,  226,  233
 171,  254,  266,  262,  261,  224,  236,  232,  231
 172,  251,  252,  261,  262,  221,  222,  231,  232
 173,  243,  244,  263,  256,  213,  214,  233,  226
 174,  263,  244,  245,  257,  233,  214,  215,  227
 175,  245,  247,  264,  257,  215,  217,  234,  227
 176,  264,  247,  248,  265,  234,  217,  218,  235
 177,  265,  248,  249,  268,  235,  218,  219,  238
 178,  269,  259,  267,  270,  239,  229,  237,  240
 179,  252,  246,  260,  261,  222,  216,  230,  231
 180,  262,  266,  250,  251,  232,  236,  220,  221
 181,  264,  265,  268,  258,  234,  235,  238,  228
 182,  268,  249,  250,  266,  238,  219,  220,  236
 183,  268,  266,  254,  258,  238,  236,  224,  228
 184,  267,  253,  255,  256,  237,  223,  225,  226
 185,  276,  271,  283,  290,  246,  241,  253,  260
 186,  290,  283,  297,  289,  260,  253,  267,  259
 187,  271,  272,  285,  283,  241,  242,  255,  253
 188,  273,  286,  285,  272,  243,  256,  255,  242
 189,  287,  299,  300,  293,  257,  269,  270,  263
 190,  289,  299,  288,  284,  259,  269,  258,  254
 191,  289,  284,  291,  290,  259,  254,  261,  260
 192,  294,  288,  299,  287,  264,  258,  269,  257
 193,  300,  297,  286,  293,  270,  267,  256,  263
 194,  284,  296,  292,  291,  254,  266,  262,  261
 195,  281,  282,  291,  292,  251,  252,  261,  262
 196,  273,  274,  293,  286,  243,  244,  263,  256
 197,  293,  274,  275,  287,  263,  244,  245,  257
 198,  275,  277,  294,  287,  245,  247,  264,  257
 199,  294,  277,  278,  295,  264,  247,  248,  265
 200,  295,  278,  279,  298,  265,  248,  249,  268
 201,  299,  289,  297,  300,  269,  259,  267,  270
 202,  282,  276,  290,  291,  252,  246,  260,  261
 203,  292,  296,  280,  281,  262,  266,  250,  251
 204,  294,  295,  298,  288,  264,  265,  268,  258
 205,  298,  279,  280,  296,  268,  249,  250,  266
 206,  298,  296,  284,  288,  268,  266,  254,  258
 207,  297,  283,  285,  286,  267,  253,  255,  256
 208,  306,  301,  313,  320,  276,  271,  283,  290
 209,  320,  313,  327,  319,  290,  283,  297,  289
 210,  301,  302,  315,  313,  271,  272,  285,  283
 211,  303,  316,  315,  302,  273,  286,  285,  272
 212,  317,  329,  330,  323,  287,  299,  300,  293
 213,  319,  329,  318,  314,  289,  299,  288,  284
 214,  319,  314,  321,  320,  289,  284,  291,  290
 215,  324,  318,  329,  317,  294,  288,  299,  287
 216,  330,  327,  316,  323,  300,  297,  286,  293
 217,  314,  326,  322,  321,  284,  296,  292,  291
 218,  311,  312,  321,  322,  281,  282,  291,  292
 219,  303,  304,  323,  316,  273,  274,  293,  286
 220,  323,  304,  305,  317,  293,  274,  275,  287
 221,  305,  307,  324,  317,  275,  277,  294,  287
 222,  324,  307,  308,  325,  294,  277,  278,  295
 223,  325,  308,  309,  328,  295,  278,  279,  298
 224,  329,  319,  327,  330,  299,  289,  297,  300
 225,  312,  306,  320,  321,  282,  276,  290,  291
 226,  322,  326,  310,  311,  292,  296,  280,  281
 227,  324,  325,  328,  318,  294,  295,  298,  288
 228,  328,  309,  310,  326,  298,  279,  280,  296
 229,  328,  326,  314,  318,  298,  296,  284,  288
 230,  327,  313,  315,  316,  297,  283,  285,  286
 231,  336,  331,  343,  350,  306,  301,  313,  320
 232,  350,  343,  357,  349,  320,  313,  327,  319
 233,  331,  332,  345,  343,  301,  302,  315,  313
 234,  333,  346,  345,  332,  303,  316,  315,  302
 235,  347,  359,  360,  353,  317,  329,  330,  323
 236,  349,  359,  348,  344,  319,  329,  318,  314
 237,  349,  344,  351,  350,  319,  314,  321,  320
 238,  354,  348,  359,  347,  324,  318,  329,  317
 239,  360,  357,  346,  353,  330,  327,  316,  323
 240,  344,  356,  352,  351,  314,  326,  322,  321
 241,  341,  342,  351,  352,  311,  312,  321,  322
 242,  333,  334,  353,  346,  303,  304,  323,  316
 243,  353,  334,  335,  347,  323,  304,  305,  317
 244,  335,  337,  354,  347,  305,  307,  324,  317
 245,  354,  337,  338,  355,  324,  307,  308,  325
 246,  355,  338,  339,  358,  325,  308,  309,  328
 247,  359,  349,  357,  360,  329,  319,  327,  330
 248,  342,  336,  350,  351,  312,  306,  320,  321
 249,  352,  356,  340,  341,  322,  326,  310,  311
 250,  354,  355,  358,  348,  324,  325,  328,  318
 251,  358,  339,  340,  356,  328,  309,  310,  326
 252,  358,  356,  344,  348,  328,  326,  314,  318
 253,  357,  343,  345,  346,  327,  313,  315,  316
 254,  366,  361,  373,  380,  336,  331,  343,  350
 255,  380,  373,  387,  379,  350,  343,  357,  349
 256,  361,  362,  375,  373,  331,  332,  345,  343
 257,  363,  376,  375,  362,  333,  346,  345,  332
 258,  377,  389,  390,  383,  347,  359,  360,  353
 259,  379,  389,  378,  374,  349,  359,  348,  344
 260,  379,  374,  381,  380,  349,  344,  351,  350
 261,  384,  378,  389,  377,  354,  348,  359,  347
 262,  390,  387,  376,  383,  360,  357,  346,  353
 263,  374,  386,  382,  381,  344,  356,  352,  351
 264,  371,  372,  381,  382,  341,  342,  351,  352
 265,  363,  364,  383,  376,  333,  334,  353,  346
 266,  383,  364,  365,  377,  353,  334,  335,  347
 267,  365,  367,  384,  377,  335,  337,  354,  347
 268,  384,  367,  368,  385,  354,  337,  338,  355
 269,  385,  368,  369,  388,  355,  338,  339,  358
 270,  389,  379,  387,  390,  359,  349,  357,  360
 271,  372,  366,  380,  381,  342,  336,  350,  351
 272,  382,  386,  370,  371,  352,  356,  340,  341
 273,  384,  385,  388,  378,  354,  355,  358,  348
 274,  388,  369,  370,  386,  358,  339,  340,  356
 275,  388,  386,  374,  378,  358,  356,  344,  348
 276,  387,  373,  375,  376,  357,  343,  345,  346
 277,  396,  391,  403,  410,  366,  361,  373,  380
 278,  410,  403,  417,  409,  380,  373,  387,  379
 279,  391,  392,  405,  403,  361,  362,  375,  373
 280,  393,  406,  405,  392,  363,  376,  375,  362
 281,  407,  419,  420,  413,  377,  389,  390,  383
 282,  409,  419,  408,  404,  379,  389,  378,  374
 283,  409,  404,  411,  410,  379,  374,  381,  380
 284,  414,  408,  419,  407,  384,  378,  389,  377
 285,  420,  417,  406,  413,  390,  387,  376,  383
 286,  404,  416,  412,  411,  374,  386,  382,  381
 287,  401,  402,  411,  412,  371,  372,  381,  382
 288,  393,  394,  413,  406,  363,  364,  383,  376
 289,  413,  394,  395,  407,  383,  364,  365,  377
 290,  395,  397,  414,  407,  365,  367,  384,  377
 291,  414,  397,  398,  415,  384,  367,  368,  385
 292,  415,  398,  399,  418,  385,  368,  369,  388
 293,  419,  409,  417,  420,  389,  379,  387,  390
 294,  402,  396,  410,  411,  372,  366,  380,  381
 295,  412,  416,  400,  401,  382,  386,  370,  371
 296,  414,  415,  418,  408,  384,  385,  388,  378
 297,  418,  399,  400,  416,  388,  369,  370,  386
 298,  418,  416,  404,  408,  388,  386,  374,  378
 299,  417,  403,  405,  406,  387,  373,  375,  376
 300,  426,  421,  433,  440,  396,  391,  403,  410
 301,  440,  433,  447,  439,  410,  403,  417,  409
 302,  421,  422,  435,  433,  391,  392,  405,  403
 303,  423,  436,  435,  422,  393,  406,  405,  392
 304,  437,  449,  450,  443,  407,  419,  420,  413
 305,  439,  449,  438,  434,  409,  419,  408,  404
 306,  439,  434,  441,  440,  409,  404,  411,  410
 307,  444,  438,  449,  437,  414,  408,  419,  407
 308,  450,  447,  436,  443,  420,  417,  406,  413
 309,  434,  446,  442,  441,  404,  416,  412,  411
 310,  431,  432,  441,  442,  401,  402,  411,  412
 311,  423,  424,  443,  436,  393,  394,  413,  406
 312,  443,  424,  425,  437,  413,  394,  395,  407
 313,  425,  427,  444,  437,  395,  397,  414,  407
 314,  444,  427,  428,  445,  414,  397,  398,  415
 315,  445,  428,  429,  448,  415,  398,  399,  418
 316,  449,  439,  447,  450,  419,  409,  417,  420
 317,  432,  426,  440,  441,  402,  396,  410,  411
 318,  442,  446,  430,  431,  412,  416,  400,  401
 319,  444,  445,  448,  438,  414,  415,  418,  408
 320,  448,  429,  430,  446,  418,  399,  400,  416
 321,  448,  446,  434,  438,  418,  416,  404,  408
 322,  447,  433,  435,  436,  417,  403,  405,  406
 323,  456,  451,  463,  470,  426,  421,  433,  440
 324,  470,  463,  477,  469,  440,  433,  447,  439
 325,  451,  452,  465,  463,  421,  422,  435,  433
 326,  453,  466,  465,  452,  423,  436,  435,  422
 327,  467,  479,  480,  473,  437,  449,  450,  443
 328,  469,  479,  468,  464,  439,  449,  438,  434
 329,  469,  464,  471,  470,  439,  434,  441,  440
 330,  474,  468,  479,  467,  444,  438,  449,  437
 331,  480,  477,  466,  473,  450,  447,  436,  443
 332,  464,  476,  472,  471,  434,  446,  442,  441
 333,  461,  462,  471,  472,  431,  432,  441,  442
 334,  453,  454,  473,  466,  423,  424,  443,  436
 335,  473,  454,  455,  467,  443,  424,  425,  437
 336,  455,  457,  474,  467,  425,  427,  444,  437
 337,  474,  457,  458,  475,  444,  427,  428,  445
 338,  475,  458,  459,  478,  445,  428,  429,  448
 339,  479,  469,  477,  480,  449,  439,  447,  450
 340,  462,  456,  470,  471,  432,  426,  440,  441
 341,  472,  476,  460,  461,  442,  446,  430,  431
 342,  474,  475,  478,  468,  444,  445,  448,  438
 343,  478,  459,  460,  476,  448,  429,  430,  446
 344,  478,  476,  464,  468,  448,  446,  434,  438
 345,  477,  463,  465,  466,  447,  433,  435,  436
 346,  486,  481,  493,  500,  456,  451,  463,  470
 347,  500,  493,  507,  499,  470,  463,  477,  469
 348,  481,  482,  495,  493,  451,  452,  465,  463
 349,  483,  496,  495,  482,  453,  466,  465,  452
 350,  497,  509,  510,  503,  467,  479,  480,  473
 351,  499,  509,  498,  494,  469,  479,  468,  464
 352,  499,  494,  501,  500,  469,  464,  471,  470
 353,  504,  498,  509,  497,  474,  468,  479,  467
 354,  510,  507,  496,  503,  480,  477,  466,  473
 355,  494,  506,  502,  501,  464,  476,  472,  471
 356,  491,  492,  501,  502,  461,  462,  471,  472
 357,  483,  484,  503,  496,  453,  454,  473,  466
 358,  503,  484,  485,  497,  473,  454,  455,  467
 359,  485,  487,  504,  497,  455,  457,  474,  467
 360,  504,  487,  488,  505,  474,  457,  458,  475
 361,  505,  488,  489,  508,  475,  458,  459,  478
 362,  509,  499,  507,  510,  479,  469,  477,  480
 363,  492,  486,  500,  501,  462,  456,  470,  471
 364,  502,  506,  490,  491,  472,  476,  460,  461
 365,  504,  505,  508,  498,  474,  475,  478,  468
 366,  508,  489,  490,  506,  478,  459,  460,  476
 367,  508,  506,  494,  498,  478,  476,  464,  468
 368,  507,  493,  495,  496,  477,  463,  465,  466
 369,  516,  511,  523,  530,  486,  481,  493,  500
 370,  530,  523,  537,  529,  500,  493,  507,  499
 371,  511,  512,  525,  523,  481,  482,  495,  493
 372,  513,  526,  525,  512,  483,  496,  495,  482
 373,  527,  539,  540,  533,  497,  509,  510,  503
 374,  529,  539,  528,  524,  499,  509,  498,  494
 375,  529,  524,  531,  530,  499,  494,  501,  500
 376,  534,  528,  539,  527,  504,  498,  509,  497
 377,  540,  537,  526,  533,  510,  507,  496,  503
 378,  524,  536,  532,  531,  494,  506,  502,  501
 379,  521,  522,  531,  532,  491,  492,  501,  502
 380,  513,  514,  533,  526,  483,  484,  503,  496
 381,  533,  514,  515,  527,  503,  484,  485,  497
 382,  515,  517,  534,  527,  485,  487,  504,  497
 383,  534,  517,  518,  535,  504,  487,  488,  505
 384,  535,  518,  519,  538,  505,  488,  489,  508
 385,  539,  529,  537,  540,  509,  499,  507,  510
 386,  522,  516,  530,  531,  492,  486,  500,  501
 387,  532,  536,  520,  521,  502,  506,  490,  491
 388,  534,  535,  538,  528,  504,  505,  508,  498
 389,  538,  519,  520,  536,  508,  489,  490,  506
 390,  538,  536,  524,  528,  508,  506,  494,  498
 391,  537,  523,  525,  526,  507,  493,  495,  496
 392,  546,  541,  553,  560,  516,  511,  523,  530
 393,  560,  553,  567,  559,  530,  523,  537,  529
 394,  541,  542,  555,  553,  511,  512,  525,  523
 395,  543,  556,  555,  542,  513,  526,  525,  512
 396,  557,  569,  570,  563,  527,  539,  540,  533
 397,  559,  569,  558,  554,  529,  539,  528,  524
 398,  559,  554,  561,  560,  529,  524,  531,  530
 399,  564,  558,  569,  557,  534,  528,  539,  527
 400,  570,  567,  556,  563,  540,  537,  526,  533
 401,  554,  566,  562,  561,  524,  536,  532,  531
 402,  551,  552,  561,  562,  521,  522,  531,  532
 403,  543,  544,  563,  556,  513,  514,  533,  526
 404,  563,  544,  545,  557,  533,  514,  515,  527
 405,  545,  547,  564,  557,  515,  517,  534,  527
 406,  564,  547,  548,  565,  534,  517,  518,  535
 407,  565,  548,  549,  568,  535,  518,  519,  538
 408,  569,  559,  567,  570,  539,  529,  537,  540
 409,  552,  546,  560,  561,  522,  516,  530,  531
 410,  562,  566,  550,  551,  532,  536,  520,  521
 411,  564,  565,  568,  558,  534,  535,  538,  528
 412,  568,  549,  550,  566,  538,  519,  520,  536
 413,  568,  566,  554,  558,  538,  536,  524,  528
 414,  567,  553,  555,  556,  537,  523,  525,  526
 415,  576,  571,  583,  590,  546,  541,  553,  560
 416,  590,  583,  597,  589,  560,  553,  567,  559
 417,  571,  572,  585,  583,  541,  542,  555,  553
 418,  573,  586,  585,  572,  543,  556,  555,  542
 419,  587,  599,  600,  593,  557,  569,  570,  563
 420,  589,  599,  588,  584,  559,  569,  558,  554
 421,  589,  584,  591,  590,  559,  554,  561,  560
 422,  594,  588,  599,  587,  564,  558,  569,  557
 423,  600,  597,  586,  593,  570,  567,  556,  563
 424,  584,  596,  592,  591,  554,  566,  562,  561
 425,  581,  582,  591,  592,  551,  552,  561,  562
 426,  573,  574,  593,  586,  543,  544,  563,  556
 427,  593,  574,  575,  587,  563,  544,  545,  557
 428,  575,  577,  594,  587,  545,  547,  564,  557
 429,  594,  577,  578,  595,  564,  547,  548,  565
 430,  595,  578,  579,  598,  565,  548,  549,  568
 431,  599,  589,  597,  600,  569,  559,  567,  570
 432,  582,  576,  590,  591,  552,  546,  560,  561
 433,  592,  596,  580,  581,  562,  566,  550,  551
 434,  594,  595,  598,  588,  564,  565,  568,  558
 435,  598,  579,  580,  596,  568,  549,  550,  566
 436,  598,  596,  584,  588,  568,  566,  554,  558
 437,  597,  583,  585,  586,  567,  553,  555,  556
 438,  606,  601,  613,  620,  576,  571,  583,  590
 439,  620,  613,  627,  619,  590,  583,  597,  589
 440,  601,  602,  615,  613,  571,  572,  585,  583
 441,  603,  616,  615,  602,  573,  586,  585,  572
 442,  617,  629,  630,  623,  587,  599,  600,  593
 443,  619,  629,  618,  614,  589,  599,  588,  584
 444,  619,  614,  621,  620,  589,  584,  591,  590
 445,  624,  618,  629,  617,  594,  588,  599,  587
 446,  630,  627,  616,  623,  600,  597,  586,  593
 447,  614,  626,  622,  621,  584,  596,  592,  591
 448,  611,  612,  621,  622,  581,  582,  591,  592
 449,  603,  604,  623,  616,  573,  574,  593,  586
 450,  623,  604,  605,  617,  593,  574,  575,  587
 451,  605,  607,  624,  617,  575,  577,  594,  587
 452,  624,  607,  608,  625,  594,  577,  578,  595
 453,  625,  608,  609,  628,  595,  578,  579,  598
 454,  629,  619,  627,  630,  599,  589,  597,  600
 455,  612,  606,  620,  621,  582,  576,  590,  591
 456,  622,  626,  610,  611,  592,  596,  580,  581
 457,  624,  625,  628,  618,  594,  595,  598,  588
 458,  628,  609,  610,  626,  598,  579,  580,  596
 459,  628,  626,  614,  618,  598,  596,  584,  588
 460,  627,  613,  615,  616,  597,  583,  585,  586
 461,  636,  631,  643,  650,  606,  601,  613,  620
 462,  650,  643,  657,  649,  620,  613,  627,  619
 463,  631,  632,  645,  643,  601,  602,  615,  613
 464,  633,  646,  645,  632,  603,  616,  615,  602
 465,  647,  659,  660,  653,  617,  629,  630,  623
 466,  649,  659,  648,  644,  619,  629,  618,  614
 467,  649,  644,  651,  650,  619,  614,  621,  620
 468,  654,  648,  659,  647,  624,  618,  629,  617
 469,  660,  657,  646,  653,  630,  627,  616,  623
 470,  644,  656,  652,  651,  614,  626,  622,  621
 471,  641,  642,  651,  652,  611,  612,  621,  622
 472,  633,  634,  653,  646,  603,  604,  623,  616
 473,  653,  634,  635,  647,  623,  604,  605,  617
 474,  635,  637,  654,  647,  605,  607,  624,  617
 475,  654,  637,  638,  655,  624,  607,  608,  625
 476,  655,  638,  639,  658,  625,  608,  609,  628
 477,  659,  649,  657,  660,  629,  619,  627,  630
 478,  642,  636,  650,  651,  612,  606,  620,  621
 479,  652,  656,  640,  641,  622,  626,  610,  611
 480,  654,  655,  658,  648,  624,  625,  628,  618
 481,  658,  639,  640,  656,  628,  609,  610,  626
 482,  658,  656,  644,  648,  628,  626,  614,  618
 483,  657,  643,  645,  646,  627,  613,  615,  616
 484,  666,  661,  673,  680,  636,  631,  643,  650
 485,  680,  673,  687,  679,  650,  643,  657,  649
 486,  661,  662,  675,  673,  631,  632,  645,  643
 487,  663,  676,  675,  662,  633,  646,  645,  632
 488,  677,  689,  690,  683,  647,  659,  660,  653
 489,  679,  689,  678,  674,  649,  659,  648,  644
 490,  679,  674,  681,  680,  649,  644,  651,  650
 491,  684,  678,  689,  677,  654,  648,  659,  647
 492,  690,  687,  676,  683,  660,  657,  646,  653
 493,  674,  686,  682,  681,  644,  656,  652,  651
 494,  671,  672,  681,  682,  641,  642,  651,  652
 495,  663,  664,  683,  676,  633,  634,  653,  646
 496,  683,  664,  665,  677,  653,  634,  635,  647
 497,  665,  667,  684,  677,  635,  637,  654,  647
 498,  684,  667,  668,  685,  654,  637,  638,  655
 499,  685,  668,  669,  688,  655,  638,  639,  658
 500,  689,  679,  687,  690,  659,  649,  657,  660
 501,  672,  666,  680,  681,  642,  636,  650,  651
 502,  682,  686,  670,  671,  652,  656,  640,  641
 503,  684,  685,  688,  678,  654,  655,  658,  648
 504,  688,  669,  670,  686,  658,  639,  640,  656
 505,  688,  686,  674,  678,  658,  656,  644,  648
 506,  687,  673,  675,  676,  657,  643,  645,  646
 507,  696,  691,  703,  710,  666,  661,  673,  680
 508,  710,  703,  717,  709,  680,  673,  687,  679
 509,  691,  692,  705,  703,  661,  662,  675,  673
 510,  693,  706,  705,  692,  663,  676,  675,  662
 511,  707,  719,  720,  713,  677,  689,  690,  683
 512,  709,  719,  708,  704,  679,  689,  678,  674
 513,  709,  704,  711,  710,  679,  674,  681,  680
 514,  714,  708,  719,  707,  684,  678,  689,  677
 515,  720,  717,  706,  713,  690,  687,  676,  683
 516,  704,  716,  712,  711,  674,  686,  682,  681
 517,  701,  702,  711,  712,  671,  672,  681,  682
 518,  693,  694,  713,  706,  663,  664,  683,  676
 519,  713,  694,  695,  707,  683,  664,  665,  677
 520,  695,  697,  714,  707,  665,  667,  684,  677
 521,  714,  697,  698,  715,  684,  667,  668,  685
 522,  715,  698,  699,  718,  685,  668,  669,  688
 523,  719,  709,  717,  720,  689,  679,  687,  690
 524,  702,  696,  710,  711,  672,  666,  680,  681
 525,  712,  716,  700,  701,  682,  686,  670,  671
 526,  714,  715,  718,  708,  684,  685,  688,  678
 527,  718,  699,  700,  716,  688,  669,  670,  686
 528,  718,  716,  704,  708,  688,  686,  674,  678
 529,  717,  703,  705,  706,  687,  673,  675,  676
 530,  726,  721,  733,  740,  696,  691,  703,  710
 531,  740,  733,  747,  739,  710,  703,  717,  709
 532,  721,  722,  735,  733,  691,  692,  705,  703
 533,  723,  736,  735,  722,  693,  706,  705,  692
 534,  737,  749,  750,  743,  707,  719,  720,  713
 535,  739,  749,  738,  734,  709,  719,  708,  704
 536,  739,  734,  741,  740,  709,  704,  711,  710
 537,  744,  738,  749,  737,  714,  708,  719,  707
 538,  750,  747,  736,  743,  720,  717,  706,  713
 539,  734,  746,  742,  741,  704,  716,  712,  711
 540,  731,  732,  741,  742,  701,  702,  711,  712
 541,  723,  724,  743,  736,  693,  694,  713,  706
 542,  743,  724,  725,  737,  713,  694,  695,  707
 543,  725,  727,  744,  737,  695,  697,  714,  707
 544,  744,  727,  728,  745,  714,  697,  698,  715
 545,  745,  728,  729,  748,  715,  698,  699,  718
 546,  749,  739,  747,  750,  719,  709,  717,  720
 547,  732,  726,  740,  741,  702,  696,  710,  711
 548,  742,  746,  730,  731,  712,  716,  700,  701
 549,  744,  745,  748,  738,  714,  715,  718,  708
 550,  748,  729,  730,  746,  718,  699,  700,  716
 551,  748,  746,  734,  738,  718,  716,  704,  708
 552,  747,  733,  735,  736,  717,  703,  705,  706
 553,  756,  751,  763,  770,  726,  721,  733,  740
 554,  770,  763,  777,  769,  740,  733,  747,  739
 555,  751,  752,  765,  763,  721,  722,  735,  733
 556,  753,  766,  765,  752,  723,  736,  735,  722
 557,  767,  779,  780,  773,  737,  749,  750,  743
 558,  769,  779,  768,  764,  739,  749,  738,  734
 559,  769,  764,  771,  770,  739,  734,  741,  740
 560,  774,  768,  779,  767,  744,  738,  749,  737
 561,  780,  777,  766,  773,  750,  747,  736,  743
 562,  764,  776,  772,  771,  734,  746,  742,  741
 563,  761,  762,  771,  772,  731,  732,  741,  742
 564,  753,  754,  773,  766,  723,  724,  743,  736
 565,  773,  754,  755,  767,  743,  724,  725,  737
 566,  755,  757,  774,  767,  725,  727,  744,  737
 567,  774,  757,  758,  775,  744,  727,  728,  745
 568,  775,  758,  759,  778,  745,  728,  729,  748
 569,  779,  769,  777,  780,  749,  739,  747,  750
 570,  762,  756,  770,  771,  732,  726,  740,  741
 571,  772,  776,  760,  761,  742,  746,  730,  731
 572,  774,  775,  778,  768,  744,  745,  748,  738
 573,  778,  759,  760,  776,  748,  729,  730,  746
 574,  778,  776,  764,  768,  748,  746,  734,  738
 575,  777,  763,  765,  766,  747,  733,  735,  736
 576,  786,  781,  793,  800,  756,  751,  763,  770
 577,  800,  793,  807,  799,  770,  763,  777,  769
 578,  781,  782,  795,  793,  751,  752,  765,  763
 579,  783,  796,  795,  782,  753,  766,  765,  752
 580,  797,  809,  810,  803,  767,  779,  780,  773
 581,  799,  809,  798,  794,  769,  779,  768,  764
 582,  799,  794,  801,  800,  769,  764,  771,  770
 583,  804,  798,  809,  797,  774,  768,  779,  767
 584,  810,  807,  796,  803,  780,  777,  766,  773
 585,  794,  806,  802,  801,  764,  776,  772,  771
 586,  791,  792,  801,  802,  761,  762,  771,  772
 587,  783,  784,  803,  796,  753,  754,  773,  766
 588,  803,  784,  785,  797,  773,  754,  755,  767
 589,  785,  787,  804,  797,  755,  757,  774,  767
 590,  804,  787,  788,  805,  774,  757,  758,  775
 591,  805,  788,  789,  808,  775,  758,  759,  778
 592,  809,  799,  807,  810,  779,  769,  777,  780
 593,  792,  786,  800,  801,  762,  756,  770,  771
 594,  802,  806,  790,  791,  772,  776,  760,  761
 595,  804,  805,  808,  798,  774,  775,  778,  768
 596,  808,  789,  790,  806,  778,  759,  760,  776
 597,  808,  806,  794,  798,  778,  776,  764,  768
 598,  807,  793,  795,  796,  777,  763,  765,  766
 599,  816,  811,  823,  830,  786,  781,  793,  800
 600,  830,  823,  837,  829,  800,  793,  807,  799
 601,  811,  812,  825,  823,  781,  782,  795,  793
 602,  813,  826,  825,  812,  783,  796,  795,  782
 603,  827,  839,  840,  833,  797,  809,  810,  803
 604,  829,  839,  828,  824,  799,  809,  798,  794
 605,  829,  824,  831,  830,  799,  794,  801,  800
 606,  834,  828,  839,  827,  804,  798,  809,  797
 607,  840,  837,  826,  833,  810,  807,  796,  803
 608,  824,  836,  832,  831,  794,  806,  802,  801
 609,  821,  822,  831,  832,  791,  792,  801,  802
 610,  813,  814,  833,  826,  783,  784,  803,  796
 611,  833,  814,  815,  827,  803,  784,  785,  797
 612,  815,  817,  834,  827,  785,  787,  804,  797
 613,  834,  817,  818,  835,  804,  787,  788,  805
 614,  835,  818,  819,  838,  805,  788,  789,  808
 615,  839,  829,  837,  840,  809,  799,  807,  810
 616,  822,  816,  830,  831,  792,  786,  800,  801
 617,  832,  836,  820,  821,  802,  806,  790,  791
 618,  834,  835,  838,  828,  804,  805,  808,  798
 619,  838,  819,  820,  836,  808,  789,  790,  806
 620,  838,  836,  824,  828,  808,  806,  794,  798
 621,  837,  823,  825,  826,  807,  793,  795,  796
 622,  846,  841,  853,  860,  816,  811,  823,  830
 623,  860,  853,  867,  859,  830,  823,  837,  829
 624,  841,  842,  855,  853,  811,  812,  825,  823
 625,  843,  856,  855,  842,  813,  826,  825,  812
 626,  857,  869,  870,  863,  827,  839,  840,  833
 627,  859,  869,  858,  854,  829,  839,  828,  824
 628,  859,  854,  861,  860,  829,  824,  831,  830
 629,  864,  858,  869,  857,  834,  828,  839,  827
 630,  870,  867,  856,  863,  840,  837,  826,  833
 631,  854,  866,  862,  861,  824,  836,  832,  831
 632,  851,  852,  861,  862,  821,  822,  831,  832
 633,  843,  844,  863,  856,  813,  814,  833,  826
 634,  863,  844,  845,  857,  833,  814,  815,  827
 635,  845,  847,  864,  857,  815,  817,  834,  827
 636,  864,  847,  848,  865,  834,  817,  818,  835
 637,  865,  848,  849,  868,  835,  818,  819,  838
 638,  869,  859,  867,  870,  839,  829,  837,  840
 639,  852,  846,  860,  861,  822,  816,  830,  831
 640,  862,  866,  850,  851,  832,  836,  820,  821
 641,  864,  865,  868,  858,  834,  835,  838,  828
 642,  868,  849,  850,  866,  838,  819,  820,  836
 643,  868,  866,  854,  858,  838,  836,  824,  828
 644,  867,  853,  855,  856,  837,  823,  825,  826
 645,  876,  871,  883,  890,  846,  841,  853,  860
 646,  890,  883,  897,  889,  860,  853,  867,  859
 647,  871,  872,  885,  883,  841,  842,  855,  853
 648,  873,  886,  885,  872,  843,  856,  855,  842
 649,  887,  899,  900,  893,  857,  869,  870,  863
 650,  889,  899,  888,  884,  859,  869,  858,  854
 651,  889,  884,  891,  890,  859,  854,  861,  860
 652,  894,  888,  899,  887,  864,  858,  869,  857
 653,  900,  897,  886,  893,  870,  867,  856,  863
 654,  884,  896,  892,  891,  854,  866,  862,  861
 655,  881,  882,  891,  892,  851,  852,  861,  862
 656,  873,  874,  893,  886,  843,  844,  863,  856
 657,  893,  874,  875,  887,  863,  844,  845,  857
 658,  875,  877,  894,  887,  845,  847,  864,  857
 659,  894,  877,  878,  895,  864,  847,  848,  865
 660,  895,  878,  879,  898,  865,  848,  849,  868
 661,  899,  889,  897,  900,  869,  859,  867,  870
 662,  882,  876,  890,  891,  852,  846,  860,  861
 663,  892,  896,  880,  881,  862,  866,  850,  851
 664,  894,  895,  898,  888,  864,  865,  868,  858
 665,  898,  879,  880,  896,  868,  849,  850,  866
 666,  898,  896,  884,  888,  868,  866,  854,  858
 667,  897,  883,  885,  886,  867,  853,  855,  856
 668,  906,  901,  913,  920,  876,  871,  883,  890
 669,  920,  913,  927,  919,  890,  883,  897,  889
 670,  901,  902,  915,  913,  871,  872,  885,  883
 671,  903,  916,  915,  902,  873,  886,  885,  872
 672,  917,  929,  930,  923,  887,  899,  900,  893
 673,  919,  929,  918,  914,  889,  899,  888,  884
 674,  919,  914,  921,  920,  889,  884,  891,  890
 675,  924,  918,  929,  917,  894,  888,  899,  887
 676,  930,  927,  916,  923,  900,  897,  886,  893
 677,  914,  926,  922,  921,  884,  896,  892,  891
 678,  911,  912,  921,  922,  881,  882,  891,  892
 679,  903,  904,  923,  916,  873,  874,  893,  886
 680,  923,  904,  905,  917,  893,  874,  875,  887
 681,  905,  907,  924,  917,  875,  877,  894,  887
 682,  924,  907,  908,  925,  894,  877,  878,  895
 683,  925,  908,  909,  928,  895,  878,  879,  898
 684,  929,  919,  927,  930,  899,  889,  897,  900
 685,  912,  906,  920,  921,  882,  876,  890,  891
 686,  922,  926,  910,  911,  892,  896,  880,  881
 687,  924,  925,  928,  918,  894,  895,  898,  888
 688,  928,  909,  910,  926,  898,  879,  880,  896
 689,  928,  926,  914,  918,  898,  896,  884,  888
 690,  927,  913,  915,  916,  897,  883,  885,  886
 691,  936,  931,  943,  950,  906,  901,  913,  920
 692,  950,  943,  957,  949,  920,  913,  927,  919
 693,  931,  932,  945,  943,  901,  902,  915,  913
 694,  933,  946,  945,  932,  903,  916,  915,  902
 695,  947,  959,  960,  953,  917,  929,  930,  923
 696,  949,  959,  948,  944,  919,  929,  918,  914
 697,  949,  944,  951,  950,  919,  914,  921,  920
 698,  954,  948,  959,  947,  924,  918,  929,  917
 699,  960,  957,  946,  953,  930,  927,  916,  923
 700,  944,  956,  952,  951,  914,  926,  922,  921
 701,  941,  942,  951,  952,  911,  912,  921,  922
 702,  933,  934,  953,  946,  903,  904,  923,  916
 703,  953,  934,  935,  947,  923,  904,  905,  917
 704,  935,  937,  954,  947,  905,  907,  924,  917
 705,  954,  937,  938,  955,  924,  907,  908,  925
 706,  955,  938,  939,  958,  925,  908,  909,  928
 707,  959,  949,  957,  960,  929,  919,  927,  930
 708,  942,  936,  950,  951,  912,  906,  920,  921
 709,  952,  956,  940,  941,  922,  926,  910,  911
 710,  954,  955,  958,  948,  924,  925,  928,  918
 711,  958,  939,  940,  956,  928,  909,  910,  926
 712,  958,  956,  944,  948,  928,  926,  914,  918
 713,  957,  943,  945,  946,  927,  913,  915,  916
 714,  966,  961,  973,  980,  936,  931,  943,  950
 715,  980,  973,  987,  979,  950,  943,  957,  949
 716,  961,  962,  975,  973,  931,  932,  945,  943
 717,  963,  976,  975,  962,  933,  946,  945,  932
 718,  977,  989,  990,  983,  947,  959,  960,  953
 719,  979,  989,  978,  974,  949,  959,  948,  944
 720,  979,  974,  981,  980,  949,  944,  951,  950
 721,  984,  978,  989,  977,  954,  948,  959,  947
 722,  990,  987,  976,  983,  960,  957,  946,  953
 723,  974,  986,  982,  981,  944,  956,  952,  951
 724,  971,  972,  981,  982,  941,  942,  951,  952
 725,  963,  964,  983,  976,  933,  934,  953,  946
 726,  983,  964,  965,  977,  953,  934,  935,  947
 727,  965,  967,  984,  977,  935,  937,  954,  947
 728,  984,  967,  968,  985,  954,  937,  938,  955
 729,  985,  968,  969,  988,  955,  938,  939,  958
 730,  989,  979,  987,  990,  959,  949,  957,  960
 731,  972,  966,  980,  981,  942,  936,  950,  951
 732,  982,  986,  970,  971,  952,  956,  940,  941
 733,  984,  985,  988,  978,  954,  955,  958,  948
 734,  988,  969,  970,  986,  958,  939,  940,  956
 735,  988,  986,  974,  978,  958,  956,  944,  948
 736,  987,  973,  975,  976,  957,  943,  945,  946
 737,  996,  991, 1003, 1010,  966,  961,  973,  980
 738, 1010, 1003, 1017, 1009,  980,  973,  987,  979
 739,  991,  992, 1005, 1003,  961,  962,  975,  973
 740,  993, 1006, 1005,  992,  963,  976,  975,  962
 741, 1007, 1019, 1020, 1013,  977,  989,  990,  983
 742, 1009, 1019, 1008, 1004,  979,  989,  978,  974
 743, 1009, 1004, 1011, 1010,  979,  974,  981,  980
 744, 1014, 1008, 1019, 1007,  984,  978,  989,  977
 745, 1020, 1017, 1006, 1013,  990,  987,  976,  983
 746, 1004, 1016, 1012, 1011,  974,  986,  982,  981
 747, 1001, 1002, 1011, 1012,  971,  972,  981,  982
 748,  993,  994, 1013, 1006,  963,  964,  983,  976
 749, 1013,  994,  995, 1007,  983,  964,  965,  977
 750,  995,  997, 1014, 1007,  965,  967,  984,  977
 751, 1014,  997,  998, 1015,  984,  967,  968,  985
 752, 1015,  998,  999, 1018,  985,  968,  969,  988
 753, 1019, 1009, 1017, 1020,  989,  979,  987,  990
 754, 1002,  996, 1010, 1011,  972,  966,  980,  981
 755, 1012, 1016, 1000, 1001,  982,  986,  970,  971
 756, 1014, 1015, 1018, 1008,  984,  985,  988,  978
 757, 1018,  999, 1000, 1016,  988,  969,  970,  986
 758, 1018, 1016, 1004, 1008,  988,  986,  974,  978
 759, 1017, 1003, 1005, 1006,  987,  973,  975,  976
 760, 1026, 1021, 1033, 1040,  996,  991, 1003, 1010
 761, 1040, 1033, 1047, 1039, 1010, 1003, 1017, 1009
 762, 1021, 1022, 1035, 1033,  991,  992, 1005, 1003
 763, 1023, 1036, 1035, 1022,  993, 1006, 1005,  992
 764, 1037, 1049, 1050, 1043, 1007, 1019, 1020, 1013
 765, 1039, 1049, 1038, 1034, 1009, 1019, 1008, 1004
 766, 1039, 1034, 1041, 1040, 1009, 1004, 1011, 1010
 767, 1044, 1038, 1049, 1037, 1014, 1008, 1019, 1007
 768, 1050, 1047, 1036, 1043, 1020, 1017, 1006, 1013
 769, 1034, 1046, 1042, 1041, 1004, 1016, 1012, 1011
 770, 1031, 1032, 1041, 1042, 1001, 1002, 1011, 1012
 771, 1023, 1024, 1043, 1036,  993,  994, 1013, 1006
 772, 1043, 1024, 1025, 1037, 1013,  994,  995, 1007
 773, 1025, 1027, 1044, 1037,  995,  997, 1014, 1007
 774, 1044, 1027, 1028, 1045, 1014,  997,  998, 1015
 775, 1045, 1028, 1029, 1048, 1015,  998,  999, 1018
 776, 1049, 1039, 1047, 1050, 1019, 1009, 1017, 1020
 777, 1032, 1026, 1040, 1041, 1002,  996, 1010, 1011
 778, 1042, 1046, 1030, 1031, 1012, 1016, 1000, 1001
 779, 1044, 1045, 1048, 1038, 1014, 1015, 1018, 1008
 780, 1048, 1029, 1030, 1046, 1018,  999, 1000, 1016
 781, 1048, 1046, 1034, 1038, 1018, 1016, 1004, 1008
 782, 1047, 1033, 1035, 1036, 1017, 1003, 1005, 1006
 783, 1056, 1051, 1063, 1070, 1026, 1021, 1033, 1040
 784, 1070, 1063, 1077, 1069, 1040, 1033, 1047, 1039
 785, 1051, 1052, 1065, 1063, 1021, 1022, 1035, 1033
 786, 1053, 1066, 1065, 1052, 1023, 1036, 1035, 1022
 787, 1067, 1079, 1080, 1073, 1037, 1049, 1050, 1043
 788, 1069, 1079, 1068, 1064, 1039, 1049, 1038, 1034
 789, 1069, 1064, 1071, 1070, 1039, 1034, 1041, 1040
 790, 1074, 1068, 1079, 1067, 1044, 1038, 1049, 1037
 791, 1080, 1077, 1066, 1073, 1050, 1047, 1036, 1043
 792, 1064, 1076, 1072, 1071, 1034, 1046, 1042, 1041
 793, 1061, 1062, 1071, 1072, 1031, 1032, 1041, 1042
 794, 1053, 1054, 1073, 1066, 1023, 1024, 1043, 1036
 795, 1073, 1054, 1055, 1067, 1043, 1024, 1025, 1037
 796, 1055, 1057, 1074, 1067, 1025, 1027, 1044, 1037
 797, 1074, 1057, 1058, 1075, 1044, 1027, 1028, 1045
 798, 1075, 1058, 1059, 1078, 1045, 1028, 1029, 1048
 799, 1079, 1069, 1077, 1080, 1049, 1039, 1047, 1050
 800, 1062, 1056, 1070, 1071, 1032, 1026, 1040, 1041
 801, 1072, 1076, 1060, 1061, 1042, 1046, 1030, 1031
 802, 1074, 1075, 1078, 1068, 1044, 1045, 1048, 1038
 803, 1078, 1059, 1060, 1076, 1048, 1029, 1030, 1046
 804, 1078, 1076, 1064, 1068, 1048, 1046, 1034, 1038
 805, 1077, 1063, 1065, 1066, 1047, 1033, 1035, 1036
 806, 1086, 1081, 1093, 1100, 1056, 1051, 1063, 1070
 807, 1100, 1093, 1107, 1099, 1070, 1063, 1077, 1069
 808, 1081, 1082, 1095, 1093, 1051, 1052, 1065, 1063
 809, 1083, 1096, 1095, 1082, 1053, 1066, 1065, 1052
 810, 1097, 1109, 1110, 1103, 1067, 1079, 1080, 1073
 811, 1099, 1109, 1098, 1094, 1069, 1079, 1068, 1064
 812, 1099, 1094, 1101, 1100, 1069, 1064, 1071, 1070
 813, 1104, 1098, 1109, 1097, 1074, 1068, 1079, 1067
 814, 1110, 1107, 1096, 1103, 1080, 1077, 1066, 1073
 815, 1094, 1106, 1102, 1101, 1064, 1076, 1072, 1071
 816, 1091, 1092, 1101, 1102, 1061, 1062, 1071, 1072
 817, 1083, 1084, 1103, 1096, 1053, 1054, 1073, 1066
 818, 1103, 1084, 1085, 1097, 1073, 1054, 1055, 1067
 819, 1085, 1087, 1104, 1097, 1055, 1057, 1074, 1067
 820, 1104, 1087, 1088, 1105, 1074, 1057, 1058, 1075
 821, 1105, 1088, 1089, 1108, 1075, 1058, 1059, 1078
 822, 1109, 1099, 1107, 1110, 1079, 1069, 1077, 1080
 823, 1092, 1086, 1100, 1101, 1062, 1056, 1070, 1071
 824, 1102, 1106, 1090, 1091, 1072, 1076, 1060, 1061
 825, 1104, 1105, 1108, 1098, 1074, 1075, 1078, 1068
 826, 1108, 1089, 1090, 1106, 1078, 1059, 1060, 1076
 827, 1108, 1106, 1094, 1098, 1078, 1076, 1064, 1068
 828, 1107, 1093, 1095, 1096, 1077, 1063, 1065, 1066
 829, 1116, 1111, 1123, 1130, 1086, 1081, 1093, 1100
 830, 1130, 1123, 1137, 1129, 1100, 1093, 1107, 1099
 831, 1111, 1112, 1125, 1123, 1081, 1082, 1095, 1093
 832, 1113, 1126, 1125, 1112, 1083, 1096, 1095, 1082
 833, 1127, 1139, 1140, 1133, 1097, 1109, 1110, 1103
 834, 1129, 1139, 1128, 1124, 1099, 1109, 1098, 1094
 835, 1129, 1124, 1131, 1130, 1099, 1094, 1101, 1100
 836, 1134, 1128, 1139, 1127, 1104, 1098, 1109, 1097
 837, 1140, 1137, 1126, 1133, 1110, 1107, 1096, 1103
 838, 1124, 1136, 1132, 1131, 1094, 1106, 1102, 1101
 839, 1121, 1122, 1131, 1132, 1091, 1092, 1101, 1102
 840, 1113, 1114, 1133, 1126, 1083, 1084, 1103, 1096
 841, 1133, 1114, 1115, 1127, 1103, 1084, 1085, 1097
 842, 1115, 1117, 1134, 1127, 1085, 1087, 1104, 1097
 843, 1134, 1117, 1118, 1135, 1104, 1087, 1088, 1105
 844, 1135, 1118, 1119, 1138, 1105, 1088, 1089, 1108
 845, 1139, 1129, 1137, 1140, 1109, 1099, 1107, 1110
 846, 1122, 1116, 1130, 1131, 1092, 1086, 1100, 1101
 847, 1132, 1136, 1120, 1121, 1102, 1106, 1090, 1091
 848, 1134, 1135, 1138, 1128, 1104, 1105, 1108, 1098
 849, 1138, 1119, 1120, 1136, 1108, 1089, 1090, 1106
 850, 1138, 1136, 1124, 1128, 1108, 1106, 1094, 1098
 851, 1137, 1123, 1125, 1126, 1107, 1093, 1095, 1096
 852, 1146, 1141, 1153, 1160, 1116, 1111, 1123, 1130
 853, 1160, 1153, 1167, 1159, 1130, 1123, 1137, 1129
 854, 1141, 1142, 1155, 1153, 1111, 1112, 1125, 1123
 855, 1143, 1156, 1155, 1142, 1113, 1126, 1125, 1112
 856, 1157, 1169, 1170, 1163, 1127, 1139, 1140, 1133
 857, 1159, 1169, 1158, 1154, 1129, 1139, 1128, 1124
 858, 1159, 1154, 1161, 1160, 1129, 1124, 1131, 1130
 859, 1164, 1158, 1169, 1157, 1134, 1128, 1139, 1127
 860, 1170, 1167, 1156, 1163, 1140, 1137, 1126, 1133
 861, 1154, 1166, 1162, 1161, 1124, 1136, 1132, 1131
 862, 1151, 1152, 1161, 1162, 1121, 1122, 1131, 1132
 863, 1143, 1144, 1163, 1156, 1113, 1114, 1133, 1126
 864, 1163, 1144, 1145, 1157, 1133, 1114, 1115, 1127
 865, 1145, 1147, 1164, 1157, 1115, 1117, 1134, 1127
 866, 1164, 1147, 1148, 1165, 1134, 1117, 1118, 1135
 867, 1165, 1148, 1149, 1168, 1135, 1118, 1119, 1138
 868, 1169, 1159, 1167, 1170, 1139, 1129, 1137, 1140
 869, 1152, 1146, 1160, 1161, 1122, 1116, 1130, 1131
 870, 1162, 1166, 1150, 1151, 1132, 1136, 1120, 1121
 871, 1164, 1165, 1168, 1158, 1134, 1135, 1138, 1128
 872, 1168, 1149, 1150, 1166, 1138, 1119, 1120, 1136
 873, 1168, 1166, 1154, 1158, 1138, 1136, 1124, 1128
 874, 1167, 1153, 1155, 1156, 1137, 1123, 1125, 1126
 875, 1176, 1171, 1183, 1190, 1146, 1141, 1153, 1160
 876, 1190, 1183, 1197, 1189, 1160, 1153, 1167, 1159
 877, 1171, 1172, 1185, 1183, 1141, 1142, 1155, 1153
 878, 1173, 1186, 1185, 1172, 1143, 1156, 1155, 1142
 879, 1187, 1199, 1200, 1193, 1157, 1169, 1170, 1163
 880, 1189, 1199, 1188, 1184, 1159, 1169, 1158, 1154
 881, 1189, 1184, 1191, 1190, 1159, 1154, 1161, 1160
 882, 1194, 1188, 1199, 1187, 1164, 1158, 1169, 1157
 883, 1200, 1197, 1186, 1193, 1170, 1167, 1156, 1163
 884, 1184, 1196, 1192, 1191, 1154, 1166, 1162, 1161
 885, 1181, 1182, 1191, 1192, 1151, 1152, 1161, 1162
 886, 1173, 1174, 1193, 1186, 1143, 1144, 1163, 1156
 887, 1193, 1174, 1175, 1187, 1163, 1144, 1145, 1157
 888, 1175, 1177, 1194, 1187, 1145, 1147, 1164, 1157
 889, 1194, 1177, 1178, 1195, 1164, 1147, 1148, 1165
 890, 1195, 1178, 1179, 1198, 1165, 1148, 1149, 1168
 891, 1199, 1189, 1197, 1200, 1169, 1159, 1167, 1170
 892, 1182, 1176, 1190, 1191, 1152, 1146, 1160, 1161
 893, 1192, 1196, 1180, 1181, 1162, 1166, 1150, 1151
 894, 1194, 1195, 1198, 1188, 1164, 1165, 1168, 1158
 895, 1198, 1179, 1180, 1196, 1168, 1149, 1150, 1166
 896, 1198, 1196, 1184, 1188, 1168, 1166, 1154, 1158
 897, 1197, 1183, 1185, 1186, 1167, 1153, 1155, 1156
 898, 1206, 1201, 1213, 1220, 1176, 1171, 1183, 1190
 899, 1220, 1213, 1227, 1219, 1190, 1183, 1197, 1189
 900, 1201, 1202, 1215, 1213, 1171, 1172, 1185, 1183
 901, 1203, 1216, 1215, 1202, 1173, 1186, 1185, 1172
 902, 1217, 1229, 1230, 1223, 1187, 1199, 1200, 1193
 903, 1219, 1229, 1218, 1214, 1189, 1199, 1188, 1184
 904, 1219, 1214, 1221, 1220, 1189, 1184, 1191, 1190
 905, 1224, 1218, 1229, 1217, 1194, 1188, 1199, 1187
 906, 1230, 1227, 1216, 1223, 1200, 1197, 1186, 1193
 907, 1214, 1226, 1222, 1221, 1184, 1196, 1192, 1191
 908, 1211, 1212, 1221, 1222, 1181, 1182, 1191, 1192
 909, 1203, 1204, 1223, 1216, 1173, 1174, 1193, 1186
 910, 1223, 1204, 1205, 1217, 1193, 1174, 1175, 1187
 911, 1205, 1207, 1224, 1217, 1175, 1177, 1194, 1187
 912, 1224, 1207, 1208, 1225, 1194, 1177, 1178, 1195
 913, 1225, 1208, 1209, 1228, 1195, 1178, 1179, 1198
 914, 1229, 1219, 1227, 1230, 1199, 1189, 1197, 1200
 915, 1212, 1206, 1220, 1221, 1182, 1176, 1190, 1191
 916, 1222, 1226, 1210, 1211, 1192, 1196, 1180, 1181
 917, 1224, 1225, 1228, 1218, 1194, 1195, 1198, 1188
 918, 1228, 1209, 1210, 1226, 1198, 1179, 1180, 1196
 919, 1228, 1226, 1214, 1218, 1198, 1196, 1184, 1188
 920, 1227, 1213, 1215, 1216, 1197, 1183, 1185, 1186
 921, 1236, 1231, 1243, 1250, 1206, 1201, 1213, 1220
 922, 1250, 1243, 1257, 1249, 1220, 1213, 1227, 1219
 923, 1231, 1232, 1245, 1243, 1201, 1202, 1215, 1213
 924, 1233, 1246, 1245, 1232, 1203, 1216, 1215, 1202
 925, 1247, 1259, 1260, 1253, 1217, 1229, 1230, 1223
 926, 1249, 1259, 1248, 1244, 1219, 1229, 1218, 1214
 927, 1249, 1244, 1251, 1250, 1219, 1214, 1221, 1220
 928, 1254, 1248, 1259, 1247, 1224, 1218, 1229, 1217
 929, 1260, 1257, 1246, 1253, 1230, 1227, 1216, 1223
 930, 1244, 1256, 1252, 1251, 1214, 1226, 1222, 1221
 931, 1241, 1242, 1251, 1252, 1211, 1212, 1221, 1222
 932, 1233, 1234, 1253, 1246, 1203, 1204, 1223, 1216
 933, 1253, 1234, 1235, 1247, 1223, 1204, 1205, 1217
 934, 1235, 1237, 1254, 1247, 1205, 1207, 1224, 1217
 935, 1254, 1237, 1238, 1255, 1224, 1207, 1208, 1225
 936, 1255, 1238, 1239, 1258, 1225, 1208, 1209, 1228
 937, 1259, 1249, 1257, 1260, 1229, 1219, 1227, 1230
 938, 1242, 1236, 1250, 1251, 1212, 1206, 1220, 1221
 939, 1252, 1256, 1240, 1241, 1222, 1226, 1210, 1211
 940, 1254, 1255, 1258, 1248, 1224, 1225, 1228, 1218
 941, 1258, 1239, 1240, 1256, 1228, 1209, 1210, 1226
 942, 1258, 1256, 1244, 1248, 1228, 1226, 1214, 1218
 943, 1257, 1243, 1245, 1246, 1227, 1213, 1215, 1216
 944, 1266, 1261, 1273, 1280, 1236, 1231, 1243, 1250
 945, 1280, 1273, 1287, 1279, 1250, 1243, 1257, 1249
 946, 1261, 1262, 1275, 1273, 1231, 1232, 1245, 1243
 947, 1263, 1276, 1275, 1262, 1233, 1246, 1245, 1232
 948, 1277, 1289, 1290, 1283, 1247, 1259, 1260, 1253
 949, 1279, 1289, 1278, 1274, 1249, 1259, 1248, 1244
 950, 1279, 1274, 1281, 1280, 1249, 1244, 1251, 1250
 951, 1284, 1278, 1289, 1277, 1254, 1248, 1259, 1247
 952, 1290, 1287, 1276, 1283, 1260, 1257, 1246, 1253
 953, 1274, 1286, 1282, 1281, 1244, 1256, 1252, 1251
 954, 1271, 1272, 1281, 1282, 1241, 1242, 1251, 1252
 955, 1263, 1264, 1283, 1276, 1233, 1234, 1253, 1246
 956, 1283, 1264, 1265, 1277, 1253, 1234, 1235, 1247
 957, 1265, 1267, 1284, 1277, 1235, 1237, 1254, 1247
 958, 1284, 1267, 1268, 1285, 1254, 1237, 1238, 1255
 959, 1285, 1268, 1269, 1288, 1255, 1238, 1239, 1258
 960, 1289, 1279, 1287, 1290, 1259, 1249, 1257, 1260
 961, 1272, 1266, 1280, 1281, 1242, 1236, 1250, 1251
 962, 1282, 1286, 1270, 1271, 1252, 1256, 1240, 1241
 963, 1284, 1285, 1288, 1278, 1254, 1255, 1258, 1248
 964, 1288, 1269, 1270, 1286, 1258, 1239, 1240, 1256
 965, 1288, 1286, 1274, 1278, 1258, 1256, 1244, 1248
 966, 1287, 1273, 1275, 1276, 1257, 1243, 1245, 1246
 967, 1296, 1291, 1303, 1310, 1266, 1261, 1273, 1280
 968, 1310, 1303, 1317, 1309, 1280, 1273, 1287, 1279
 969, 1291, 1292, 1305, 1303, 1261, 1262, 1275, 1273
 970, 1293, 1306, 1305, 1292, 1263, 1276, 1275, 1262
 971, 1307, 1319, 1320, 1313, 1277, 1289, 1290, 1283
 972, 1309, 1319, 1308, 1304, 1279, 1289, 1278, 1274
 973, 1309, 1304, 1311, 1310, 1279, 1274, 1281, 1280
 974, 1314, 1308, 1319, 1307, 1284, 1278, 1289, 1277
 975, 1320, 1317, 1306, 1313, 1290, 1287, 1276, 1283
 976, 1304, 1316, 1312, 1311, 1274, 1286, 1282, 1281
 977, 1301, 1302, 1311, 1312, 1271, 1272, 1281, 1282
 978, 1293, 1294, 1313, 1306, 1263, 1264, 1283, 1276
 979, 1313, 1294, 1295, 1307, 1283, 1264, 1265, 1277
 980, 1295, 1297, 1314, 1307, 1265, 1267, 1284, 1277
 981, 1314, 1297, 1298, 1315, 1284, 1267, 1268, 1285
 982, 1315, 1298, 1299, 1318, 1285, 1268, 1269, 1288
 983, 1319, 1309, 1317, 1320, 1289, 1279, 1287, 1290
 984, 1302, 1296, 1310, 1311, 1272, 1266, 1280, 1281
 985, 1312, 1316, 1300, 1301, 1282, 1286, 1270, 1271
 986, 1314, 1315, 1318, 1308, 1284, 1285, 1288, 1278
 987, 1318, 1299, 1300, 1316, 1288, 1269, 1270, 1286
 988, 1318, 1316, 1304, 1308, 1288, 1286, 1274, 1278
 989, 1317, 1303, 1305, 1306, 1287, 1273, 1275, 1276
 990, 1326, 1321, 1333, 1340, 1296, 1291, 1303, 1310
 991, 1340, 1333, 1347, 1339, 1310, 1303, 1317, 1309
 992, 1321, 1322, 1335, 1333, 1291, 1292, 1305, 1303
 993, 1323, 1336, 1335, 1322, 1293, 1306, 1305, 1292
 994, 1337, 1349, 1350, 1343, 1307, 1319, 1320, 1313
 995, 1339, 1349, 1338, 1334, 1309, 1319, 1308, 1304
 996, 1339, 1334, 1341, 1340, 1309, 1304, 1311, 1310
 997, 1344, 1338, 1349, 1337, 1314, 1308, 1319, 1307
 998, 1350, 1347, 1336, 1343, 1320, 1317, 1306, 1313
 999, 1334, 1346, 1342, 1341, 1304, 1316, 1312, 1311
1000, 1331, 1332, 1341, 1342, 1301, 1302, 1311, 1312
1001, 1323, 1324, 1343, 1336, 1293, 1294, 1313, 1306
1002, 1343, 1324, 1325, 1337, 1313, 1294, 1295, 1307
1003, 1325, 1327, 1344, 1337, 1295, 1297, 1314, 1307
1004, 1344, 1327, 1328, 1345, 1314, 1297, 1298, 1315
1005, 1345, 1328, 1329, 1348, 1315, 1298, 1299, 1318
1006, 1349, 1339, 1347, 1350, 1319, 1309, 1317, 1320
1007, 1332, 1326, 1340, 1341, 1302, 1296, 1310, 1311
1008, 1342, 1346, 1330, 1331, 1312, 1316, 1300, 1301
1009, 1344, 1345, 1348, 1338, 1314, 1315, 1318, 1308
1010, 1348, 1329, 1330, 1346, 1318, 1299, 1300, 1316
1011, 1348, 1346, 1334, 1338, 1318, 1316, 1304, 1308
1012, 1347, 1333, 1335, 1336, 1317, 1303, 1305, 1306
1013, 1356, 1351, 1363, 1370, 1326, 1321, 1333, 1340
1014, 1370, 1363, 1377, 1369, 1340, 1333, 1347, 1339
1015, 1351, 1352, 1365, 1363, 1321, 1322, 1335, 1333
1016, 1353, 1366, 1365, 1352, 1323, 1336, 1335, 1322
1017, 1367, 1379, 1380, 1373, 1337, 1349, 1350, 1343
1018, 1369, 1379, 1368, 1364, 1339, 1349, 1338, 1334
1019, 1369, 1364, 1371, 1370, 1339, 1334, 1341, 1340
1020, 1374, 1368, 1379, 1367, 1344, 1338, 1349, 1337
1021, 1380, 1377, 1366, 1373, 1350, 1347, 1336, 1343
1022, 1364, 1376, 1372, 1371, 1334, 1346, 1342, 1341
1023, 1361, 1362, 1371, 1372, 1331, 1332, 1341, 1342
1024, 1353, 1354, 1373, 1366, 1323, 1324, 1343, 1336
1025, 1373, 1354, 1355, 1367, 1343, 1324, 1325, 1337
1026, 1355, 1357, 1374, 1367, 1325, 1327, 1344, 1337
1027, 1374, 1357, 1358, 1375, 1344, 1327, 1328, 1345
1028, 1375, 1358, 1359, 1378, 1345, 1328, 1329, 1348
1029, 1379, 1369, 1377, 1380, 1349, 1339, 1347, 1350
1030, 1362, 1356, 1370, 1371, 1332, 1326, 1340, 1341
1031, 1372, 1376, 1360, 1361, 1342, 1346, 1330, 1331
1032, 1374, 1375, 1378, 1368, 1344, 1345, 1348, 1338
1033, 1378, 1359, 1360, 1376, 1348, 1329, 1330, 1346
1034, 1378, 1376, 1364, 1368, 1348, 1346, 1334, 1338
1035, 1377, 1363, 1365, 1366, 1347, 1333, 1335, 1336
1036, 1386, 1381, 1393, 1400, 1356, 1351, 1363, 1370
1037, 1400, 1393, 1407, 1399, 1370, 1363, 1377, 1369
1038, 1381, 1382, 1395, 1393, 1351, 1352, 1365, 1363
1039, 1383, 1396, 1395, 1382, 1353, 1366, 1365, 1352
1040, 1397, 1409, 1410, 1403, 1367, 1379, 1380, 1373
1041, 1399, 1409, 1398, 1394, 1369, 1379, 1368, 1364
1042, 1399, 1394, 1401, 1400, 1369, 1364, 1371, 1370
1043, 1404, 1398, 1409, 1397, 1374, 1368, 1379, 1367
1044, 1410, 1407, 1396, 1403, 1380, 1377, 1366, 1373
1045, 1394, 1406, 1402, 1401, 1364, 1376, 1372, 1371
1046, 1391, 1392, 1401, 1402, 1361, 1362, 1371, 1372
1047, 1383, 1384, 1403, 1396, 1353, 1354, 1373, 1366
1048, 1403, 1384, 1385, 1397, 1373, 1354, 1355, 1367
1049, 1385, 1387, 1404, 1397, 1355, 1357, 1374, 1367
1050, 1404, 1387, 1388, 1405, 1374, 1357, 1358, 1375
1051, 1405, 1388, 1389, 1408, 1375, 1358, 1359, 1378
1052, 1409, 1399, 1407, 1410, 1379, 1369, 1377, 1380
1053, 1392, 1386, 1400, 1401, 1362, 1356, 1370, 1371
1054, 1402, 1406, 1390, 1391, 1372, 1376, 1360, 1361
1055, 1404, 1405, 1408, 1398, 1374, 1375, 1378, 1368
1056, 1408, 1389, 1390, 1406, 1378, 1359, 1360, 1376
1057, 1408, 1406, 1394, 1398, 1378, 1376, 1364, 1368
1058, 1407, 1393, 1395, 1396, 1377, 1363, 1365, 1366
1059, 1416, 1411, 1423, 1430, 1386, 1381, 1393, 1400
1060, 1430, 1423, 1437, 1429, 1400, 1393, 1407, 1399
1061, 1411, 1412, 1425, 1423, 1381, 1382, 1395, 1393
1062, 1413, 1426, 1425, 1412, 1383, 1396, 1395, 1382
1063, 1427, 1439, 1440, 1433, 1397, 1409, 1410, 1403
1064, 1429, 1439, 1428, 1424, 1399, 1409, 1398, 1394
1065, 1429, 1424, 1431, 1430, 1399, 1394, 1401, 1400
1066, 1434, 1428, 1439, 1427, 1404, 1398, 1409, 1397
1067, 1440, 1437, 1426, 1433, 1410, 1407, 1396, 1403
1068, 1424, 1436, 1432, 1431, 1394, 1406, 1402, 1401
1069, 1421, 1422, 1431, 1432, 1391, 1392, 1401, 1402
1070, 1413, 1414, 1433, 1426, 1383, 1384, 1403, 1396
1071, 1433, 1414, 1415, 1427, 1403, 1384, 1385, 1397
1072, 1415, 1417, 1434, 1427, 1385, 1387, 1404, 1397
1073, 1434, 1417, 1418, 1435, 1404, 1387, 1388, 1405
1074, 1435, 1418, 1419, 1438, 1405, 1388, 1389, 1408
1075, 1439, 1429, 1437, 1440, 1409, 1399, 1407, 1410
1076, 1422, 1416, 1430, 1431, 1392, 1386, 1400, 1401
1077, 1432, 1436, 1420, 1421, 1402, 1406, 1390, 1391
1078, 1434, 1435, 1438, 1428, 1404, 1405, 1408, 1398
1079, 1438, 1419, 1420, 1436, 1408, 1389, 1390, 1406
1080, 1438, 1436, 1424, 1428, 1408, 1406, 1394, 1398
1081, 1437, 1423, 1425, 1426, 1407, 1393, 1395, 1396
1082, 1446, 1441, 1453, 1460, 1416, 1411, 1423, 1430
1083, 1460, 1453, 1467, 1459, 1430, 1423, 1437, 1429
1084, 1441, 1442, 1455, 1453, 1411, 1412, 1425, 1423
1085, 1443, 1456, 1455, 1442, 1413, 1426, 1425, 1412
1086, 1457, 1469, 1470, 1463, 1427, 1439, 1440, 1433
1087, 1459, 1469, 1458, 1454, 1429, 1439, 1428, 1424
1088, 1459, 1454, 1461, 1460, 1429, 1424, 1431, 1430
1089, 1464, 1458, 1469, 1457, 1434, 1428, 1439, 1427
1090, 1470, 1467, 1456, 1463, 1440, 1437, 1426, 1433
1091, 1454, 1466, 1462, 1461, 1424, 1436, 1432, 1431
1092, 1451, 1452, 1461, 1462, 1421, 1422, 1431, 1432
1093, 1443, 1444, 1463, 1456, 1413, 1414, 1433, 1426
1094, 1463, 1444, 1445, 1457, 1433, 1414, 1415, 1427
1095, 1445, 1447, 1464, 1457, 1415, 1417, 1434, 1427
1096, 1464, 1447, 1448, 1465, 1434, 1417, 1418, 1435
1097, 1465, 1448, 1449, 1468, 1435, 1418, 1419, 1438
1098, 1469, 1459, 1467, 1470, 1439, 1429, 1437, 1440
1099, 1452, 1446, 1460, 1461, 1422, 1416, 1430, 1431
1100, 1462, 1466, 1450, 1451, 1432, 1436, 1420, 1421
1101, 1464, 1465, 1468, 1458, 1434, 1435, 1438, 1428
1102, 1468, 1449, 1450, 1466, 1438, 1419, 1420, 1436
1103, 1468, 1466, 1454, 1458, 1438, 1436, 1424, 1428
1104, 1467, 1453, 1455, 1456, 1437, 1423, 1425, 1426
1105, 1476, 1471, 1483, 1490, 1446, 1441, 1453, 1460
1106, 1490, 1483, 1497, 1489, 1460, 1453, 1467, 1459
1107, 1471, 1472, 1485, 1483, 1441, 1442, 1455, 1453
1108, 1473, 1486, 1485, 1472, 1443, 1456, 1455, 1442
1109, 1487, 1499, 1500, 1493, 1457, 1469, 1470, 1463
1110, 1489, 1499, 1488, 1484, 1459, 1469, 1458, 1454
1111, 1489, 1484, 1491, 1490, 1459, 1454, 1461, 1460
1112, 1494, 1488, 1499, 1487, 1464, 1458, 1469, 1457
1113, 1500, 1497, 1486, 1493, 1470, 1467, 1456, 1463
1114, 1484, 1496, 1492, 1491, 1454, 1466, 1462, 1461
1115, 1481, 1482, 1491, 1492, 1451, 1452, 1461, 1462
1116, 1473, 1474, 1493, 1486, 1443, 1444, 1463, 1456
1117, 1493, 1474, 1475, 1487, 1463, 1444, 1445, 1457
1118, 1475, 1477, 1494, 1487, 1445, 1447, 1464, 1457
1119, 1494, 1477, 1478, 1495, 1464, 1447, 1448, 1465
1120, 1495, 1478, 1479, 1498, 1465, 1448, 1449, 1468
1121, 1499, 1489, 1497, 1500, 1469, 1459, 1467, 1470
1122, 1482, 1476, 1490, 1491, 1452, 1446, 1460, 1461
1123, 1492, 1496, 1480, 1481, 1462, 1466, 1450, 1451
1124, 1494, 1495, 1498, 1488, 1464, 1465, 1468, 1458
1125, 1498, 1479, 1480, 1496, 1468, 1449, 1450, 1466
1126, 1498, 1496, 1484, 1488, 1468, 1466, 1454, 1458
1127, 1497, 1483, 1485, 1486, 1467, 1453, 1455, 1456
1128, 1506, 1501, 1513, 1520, 1476, 1471, 1483, 1490
1129, 1520, 1513, 1527, 1519, 1490, 1483, 1497, 1489
1130, 1501, 1502, 1515, 1513, 1471, 1472, 1485, 1483
1131, 1503, 1516, 1515, 1502, 1473, 1486, 1485, 1472
1132, 1517, 1529, 1530, 1523, 1487, 1499, 1500, 1493
1133, 1519, 1529, 1518, 1514, 1489, 1499, 1488, 1484
1134, 1519, 1514, 1521, 1520, 1489, 1484, 1491, 1490
1135, 1524, 1518, 1529, 1517, 1494, 1488, 1499, 1487
1136, 1530, 1527, 1516, 1523, 1500, 1497, 1486, 1493
1137, 1514, 1526, 1522, 1521, 1484, 1496, 1492, 1491
1138, 1511, 1512, 1521, 1522, 1481, 1482, 1491, 1492
1139, 1503, 1504, 1523, 1516, 1473, 1474, 1493, 1486
1140, 1523, 1504, 1505, 1517, 1493, 1474, 1475, 1487
1141, 1505, 1507, 1524, 1517, 1475, 1477, 1494, 1487
1142, 1524, 1507, 1508, 1525, 1494, 1477, 1478, 1495
1143, 1525, 1508, 1509, 1528, 1495, 1478, 1479, 1498
1144, 1529, 1519, 1527, 1530, 1499, 1489, 1497, 1500
1145, 1512, 1506, 1520, 1521, 1482, 1476, 1490, 1491
1146, 1522, 1526, 1510, 1511, 1492, 1496, 1480, 1481
1147, 1524, 1525, 1528, 1518, 1494, 1495, 1498, 1488
1148, 1528, 1509, 1510, 1526, 1498, 1479, 1480, 1496
1149, 1528, 1526, 1514, 1518, 1498, 1496, 1484, 1488
1150, 1527, 1513, 1515, 1516, 1497, 1483, 1485, 1486
1151, 1536, 1531, 1543, 1550, 1506, 1501, 1513, 1520
1152, 1550, 1543, 1557, 1549, 1520, 1513, 1527, 1519
1153, 1531, 1532, 1545, 1543, 1501, 1502, 1515, 1513
1154, 1533, 1546, 1545, 1532, 1503, 1516, 1515, 1502
1155, 1547, 1559, 1560, 1553, 1517, 1529, 1530, 1523
1156, 1549, 1559, 1548, 1544, 1519, 1529, 1518, 1514
1157, 1549, 1544, 1551, 1550, 1519, 1514, 1521, 1520
1158, 1554, 1548, 1559, 1547, 1524, 1518, 1529, 1517
1159, 1560, 1557, 1546, 1553, 1530, 1527, 1516, 1523
1160, 1544, 1556, 1552, 1551, 1514, 1526, 1522, 1521
1161, 1541, 1542, 1551, 1552, 1511, 1512, 1521, 1522
1162, 1533, 1534, 1553, 1546, 1503, 1504, 1523, 1516
1163, 1553, 1534, 1535, 1547, 1523, 1504, 1505, 1517
1164, 1535, 1537, 1554, 1547, 1505, 1507, 1524, 1517
1165, 1554, 1537, 1538, 1555, 1524, 1507, 1508, 1525
1166, 1555, 1538, 1539, 1558, 1525, 1508, 1509, 1528
1167, 1559, 1549, 1557, 1560, 1529, 1519, 1527, 1530
1168, 1542, 1536, 1550, 1551, 1512, 1506, 1520, 1521
1169, 1552, 1556, 1540, 1541, 1522, 1526, 1510, 1511
1170, 1554, 1555, 1558, 1548, 1524, 1525, 1528, 1518
1171, 1558, 1539, 1540, 1556, 1528, 1509, 1510, 1526
1172, 1558, 1556, 1544, 1548, 1528, 1526, 1514, 1518
1173, 1557, 1543, 1545, 1546, 1527, 1513, 1515, 1516
1174, 1566, 1561, 1573, 1580, 1536, 1531, 1543, 1550
1175, 1580, 1573, 1587, 1579, 1550, 1543, 1557, 1549
1176, 1561, 1562, 1575, 1573, 1531, 1532, 1545, 1543
1177, 1563, 1576, 1575, 1562, 1533, 1546, 1545, 1532
1178, 1577, 1589, 1590, 1583, 1547, 1559, 1560, 1553
1179, 1579, 1589, 1578, 1574, 1549, 1559, 1548, 1544
1180, 1579, 1574, 1581, 1580, 1549, 1544, 1551, 1550
1181, 1584, 1578, 1589, 1577, 1554, 1548, 1559, 1547
1182, 1590, 1587, 1576, 1583, 1560, 1557, 1546, 1553
1183, 1574, 1586, 1582, 1581, 1544, 1556, 1552, 1551
1184, 1571, 1572, 1581, 1582, 1541, 1542, 1551, 1552
1185, 1563, 1564, 1583, 1576, 1533, 1534, 1553, 1546
1186, 1583, 1564, 1565, 1577, 1553, 1534, 1535, 1547
1187, 1565, 1567, 1584, 1577, 1535, 1537, 1554, 1547
1188, 1584, 1567, 1568, 1585, 1554, 1537, 1538, 1555
1189, 1585, 1568, 1569, 1588, 1555, 1538, 1539, 1558
1190, 1589, 1579, 1587, 1590, 1559, 1549, 1557, 1560
1191, 1572, 1566, 1580, 1581, 1542, 1536, 1550, 1551
1192, 1582, 1586, 1570, 1571, 1552, 1556, 1540, 1541
1193, 1584, 1585, 1588, 1578, 1554, 1555, 1558, 1548
1194, 1588, 1569, 1570, 1586, 1558, 1539, 1540, 1556
1195, 1588, 1586, 1574, 1578, 1558, 1556, 1544, 1548
1196, 1587, 1573, 1575, 1576, 1557, 1543, 1545, 1546
1197, 1596, 1591, 1603, 1610, 1566, 1561, 1573, 1580
1198, 1610, 1603, 1617, 1609, 1580, 1573, 1587, 1579
1199, 1591, 1592, 1605, 1603, 1561, 1562, 1575, 1573
1200, 1593, 1606, 1605, 1592, 1563, 1576, 1575, 1562
1201, 1607, 1619, 1620, 1613, 1577, 1589, 1590, 1583
1202, 1609, 1619, 1608, 1604, 1579, 1589, 1578, 1574
1203, 1609, 1604, 1611, 1610, 1579, 1574, 1581, 1580
1204, 1614, 1608, 1619, 1607, 1584, 1578, 1589, 1577
1205, 1620, 1617, 1606, 1613, 1590, 1587, 1576, 1583
1206, 1604, 1616, 1612, 1611, 1574, 1586, 1582, 1581
1207, 1601, 1602, 1611, 1612, 1571, 1572, 1581, 1582
1208, 1593, 1594, 1613, 1606, 1563, 1564, 1583, 1576
1209, 1613, 1594, 1595, 1607, 1583, 1564, 1565, 1577
1210, 1595, 1597, 1614, 1607, 1565, 1567, 1584, 1577
1211, 1614, 1597, 1598, 1615, 1584, 1567, 1568, 1585
1212, 1615, 1598, 1599, 1618, 1585, 1568, 1569, 1588
1213, 1619, 1609, 1617, 1620, 1589, 1579, 1587, 1590
1214, 1602, 1596, 1610, 1611, 1572, 1566, 1580, 1581
1215, 1612, 1616, 1600, 1601, 1582, 1586, 1570, 1571
1216, 1614, 1615, 1618, 1608, 1584, 1585, 1588, 1578
1217, 1618, 1599, 1600, 1616, 1588, 1569, 1570, 1586
1218, 1618, 1616, 1604, 1608, 1588, 1586, 1574, 1578
1219, 1617, 1603, 1605, 1606, 1587, 1573, 1575, 1576
1220, 1626, 1621, 1633, 1640, 1596, 1591, 1603, 1610
1221, 1640, 1633, 1647, 1639, 1610, 1603, 1617, 1609
1222, 1621, 1622, 1635, 1633, 1591, 1592, 1605, 1603
1223, 1623, 1636, 1635, 1622, 1593, 1606, 1605, 1592
1224, 1637, 1649, 1650, 1643, 1607, 1619, 1620, 1613
1225, 1639, 1649, 1638, 1634, 1609, 1619, 1608, 1604
1226, 1639, 1634, 1641, 1640, 1609, 1604, 1611, 1610
1227, 1644, 1638, 1649, 1637, 1614, 1608, 1619, 1607
1228, 1650, 1647, 1636, 1643, 1620, 1617, 1606, 1613
1229, 1634, 1646, 1642, 1641, 1604, 1616, 1612, 1611
1230, 1631, 1632, 1641, 1642, 1601, 1602, 1611, 1612
1231, 1623, 1624, 1643, 1636, 1593, 1594, 1613, 1606
1232, 1643, 1624, 1625, 1637, 1613, 1594, 1595, 1607
1233, 1625, 1627, 1644, 1637, 1595, 1597, 1614, 1607
1234, 1644, 1627, 1628, 1645, 1614, 1597, 1598, 1615
1235, 1645, 1628, 1629, 1648, 1615, 1598, 1599, 1618
1236, 1649, 1639, 1647, 1650, 1619, 1609, 1617, 1620
1237, 1632, 1626, 1640, 1641, 1602, 1596, 1610, 1611
1238, 1642, 1646, 1630, 1631, 1612, 1616, 1600, 1601
1239, 1644, 1645, 1648, 1638, 1614, 1615, 1618, 1608
1240, 1648, 1629, 1630, 1646, 1618, 1599, 1600, 1616
1241, 1648, 1646, 1634, 1638, 1618, 1616, 1604, 1608
1242, 1647, 1633, 1635, 1636, 1617, 1603, 1605, 1606
1243, 1656, 1651, 1663, 1670, 1626, 1621, 1633, 1640
1244, 1670, 1663, 1677, 1669, 1640, 1633, 1647, 1639
1245, 1651, 1652, 1665, 1663, 1621, 1622, 1635, 1633
1246, 1653, 1666, 1665, 1652, 1623, 1636, 1635, 1622
1247, 1667, 1679, 1680, 1673, 1637, 1649, 1650, 1643
1248, 1669, 1679, 1668, 1664, 1639, 1649, 1638, 1634
1249, 1669, 1664, 1671, 1670, 1639, 1634, 1641, 1640
1250, 1674, 1668, 1679, 1667, 1644, 1638, 1649, 1637
1251, 1680, 1677, 1666, 1673, 1650, 1647, 1636, 1643
1252, 1664, 1676, 1672, 1671, 1634, 1646, 1642, 1641
1253, 1661, 1662, 1671, 1672, 1631, 1632, 1641, 1642
1254, 1653, 1654, 1673, 1666, 1623, 1624, 1643, 1636
1255, 1673, 1654, 1655, 1667, 1643, 1624, 1625, 1637
1256, 1655, 1657, 1674, 1667, 1625, 1627, 1644, 1637
1257, 1674, 1657, 1658, 1675, 1644, 1627, 1628, 1645
1258, 1675, 1658, 1659, 1678, 1645, 1628, 1629, 1648
1259, 1679, 1669, 1677, 1680, 1649, 1639, 1647, 1650
1260, 1662, 1656, 1670, 1671, 1632, 1626, 1640, 1641
1261, 1672, 1676, 1660, 1661, 1642, 1646, 1630, 1631
1262, 1674, 1675, 1678, 1668, 1644, 1645, 1648, 1638
1263, 1678, 1659, 1660, 1676, 1648, 1629, 1630, 1646
1264, 1678, 1676, 1664, 1668, 1648, 1646, 1634, 1638
1265, 1677, 1663, 1665, 1666, 1647, 1633, 1635, 1636
1266, 1686, 1681, 1693, 1700, 1656, 1651, 1663, 1670
1267, 1700, 1693, 1707, 1699, 1670, 1663, 1677, 1669
1268, 1681, 1682, 1695, 1693, 1651, 1652, 1665, 1663
1269, 1683, 1696, 1695, 1682, 1653, 1666, 1665, 1652
1270, 1697, 1709, 1710, 1703, 1667, 1679, 1680, 1673
1271, 1699, 1709, 1698, 1694, 1669, 1679, 1668, 1664
1272, 1699, 1694, 1701, 1700, 1669, 1664, 1671, 1670
1273, 1704, 1698, 1709, 1697, 1674, 1668, 1679, 1667
1274, 1710, 1707, 1696, 1703, 1680, 1677, 1666, 1673
1275, 1694, 1706, 1702, 1701, 1664, 1676, 1672, 1671
1276, 1691, 1692, 1701, 1702, 1661, 1662, 1671, 1672
1277, 1683, 1684, 1703, 1696, 1653, 1654, 1673, 1666
1278, 1703, 1684, 1685, 1697, 1673, 1654, 1655, 1667
1279, 1685, 1687, 1704, 1697, 1655, 1657, 1674, 1667
1280, 1704, 1687, 1688, 1705, 1674, 1657, 1658, 1675
1281, 1705, 1688, 1689, 1708, 1675, 1658, 1659, 1678
1282, 1709, 1699, 1707, 1710, 1679, 1669, 1677, 1680
1283, 1692, 1686, 1700, 1701, 1662, 1656, 1670, 1671
1284, 1702, 1706, 1690, 1691, 1672, 1676, 1660, 1661
1285, 1704, 1705, 1708, 1698, 1674, 1675, 1678, 1668
1286, 1708, 1689, 1690, 1706, 1678, 1659, 1660, 1676
1287, 1708, 1706, 1694, 1698, 1678, 1676, 1664, 1668
1288, 1707, 1693, 1695, 1696, 1677, 1663, 1665, 1666
1289, 1716, 1711, 1723, 1730, 1686, 1681, 1693, 1700
1290, 1730, 1723, 1737, 1729, 1700, 1693, 1707, 1699
1291, 1711, 1712, 1725, 1723, 1681, 1682, 1695, 1693
1292, 1713, 1726, 1725, 1712, 1683, 1696, 1695, 1682
1293, 1727, 1739, 1740, 1733, 1697, 1709, 1710, 1703
1294, 1729, 1739, 1728, 1724, 1699, 1709, 1698, 1694
1295, 1729, 1724, 1731, 1730, 1699, 1694, 1701, 1700
1296, 1734, 1728, 1739, 1727, 1704, 1698, 1709, 1697
1297, 1740, 1737, 1726, 1733, 1710, 1707, 1696, 1703
1298, 1724, 1736, 1732, 1731, 1694, 1706, 1702, 1701
1299, 1721, 1722, 1731, 1732, 1691, 1692, 1701, 1702
1300, 1713, 1714, 1733, 1726, 1683, 1684, 1703, 1696
1301, 1733, 1714, 1715, 1727, 1703, 1684, 1685, 1697
1302, 1715, 1717, 1734, 1727, 1685, 1687, 1704, 1697
1303, 1734, 1717, 1718, 1735, 1704, 1687, 1688, 1705
1304, 1735, 1718, 1719, 1738, 1705, 1688, 1689, 1708
1305, 1739, 1729, 1737, 1740, 1709, 1699, 1707, 1710
1306, 1722, 1716, 1730, 1731, 1692, 1686, 1700, 1701
1307, 1732, 1736, 1720, 1721, 1702, 1706, 1690, 1691
1308, 1734, 1735, 1738, 1728, 1704, 1705, 1708, 1698
1309, 1738, 1719, 1720, 1736, 1708, 1689, 1690, 1706
1310, 1738, 1736, 1724, 1728, 1708, 1706, 1694, 1698
1311, 1737, 1723, 1725, 1726, 1707, 1693, 1695, 1696
1312, 1746, 1741, 1753, 1760, 1716, 1711, 1723, 1730
1313, 1760, 1753, 1767, 1759, 1730, 1723, 1737, 1729
1314, 1741, 1742, 1755, 1753, 1711, 1712, 1725, 1723
1315, 1743, 1756, 1755, 1742, 1713, 1726, 1725, 1712
1316, 1757, 1769, 1770, 1763, 1727, 1739, 1740, 1733
1317, 1759, 1769, 1758, 1754, 1729, 1739, 1728, 1724
1318, 1759, 1754, 1761, 1760, 1729, 1724, 1731, 1730
1319, 1764, 1758, 1769, 1757, 1734, 1728, 1739, 1727
1320, 1770, 1767, 1756, 1763, 1740, 1737, 1726, 1733
1321, 1754, 1766, 1762, 1761, 1724, 1736, 1732, 1731
1322, 1751, 1752, 1761, 1762, 1721, 1722, 1731, 1732
1323, 1743, 1744, 1763, 1756, 1713, 1714, 1733, 1726
1324, 1763, 1744, 1745, 1757, 1733, 1714, 1715, 1727
1325, 1745, 1747, 1764, 1757, 1715, 1717, 1734, 1727
1326, 1764, 1747, 1748, 1765, 1734, 1717, 1718, 1735
1327, 1765, 1748, 1749, 1768, 1735, 1718, 1719, 1738
1328, 1769, 1759, 1767, 1770, 1739, 1729, 1737, 1740
1329, 1752, 1746, 1760, 1761, 1722, 1716, 1730, 1731
1330, 1762, 1766, 1750, 1751, 1732, 1736, 1720, 1721
1331, 1764, 1765, 1768, 1758, 1734, 1735, 1738, 1728
1332, 1768, 1749, 1750, 1766, 1738, 1719, 1720, 1736
1333, 1768, 1766, 1754, 1758, 1738, 1736, 1724, 1728
1334, 1767, 1753, 1755, 1756, 1737, 1723, 1725, 1726
1335, 1776, 1771, 1783, 1790, 1746, 1741, 1753, 1760
1336, 1790, 1783, 1797, 1789, 1760, 1753, 1767, 1759
1337, 1771, 1772, 1785, 1783, 1741, 1742, 1755, 1753
1338, 1773, 1786, 1785, 1772, 1743, 1756, 1755, 1742
1339, 1787, 1799, 1800, 1793, 1757, 1769, 1770, 1763
1340, 1789, 1799, 1788, 1784, 1759, 1769, 1758, 1754
1341, 1789, 1784, 1791, 1790, 1759, 1754, 1761, 1760
1342, 1794, 1788, 1799, 1787, 1764, 1758, 1769, 1757
1343, 1800, 1797, 1786, 1793, 1770, 1767, 1756, 1763
1344, 1784, 1796, 1792, 1791, 1754, 1766, 1762, 1761
1345, 1781, 1782, 1791, 1792, 1751, 1752, 1761, 1762
1346, 1773, 1774, 1793, 1786, 1743, 1744, 1763, 1756
1347, 1793, 1774, 1775, 1787, 1763, 1744, 1745, 1757
1348, 1775, 1777, 1794, 1787, 1745, 1747, 1764, 1757
1349, 1794, 1777, 1778, 1795, 1764, 1747, 1748, 1765
1350, 1795, 1778, 1779, 1798, 1765, 1748, 1749, 1768
1351, 1799, 1789, 1797, 1800, 1769, 1759, 1767, 1770
1352, 1782, 1776, 1790, 1791, 1752, 1746, 1760, 1761
1353, 1792, 1796, 1780, 1781, 1762, 1766, 1750, 1751
1354, 1794, 1795, 1798, 1788, 1764, 1765, 1768, 1758
1355, 1798, 1779, 1780, 1796, 1768, 1749, 1750, 1766
1356, 1798, 1796, 1784, 1788, 1768, 1766, 1754, 1758
1357, 1797, 1783, 1785, 1786, 1767, 1753, 1755, 1756
1358, 1806, 1801, 1813, 1820, 1776, 1771, 1783, 1790
1359, 1820, 1813, 1827, 1819, 1790, 1783, 1797, 1789
1360, 1801, 1802, 1815, 1813, 1771, 1772, 1785, 1783
1361, 1803, 1816, 1815, 1802, 1773, 1786, 1785, 1772
1362, 1817, 1829, 1830, 1823, 1787, 1799, 1800, 1793
1363, 1819, 1829, 1818, 1814, 1789, 1799, 1788, 1784
1364, 1819, 1814, 1821, 1820, 1789, 1784, 1791, 1790
1365, 1824, 1818, 1829, 1817, 1794, 1788, 1799, 1787
1366, 1830, 1827, 1816, 1823, 1800, 1797, 1786, 1793
1367, 1814, 1826, 1822, 1821, 1784, 1796, 1792, 1791
1368, 1811, 1812, 1821, 1822, 1781, 1782, 1791, 1792
1369, 1803, 1804, 1823, 1816, 1773, 1774, 1793, 1786
1370, 1823, 1804, 1805, 1817, 1793, 1774, 1775, 1787
1371, 1805, 1807, 1824, 1817, 1775, 1777, 1794, 1787
1372, 1824, 1807, 1808, 1825, 1794, 1777, 1778, 1795
1373, 1825, 1808, 1809, 1828, 1795, 1778, 1779, 1798
1374, 1829, 1819, 1827, 1830, 1799, 1789, 1797, 1800
1375, 1812, 1806, 1820, 1821, 1782, 1776, 1790, 1791
1376, 1822, 1826, 1810, 1811, 1792, 1796, 1780, 1781
1377, 1824, 1825, 1828, 1818, 1794, 1795, 1798, 1788
1378, 1828, 1809, 1810, 1826, 1798, 1779, 1780, 1796
1379, 1828, 1826, 1814, 1818, 1798, 1796, 1784, 1788
1380, 1827, 1813, 1815, 1816, 1797, 1783, 1785, 1786
1381, 1836, 1831, 1843, 1850, 1806, 1801, 1813, 1820
1382, 1850, 1843, 1857, 1849, 1820, 1813, 1827, 1819
1383, 1831, 1832, 1845, 1843, 1801, 1802, 1815, 1813
1384, 1833, 1846, 1845, 1832, 1803, 1816, 1815, 1802
1385, 1847, 1859, 1860, 1853, 1817, 1829, 1830, 1823
1386, 1849, 1859, 1848, 1844, 1819, 1829, 1818, 1814
1387, 1849, 1844, 1851, 1850, 1819, 1814, 1821, 1820
1388, 1854, 1848, 1859, 1847, 1824, 1818, 1829, 1817
1389, 1860, 1857, 1846, 1853, 1830, 1827, 1816, 1823
1390, 1844, 1856, 1852, 1851, 1814, 1826, 1822, 1821
1391, 1841, 1842, 1851, 1852, 1811, 1812, 1821, 1822
1392, 1833, 1834, 1853, 1846, 1803, 1804, 1823, 1816
1393, 1853, 1834, 1835, 1847, 1823, 1804, 1805, 1817
1394, 1835, 1837, 1854, 1847, 1805, 1807, 1824, 1817
1395, 1854, 1837, 1838, 1855, 1824, 1807, 1808, 1825
1396, 1855, 1838, 1839, 1858, 1825, 1808, 1809, 1828
1397, 1859, 1849, 1857, 1860, 1829, 1819, 1827, 1830
1398, 1842, 1836, 1850, 1851, 1812, 1806, 1820, 1821
1399, 1852, 1856, 1840, 1841, 1822, 1826, 1810, 1811
1400, 1854, 1855, 1858, 1848, 1824, 1825, 1828, 1818
1401, 1858, 1839, 1840, 1856, 1828, 1809, 1810, 1826
1402, 1858, 1856, 1844, 1848, 1828, 1826, 1814, 1818
1403, 1857, 1843, 1845, 1846, 1827, 1813, 1815, 1816
1404, 1866, 1861, 1873, 1880, 1836, 1831, 1843, 1850
1405, 1880, 1873, 1887, 1879, 1850, 1843, 1857, 1849
1406, 1861, 1862, 1875, 1873, 1831, 1832, 1845, 1843
1407, 1863, 1876, 1875, 1862, 1833, 1846, 1845, 1832
1408, 1877, 1889, 1890, 1883, 1847, 1859, 1860, 1853
1409, 1879, 1889, 1878, 1874, 1849, 1859, 1848, 1844
1410, 1879, 1874, 1881, 1880, 1849, 1844, 1851, 1850
1411, 1884, 1878, 1889, 1877, 1854, 1848, 1859, 1847
1412, 1890, 1887, 1876, 1883, 1860, 1857, 1846, 1853
1413, 1874, 1886, 1882, 1881, 1844, 1856, 1852, 1851
1414, 1871, 1872, 1881, 1882, 1841, 1842, 1851, 1852
1415, 1863, 1864, 1883, 1876, 1833, 1834, 1853, 1846
1416, 1883, 1864, 1865, 1877, 1853, 1834, 1835, 1847
1417, 1865, 1867, 1884, 1877, 1835, 1837, 1854, 1847
1418, 1884, 1867, 1868, 1885, 1854, 1837, 1838, 1855
1419, 1885, 1868, 1869, 1888, 1855, 1838, 1839, 1858
1420, 1889, 1879, 1887, 1890, 1859, 1849, 1857, 1860
1421, 1872, 1866, 1880, 1881, 1842, 1836, 1850, 1851
1422, 1882, 1886, 1870, 1871, 1852, 1856, 1840, 1841
1423, 1884, 1885, 1888, 1878, 1854, 1855, 1858, 1848
1424, 1888, 1869, 1870, 1886, 1858, 1839, 1840, 1856
1425, 1888, 1886, 1874, 1878, 1858, 1856, 1844, 1848
1426, 1887, 1873, 1875, 1876, 1857, 1843, 1845, 1846
1427, 1896, 1891, 1903, 1910, 1866, 1861, 1873, 1880
1428, 1910, 1903, 1917, 1909, 1880, 1873, 1887, 1879
1429, 1891, 1892, 1905, 1903, 1861, 1862, 1875, 1873
1430, 1893, 1906, 1905, 1892, 1863, 1876, 1875, 1862
1431, 1907, 1919, 1920, 1913, 1877, 1889, 1890, 1883
1432, 1909, 1919, 1908, 1904, 1879, 1889, 1878, 1874
1433, 1909, 1904, 1911, 1910, 1879, 1874, 1881, 1880
1434, 1914, 1908, 1919, 1907, 1884, 1878, 1889, 1877
1435, 1920, 1917, 1906, 1913, 1890, 1887, 1876, 1883
1436, 1904, 1916, 1912, 1911, 1874, 1886, 1882, 1881
1437, 1901, 1902, 1911, 1912, 1871, 1872, 1881, 1882
1438, 1893, 1894, 1913, 1906, 1863, 1864, 1883, 1876
1439, 1913, 1894, 1895, 1907, 1883, 1864, 1865, 1877
1440, 1895, 1897, 1914, 1907, 1865, 1867, 1884, 1877
1441, 1914, 1897, 1898, 1915, 1884, 1867, 1868, 1885
1442, 1915, 1898, 1899, 1918, 1885, 1868, 1869, 1888
1443, 1919, 1909, 1917, 1920, 1889, 1879, 1887, 1890
1444, 1902, 1896, 1910, 1911, 1872, 1866, 1880, 1881
1445, 1912, 1916, 1900, 1901, 1882, 1886, 1870, 1871
1446, 1914, 1915, 1918, 1908, 1884, 1885, 1888, 1878
1447, 1918, 1899, 1900, 1916, 1888, 1869, 1870, 1886
1448, 1918, 1916, 1904, 1908, 1888, 1886, 1874, 1878
1449, 1917, 1903, 1905, 1906, 1887, 1873, 1875, 1876
1450, 1926, 1921, 1933, 1940, 1896, 1891, 1903, 1910
1451, 1940, 1933, 1947, 1939, 1910, 1903, 1917, 1909
1452, 1921, 1922, 1935, 1933, 1891, 1892, 1905, 1903
1453, 1923, 1936, 1935, 1922, 1893, 1906, 1905, 1892
1454, 1937, 1949, 1950, 1943, 1907, 1919, 1920, 1913
1455, 1939, 1949, 1938, 1934, 1909, 1919, 1908, 1904
1456, 1939, 1934, 1941, 1940, 1909, 1904, 1911, 1910
1457, 1944, 1938, 1949, 1937, 1914, 1908, 1919, 1907
1458, 1950, 1947, 1936, 1943, 1920, 1917, 1906, 1913
1459, 1934, 1946, 1942, 1941, 1904, 1916, 1912, 1911
1460, 1931, 1932, 1941, 1942, 1901, 1902, 1911, 1912
1461, 1923, 1924, 1943, 1936, 1893, 1894, 1913, 1906
1462, 1943, 1924, 1925, 1937, 1913, 1894, 1895, 1907
1463, 1925, 1927, 1944, 1937, 1895, 1897, 1914, 1907
1464, 1944, 1927, 1928, 1945, 1914, 1897, 1898, 1915
1465, 1945, 1928, 1929, 1948, 1915, 1898, 1899, 1918
1466, 1949, 1939, 1947, 1950, 1919, 1909, 1917, 1920
1467, 1932, 1926, 1940, 1941, 1902, 1896, 1910, 1911
1468, 1942, 1946, 1930, 1931, 1912, 1916, 1900, 1901
1469, 1944, 1945, 1948, 1938, 1914, 1915, 1918, 1908
1470, 1948, 1929, 1930, 1946, 1918, 1899, 1900, 1916
1471, 1948, 1946, 1934, 1938, 1918, 1916, 1904, 1908
1472, 1947, 1933, 1935, 1936, 1917, 1903, 1905, 1906
1473, 1956, 1951, 1963, 1970, 1926, 1921, 1933, 1940
1474, 1970, 1963, 1977, 1969, 1940, 1933, 1947, 1939
1475, 1951, 1952, 1965, 1963, 1921, 1922, 1935, 1933
1476, 1953, 1966, 1965, 1952, 1923, 1936, 1935, 1922
1477, 1967, 1979, 1980, 1973, 1937, 1949, 1950, 1943
1478, 1969, 1979, 1968, 1964, 1939, 1949, 1938, 1934
1479, 1969, 1964, 1971, 1970, 1939, 1934, 1941, 1940
1480, 1974, 1968, 1979, 1967, 1944, 1938, 1949, 1937
1481, 1980, 1977, 1966, 1973, 1950, 1947, 1936, 1943
1482, 1964, 1976, 1972, 1971, 1934, 1946, 1942, 1941
1483, 1961, 1962, 1971, 1972, 1931, 1932, 1941, 1942
1484, 1953, 1954, 1973, 1966, 1923, 1924, 1943, 1936
1485, 1973, 1954, 1955, 1967, 1943, 1924, 1925, 1937
1486, 1955, 1957, 1974, 1967, 1925, 1927, 1944, 1937
1487, 1974, 1957, 1958, 1975, 1944, 1927, 1928, 1945
1488, 1975, 1958, 1959, 1978, 1945, 1928, 1929, 1948
1489, 1979, 1969, 1977, 1980, 1949, 1939, 1947, 1950
1490, 1962, 1956, 1970, 1971, 1932, 1926, 1940, 1941
1491, 1972, 1976, 1960, 1961, 1942, 1946, 1930, 1931
1492, 1974, 1975, 1978, 1968, 1944, 1945, 1948, 1938
1493, 1978, 1959, 1960, 1976, 1948, 1929, 1930, 1946
1494, 1978, 1976, 1964, 1968, 1948, 1946, 1934, 1938
1495, 1977, 1963, 1965, 1966, 1947, 1933, 1935, 1936
1496, 1986, 1981, 1993, 2000, 1956, 1951, 1963, 1970
1497, 2000, 1993, 2007, 1999, 1970, 1963, 1977, 1969
1498, 1981, 1982, 1995, 1993, 1951, 1952, 1965, 1963
1499, 1983, 1996, 1995, 1982, 1953, 1966, 1965, 1952
1500, 1997, 2009, 2010, 2003, 1967, 1979, 1980, 1973
1501, 1999, 2009, 1998, 1994, 1969, 1979, 1968, 1964
1502, 1999, 1994, 2001, 2000, 1969, 1964, 1971, 1970
1503, 2004, 1998, 2009, 1997, 1974, 1968, 1979, 1967
1504, 2010, 2007, 1996, 2003, 1980, 1977, 1966, 1973
1505, 1994, 2006, 2002, 2001, 1964, 1976, 1972, 1971
1506, 1991, 1992, 2001, 2002, 1961, 1962, 1971, 1972
1507, 1983, 1984, 2003, 1996, 1953, 1954, 1973, 1966
1508, 2003, 1984, 1985, 1997, 1973, 1954, 1955, 1967
1509, 1985, 1987, 2004, 1997, 1955, 1957, 1974, 1967
1510, 2004, 1987, 1988, 2005, 1974, 1957, 1958, 1975
1511, 2005, 1988, 1989, 2008, 1975, 1958, 1959, 1978
1512, 2009, 1999, 2007, 2010, 1979, 1969, 1977, 1980
1513, 1992, 1986, 2000, 2001, 1962, 1956, 1970, 1971
1514, 2002, 2006, 1990, 1991, 1972, 1976, 1960, 1961
1515, 2004, 2005, 2008, 1998, 1974, 1975, 1978, 1968
1516, 2008, 1989, 1990, 2006, 1978, 1959, 1960, 1976
1517, 2008, 2006, 1994, 1998, 1978, 1976, 1964, 1968
1518, 2007, 1993, 1995, 1996, 1977, 1963, 1965, 1966
1519, 2016, 2011, 2023, 2030, 1986, 1981, 1993, 2000
1520, 2030, 2023, 2037, 2029, 2000, 1993, 2007, 1999
1521, 2011, 2012, 2025, 2023, 1981, 1982, 1995, 1993
1522, 2013, 2026, 2025, 2012, 1983, 1996, 1995, 1982
1523, 2027, 2039, 2040, 2033, 1997, 2009, 2010, 2003
1524, 2029, 2039, 2028, 2024, 1999, 2009, 1998, 1994
1525, 2029, 2024, 2031, 2030, 1999, 1994, 2001, 2000
1526, 2034, 2028, 2039, 2027, 2004, 1998, 2009, 1997
1527, 2040, 2037, 2026, 2033, 2010, 2007, 1996, 2003
1528, 2024, 2036, 2032, 2031, 1994, 2006, 2002, 2001
1529, 2021, 2022, 2031, 2032, 1991, 1992, 2001, 2002
1530, 2013, 2014, 2033, 2026, 1983, 1984, 2003, 1996
1531, 2033, 2014, 2015, 2027, 2003, 1984, 1985, 1997
1532, 2015, 2017, 2034, 2027, 1985, 1987, 2004, 1997
1533, 2034, 2017, 2018, 2035, 2004, 1987, 1988, 2005
1534, 2035, 2018, 2019, 2038, 2005, 1988, 1989, 2008
1535, 2039, 2029, 2037, 2040, 2009, 1999, 2007, 2010
1536, 2022, 2016, 2030, 2031, 1992, 1986, 2000, 2001
1537, 2032, 2036, 2020, 2021, 2002, 2006, 1990, 1991
1538, 2034, 2035, 2038, 2028, 2004, 2005, 2008, 1998
1539, 2038, 2019, 2020, 2036, 2008, 1989, 1990, 2006
1540, 2038, 2036, 2024, 2028, 2008, 2006, 1994, 1998
1541, 2037, 2023, 2025, 2026, 2007, 1993, 1995, 1996
1542, 2046, 2041, 2053, 2060, 2016, 2011, 2023, 2030
1543, 2060, 2053, 2067, 2059, 2030, 2023, 2037, 2029
1544, 2041, 2042, 2055, 2053, 2011, 2012, 2025, 2023
1545, 2043, 2056, 2055, 2042, 2013, 2026, 2025, 2012
1546, 2057, 2069, 2070, 2063, 2027, 2039, 2040, 2033
1547, 2059, 2069, 2058, 2054, 2029, 2039, 2028, 2024
1548, 2059, 2054, 2061, 2060, 2029, 2024, 2031, 2030
1549, 2064, 2058, 2069, 2057, 2034, 2028, 2039, 2027
1550, 2070, 2067, 2056, 2063, 2040, 2037, 2026, 2033
1551, 2054, 2066, 2062, 2061, 2024, 2036, 2032, 2031
1552, 2051, 2052, 2061, 2062, 2021, 2022, 2031, 2032
1553, 2043, 2044, 2063, 2056, 2013, 2014, 2033, 2026
1554, 2063, 2044, 2045, 2057, 2033, 2014, 2015, 2027
1555, 2045, 2047, 2064, 2057, 2015, 2017, 2034, 2027
1556, 2064, 2047, 2048, 2065, 2034, 2017, 2018, 2035
1557, 2065, 2048, 2049, 2068, 2035, 2018, 2019, 2038
1558, 2069, 2059, 2067, 2070, 2039, 2029, 2037, 2040
1559, 2052, 2046, 2060, 2061, 2022, 2016, 2030, 2031
1560, 2062, 2066, 2050, 2051, 2032, 2036, 2020, 2021
1561, 2064, 2065, 2068, 2058, 2034, 2035, 2038, 2028
1562, 2068, 2049, 2050, 2066, 2038, 2019, 2020, 2036
1563, 2068, 2066, 2054, 2058, 2038, 2036, 2024, 2028
1564, 2067, 2053, 2055, 2056, 2037, 2023, 2025, 2026
*Elset, elset=FLUID_CEL_BODY, generate
    1,  1564,     1
*Eulerian Section, elset=FLUID_CEL_BODY
MAT_FLUID_CEL, WATER
*End Part
**  
** Boundary-only rigid wall helper generated from FLUID_EULERIAN boundary
** Boundary-only rigid wall helper generated from FLUID_EULERIAN boundary
*Part, name=Pipe_WALL_HELPER
*Node
       1, -16.5312897005, -17.2868904576, -1.9669035138
       2, -16.970186333, -17.1510059578, -2.10575531598
       3, -17.0595094318, -16.9508545594, -1.83857117776
       4, -16.7227038313, -16.9776193944, -1.5996919504
       5, -16.3317931628, -16.889444982, -2.19820316494
       6, -16.5234998969, -16.5797011677, -1.83043029113
       7, -17.3244134201, -17.031705164, -2.20373843566
       8, -17.3635636271, -16.8736908617, -1.96599708767
       9, -17.2092992278, -16.7707359574, -1.65744899091
      10, -17.1057082159, -16.6814764918, -1.41875507815
      11, -16.9070916517, -16.2831055879, -1.64921683443
      12, -17.5776795246, -16.4778127316, -1.47257492853
      13, -17.4839078321, -16.6879875554, -1.7501234811
      14, -17.379782511, -16.0791305094, -1.70311896567
      15, -17.9256078331, -16.7447941558, -2.22512220262
      16, -17.7599030349, -16.6624138527, -1.94211206892
      17, -17.585744927, -16.8181869606, -2.06062148565
      18, -17.6289197219, -16.9097091641, -2.2546040873
      19, -17.3339940228, -17.1778080593, -2.46268508992
      20, -17.6517774276, -17.044993662, -2.50632761859
      21, -16.9820920214, -17.3196994572, -2.40546200501
      22, -17.9712010333, -16.8984405591, -2.52779530856
      23, -17.0596391151, -17.43502166, -2.66966436455
      24, -17.3445569286, -17.3513748607, -2.76960610732
      25, -16.8633106971, -17.6320243877, -2.84302742115
      26, -16.582755437, -17.5264189782, -2.42199600127
      27, -16.6643236125, -17.2351063933, -3.07566644259
      28, -16.3833375866, -17.1293396574, -2.65399119641
      29, -18.0113255342, -16.4226616794, -1.7466437497
      30, -17.8138939455, -16.0224693127, -1.97688605546
      31, -18.2902871381, -16.5296566535, -2.16755508299
      32, -18.3415738341, -16.7683517572, -2.62106417594
      33, -17.9391442343, -17.0618488563, -2.7808577845
      34, -18.1508256295, -17.076546856, -2.98699829996
      35, -17.6721402356, -17.2129795593, -2.81204891072
      36, -17.7691677699, -17.3722767806, -3.16951869508
      37, -17.2977827572, -17.5754099237, -3.11718317101
      38, -17.0994578877, -17.1784054897, -3.35024102471
      39, -17.5709858809, -16.9750192076, -3.40415852467
      40, -16.1351054628, -16.4944559821, -2.42834123501
      41, -16.3268121971, -16.1847121675, -2.06056823101
      42, -16.7104020511, -15.8881174883, -1.87935477451
      43, -17.1830948104, -15.6841414098, -1.9332569053
      44, -16.4676340125, -16.8401173933, -3.30580427259
      45, -16.1866498866, -16.7343506575, -2.88412926648
      46, -17.6172043461, -15.6274803127, -2.20702411581
      47, -16.9027701881, -16.7834164899, -3.58037908466
      48, -17.3742962821, -16.580030208, -3.63429635433
      49, -15.9384158644, -16.0994669857, -2.65847905351
      50, -16.130122598, -15.7897240701, -2.29070605984
      51, -16.5137143511, -15.4931284902, -2.10949260377
      52, -16.9864052101, -15.2891524107, -2.16339485466
      53, -16.2709463131, -16.4451283946, -3.53594233188
      54, -15.9899602875, -16.3393615591, -3.11426708546
      55, -17.4205166464, -15.2324913127, -2.43716194591
      56, -16.706080589, -16.3884273915, -3.8105169137
      57, -17.1776085823, -16.1850412089, -3.86443441381
      58, -15.7417272627, -15.7044779827, -2.88861711563
      59, -15.9334339972, -15.3947350676, -2.52084412084
      60, -16.3170247514, -15.0981394897, -2.33963066385
      61, -16.7897175102, -14.8941634109, -2.39353267451
      62, -16.0742567146, -16.0501393973, -3.76608016041
      63, -15.7932716885, -15.9443725607, -3.34440515627
      64, -17.2238270466, -14.8375023124, -2.66730000631
      65, -16.5093928881, -15.9934393914, -4.04065497362
      66, -16.9809189828, -15.7900522076, -4.09457248441
      67, -15.5450385627, -15.3094889827, -3.11875494563
      68, -15.7367452958, -14.9997460691, -2.75098195221
      69, -16.1203351494, -14.7031504903, -2.56976849434
      70, -16.5930279095, -14.499174409, -2.62367073569
      71, -15.8775680114, -15.6551512942, -3.99621822053
      72, -15.5965829868, -15.5493835582, -3.57454297439
      73, -17.027139345, -14.4425132096, -2.89743783783
      74, -16.3127032888, -15.5984503889, -4.27079280541
      75, -16.7842312844, -15.3950632059, -4.32471030513
      76, -15.3483499627, -14.9144999826, -3.34889300566
      77, -15.5400566958, -14.6047570691, -2.9811200122
      78, -15.9236474489, -14.3081614904, -2.79990655451
      79, -16.396338308, -14.1041854109, -2.85380856421
      80, -15.6808794112, -15.2601622929, -4.22635628179
      81, -15.3998943857, -15.1543945565, -3.80468104386
      82, -16.8304497432, -14.0475242128, -3.12757589422
      83, -16.1160155906, -15.2034613881, -4.50093062623
      84, -16.5875416843, -15.0000742057, -4.55484813524
      85, -15.1516612627, -14.5195109827, -3.57903083571
      86, -15.3433679965, -14.2097680683, -3.2112578315
      87, -15.72695885, -13.91317249, -3.03004438426
      88, -16.1996506079, -13.7091964111, -3.08394662401
      89, -15.4841907121, -14.8651732935, -4.45649411201
      90, -15.2032056857, -14.7594055564, -4.03481910417
      91, -16.6337620432, -13.6525352128, -3.35771372422
      92, -15.919326893, -14.8084722892, -4.73106892591
      93, -16.3908539874, -14.6050851064, -4.78498595454
      94, -14.9549726626, -14.1245218825, -3.80916889577
      95, -15.1466793964, -13.8147790681, -3.44139590166
      96, -15.53027015, -13.51818349, -3.26018244425
      97, -16.0029610079, -13.3142074111, -3.314084454
      98, -15.2875021114, -14.4701842929, -4.68663193201
      99, -15.0065170858, -14.3644165565, -4.26495692422
     100, -16.4370724432, -13.2575462128, -3.58785178422
     101, -15.7226382922, -14.4134832889, -4.96120675597
     102, -16.1941643875, -14.2100961066, -5.01512425441
     103, -14.7582839627, -13.7295328828, -4.0393069557
     104, -14.9499906963, -13.4197900686, -3.67153372167
     105, -15.33358155, -13.1231944901, -3.49032026418
     106, -15.8062733084, -12.9192184121, -3.54422251344
     107, -15.090813412, -14.075195294, -4.91676976136
     108, -14.8098283859, -13.9694275568, -4.49509475383
     109, -16.2403847441, -12.8625572145, -3.81798960321
     110, -15.5259495913, -14.0184942893, -5.19134457558
     111, -15.997476685, -13.8151071061, -5.24526208497
     112, -14.5615953628, -13.3345438828, -4.26944478558
     113, -14.7533020963, -13.0248009684, -3.90167179173
     114, -15.13689285, -12.7282053896, -3.72045833438
     115, -15.6095847094, -12.5242293114, -3.7743603441
     116, -14.8941248119, -13.6802062946, -5.14690806066
     117, -14.6131397856, -13.5744385564, -4.72523257353
     118, -16.0436951454, -12.4675682135, -4.04812767478
     119, -15.329259991, -13.6235052899, -5.42148240515
     120, -15.800787984, -13.4201181061, -5.47539990508
     121, -14.364906663, -12.9395548829, -4.49958260502
     122, -14.5566133967, -12.6298119689, -4.13180985132
     123, -14.9402042493, -12.3332163904, -3.95059615434
     124, -15.4128960097, -12.1292403102, -4.00449816491
     125, -14.6974361107, -13.2852172934, -5.37704589068
     126, -14.4164510855, -13.1794494562, -4.95537088376
     127, -15.8470065469, -12.0725792116, -4.27826549714
     128, -15.132571391, -13.2285162898, -5.65162070517
     129, -15.6040993861, -13.0251291068, -5.7055377345
     130, -14.1682179627, -12.5445658821, -4.72972043519
     131, -14.3599247968, -12.2348229682, -4.36194767121
     132, -14.74351555, -11.9382273905, -4.18073422405
     133, -15.2162074093, -11.7342513103, -4.23463646477
     134, -14.5007475101, -12.8902281927, -5.60718371083
     135, -14.2197623858, -12.7844604565, -5.18550870447
     136, -15.6503178453, -11.6775901118, -4.50840332615
     137, -14.93588269, -12.8335272893, -5.88175852533
     138, -15.4074096865, -12.6301401066, -5.93567603455
     139, -13.9715293634, -12.1495768839, -4.95985873469
     140, -14.1632360975, -11.8398339699, -4.59208550038
     141, -14.5468269511, -11.5432383906, -4.41087204357
     142, -15.0195187102, -11.3392623115, -4.46477429416
     143, -14.3040588102, -12.495239193, -5.83732154062
     144, -14.023073786, -12.3894714569, -5.41564653421
     145, -15.4536292457, -11.282601113, -4.73854162529
     146, -14.7391940887, -12.4385382887, -6.11189635554
     147, -15.2107210843, -12.2351511057, -6.16581386524
     148, -13.7748397636, -11.7545878849, -5.1899965649
     149, -13.966547498, -11.4448449708, -4.82222331985
     150, -14.3501373499, -11.1482493905, -4.64100987407
     151, -14.8228300107, -10.9442733105, -4.69491211491
     152, -14.107370211, -12.1002501937, -6.06745984061
     153, -13.8263850864, -11.9944824573, -5.64578435556
     154, -15.256940547, -10.887612113, -4.96867944597
     155, -14.5425053899, -12.0435491891, -6.34203417545
     156, -15.0140323843, -11.8401620057, -6.39595168524
     157, -13.5781510626, -11.3595987839, -5.4201343871
     158, -13.7698578975, -11.0498559687, -5.05236163044
     159, -14.1534486491, -10.7532603909, -4.87114817423
     160, -14.6261414092, -10.5492843091, -4.92504994557
     161, -13.910681511, -11.7052611935, -6.29759766083
     162, -13.629696487, -11.5994934578, -5.87592265772
     163, -15.0609467436, -10.4925735006, -5.19932594275
     164, -14.3458167915, -11.6485601899, -6.5721724852
     165, -14.8173437871, -11.4451730068, -6.62608951437
     166, -13.3814624621, -10.9646097843, -5.65027221854
     167, -13.5731691971, -10.6548669681, -5.28249945093
     168, -13.9567600504, -10.358271391, -5.10128599368
     169, -14.429451808, -10.1542953105, -5.15518824443
     170, -13.7139929103, -11.3102721928, -6.52773549094
     171, -13.4330077872, -11.204504458, -6.10606048805
     172, -14.8645879862, -10.0975943053, -5.4297625775
     173, -15.3416855013, -10.5979881053, -5.62018593112
     174, -15.1449968016, -10.2029991051, -5.85032423199
     175, -14.1491280904, -11.2535711894, -6.80231030534
     176, -14.6214323741, -11.049810917, -6.85625178944
     177, -13.184773762, -10.5696207846, -5.88041051916
     178, -13.3764804966, -10.2598779685, -5.51263728137
     179, -13.7600713511, -9.96328233053, -5.33142382361
     180, -14.2327631087, -9.759306252, -5.38532606355
     181, -13.5173042105, -10.9152831931, -6.75787331074
     182, -13.2363191873, -10.8095154582, -6.33619830778
     183, -14.6678993863, -9.70260528676, -5.65990088602
     184, -14.9483082016, -9.8080100451, -6.08046206187
     185, -14.8078555068, -10.3587868317, -6.90572873924
     186, -15.0045442065, -10.7537758316, -6.67559091947
     187, -14.425131249, -10.6546061095, -7.08635037633
     188, -13.9524394891, -10.8585821888, -7.03244813551
     189, -12.9880851621, -10.1746317854, -6.11054833939
     190, -13.1797918962, -9.86488890856, -5.74277510185
     191, -13.5633827503, -9.56829331882, -5.56156164461
     192, -14.036074509, -9.36431724079, -5.61546389441
     193, -13.320615611, -10.5202941937, -6.98801162061
     194, -13.039630487, -10.4145263578, -6.56633613741
     195, -14.4712106867, -9.3076162669, -5.89003870624
     196, -14.7516195012, -9.41302103527, -6.31059988093
     197, -14.6111669068, -9.96379781169, -7.13586656924
     198, -14.228442549, -10.2596171095, -7.31648820634
     199, -13.7557507902, -10.4635931893, -7.26258595539
     200, -12.7913964622, -9.77964277523, -6.34068616899
     201, -12.9831031965, -9.46989989812, -5.97291340151
     202, -13.3666940494, -9.17330430929, -5.79169995475
     203, -13.8393858078, -8.96932823035, -5.8456017145
     204, -13.1239269108, -10.1253050935, -7.21814944062
     205, -12.842941887, -10.0195373578, -6.79647443763
     206, -14.2745219863, -8.91262725635, -6.12017653649
     207, -14.5549309012, -9.01803201546, -6.54073771048
     208, -14.4144782076, -9.56880880325, -7.36600438832
     209, -14.0317539507, -9.86462809062, -7.54662602524
     210, -13.5590621914, -10.0686041899, -7.49272425521
     211, -12.5947078621, -9.38465375449, -6.5708239888
     212, -12.786414597, -9.07491087802, -6.20305123101
     213, -13.1700054503, -8.77831529097, -6.02183777377
     214, -13.6426972075, -8.57433921144, -6.07574002372
     215, -12.9272382101, -9.73031612275, -7.44828727076
     216, -12.6462531872, -9.62454837802, -7.02661225797
     217, -14.0778333859, -8.517638246, -6.35031435639
     218, -14.3582422013, -8.62304300499, -6.77087601149
     219, -14.2177896075, -9.17381979327, -7.59614269834
     220, -13.8350652507, -9.46963908063, -7.77676432523
     221, -13.3623734903, -9.67361515936, -7.72286208537
     222, -12.398019162, -8.98966474472, -6.8009622992
     223, -12.5897258967, -8.6799218684, -6.43318905135
     224, -12.9733167514, -8.38332628093, -6.25197560336
     225, -13.4460085089, -8.17935020234, -6.30587784338
     226, -12.7305496103, -9.33532711306, -7.67842509063
     227, -12.4495645873, -9.22955935822, -7.25675008767
     228, -13.8811446862, -8.12264922668, -6.58045265599
     229, -14.1615536013, -8.22805398498, -7.00101384151
     230, -14.0211009068, -8.77883077171, -7.82628051925
     231, -13.638376649, -9.07465005948, -8.00690215635
     232, -13.1656848891, -9.27862613876, -7.95299990555
     233, -12.2013305631, -8.59467572731, -7.03110011826
     234, -12.393037296, -8.28493284871, -6.66332688205
     235, -12.7766280507, -7.98833678916, -6.48211342431
     236, -13.2493199098, -7.78436119112, -6.53601567433
     237, -12.5338609112, -8.94033809436, -7.90856339017
     238, -12.2528758886, -8.83457035102, -7.48688790547
     239, -13.6844560865, -7.72766021571, -6.81059048733
     240, -13.9652762227, -7.83328365807, -7.23187771465
     241, -13.8250087069, -8.38333419512, -8.05605692126
     242, -13.441687949, -8.67966104949, -8.23703997634
     243, -12.9689961898, -8.88363712865, -8.18313773576
     244, -12.0046418634, -8.19968671562, -7.26123794613
     245, -12.1963485962, -7.88994383849, -6.89346518185
     246, -12.5799394498, -7.59334776904, -6.71225172468
     247, -13.0526312095, -7.38937216986, -6.76615349512
     248, -12.3371713122, -8.54534908453, -8.13870074095
     249, -12.056186288, -8.43958134045, -7.71702621399
     250, -13.4877664872, -7.33267120496, -7.04072830897
     251, -13.7687515116, -7.43843846916, -7.46240332494
     252, -14.0169855354, -8.07332258466, -7.68805376757
     253, -13.8202969367, -7.67833309541, -7.91819159448
     254, -13.6285901029, -7.9880764522, -8.28596434904
     255, -13.244999349, -8.28467203949, -8.46717780635
     256, -12.7723074905, -8.48864811835, -8.41327555607
     257, -11.8079532627, -7.80469770214, -7.49137576532
     258, -11.9996599967, -7.49495482842, -7.12360301135
     259, -12.3832507507, -7.19835876072, -6.94238955371
     260, -12.85594261, -6.99438316069, -6.99629179465
     261, -12.1404827129, -8.15036007383, -8.36883952255
     262, -11.8594976858, -8.0445923166, -7.94716403421
     263, -13.2910777882, -6.93768218615, -7.27086613863
     264, -13.5720628124, -7.04344946143, -7.69254162117
     265, -13.6236082377, -7.28334407593, -8.14832989197
     266, -13.4319015023, -7.59308743236, -8.51610217962
     267, -13.048310649, -7.88968301949, -8.69731562635
     268, -12.5756188924, -8.09365909873, -8.64341338614
     269, -11.6112645626, -7.4097086824, -7.72151406572
     270, -11.8029712963, -7.09996580877, -7.35374083168
     271, -12.1865621515, -6.80336975022, -7.17252737358
     272, -12.6592539113, -6.59939414114, -7.22642962457
     273, -11.9437940125, -7.75537058312, -8.59897734285
     274, -11.6628089854, -7.64960330581, -8.17730186437
     275, -13.0943891885, -6.54269317684, -7.50100443824
     276, -13.3753742124, -6.6484604514, -7.92267944142
     277, -13.4269195374, -6.88835506583, -8.37846771273
     278, -13.2352128027, -7.19809842386, -8.74623999911
     279, -12.8516220519, -7.49469401207, -8.92745345421
     280, -12.3789301946, -7.69866961008, -8.87355216562
     281, -11.4145759625, -7.01471967267, -7.95165189613
     282, -11.6062826956, -6.70497679834, -7.58387866249
     283, -11.9898734507, -6.40838072854, -7.40266520456
     284, -12.4625653116, -6.20440513004, -7.45656744536
     285, -11.7471054116, -7.36038156282, -8.82911517231
     286, -11.4661203858, -7.25461428656, -8.40743968452
     287, -12.897700489, -6.14770416721, -7.73114226833
     288, -13.1786855124, -6.25347143162, -8.15281727085
     289, -13.2302309376, -6.49336605517, -8.60860554172
     290, -13.0385242035, -6.80310940311, -8.97637877842
     291, -12.6549333515, -7.09970499232, -9.15759223429
     292, -12.1822415922, -7.30368059982, -9.10368998538
     293, -11.2179363105, -6.61982615991, -8.18173486655
     294, -11.4096396484, -6.31007746197, -7.81396552154
     295, -11.7932142505, -6.01345013262, -7.63276996729
     296, -12.2658790436, -5.80942095889, -7.68670246437
     297, -11.5504393696, -6.96543730704, -9.05922672245
     298, -11.2694714431, -6.85970291068, -8.63753207274
     299, -12.7009849272, -5.75266211178, -7.9613112318
     300, -12.9819500333, -5.85839130001, -8.38300855863
     301, -13.033490378, -6.09827630616, -8.83880180347
     302, -12.8417933544, -6.40803763393, -9.20656421808
     303, -12.4582233053, -6.7046733737, -9.3877546385
     304, -11.9855549145, -6.9086956129, -9.33382546476
     305, -11.0424318463, -6.30880267839, -8.35943978927
     306, -11.2291605034, -5.98140256591, -7.99662631446
     307, -11.6006277194, -5.6559768967, -7.83362747257
     308, -12.0465662837, -5.4207715637, -7.90875928004
     309, -11.3567043184, -6.61242506168, -9.2667930783
     310, -11.0876060359, -6.53643089649, -8.82830742352
     311, -12.4560865623, -5.32836448665, -8.19786570366
     312, -12.725183112, -5.40436105727, -8.63635055105
     313, -12.7703613541, -5.63198921406, -9.10521607516
     314, -12.5836520765, -5.95942419385, -9.46800692622
     315, -12.2121904429, -6.28485689649, -9.63100353275
     316, -11.766241689, -6.52004548082, -9.55588267876
     317, -10.8326348473, -6.01133449142, -8.52226182392
     318, -11.013103945, -5.6684807881, -8.16322747771
     319, -11.3684466532, -5.31467346794, -8.01746833258
     320, -11.7843195773, -5.04893278034, -8.11228995718
     321, -11.1235008988, -6.2751340271, -9.45663860916
     322, -10.8702859195, -6.22846519747, -9.00232638449
     323, -12.1647982627, -4.92199005338, -8.41507654913
     324, -12.4180253904, -4.96868473451, -8.86937620842
     325, -12.4556647431, -5.18578560036, -9.3494506144
     326, -12.2752315105, -5.52869292582, -9.70844974313
     327, -11.9198816724, -5.88248650049, -9.85422011396
     328, -11.5039940008, -6.14820685783, -9.7594127533
     329, -10.5905761945, -5.73027500727, -8.66864257194
     330, -10.763829891, -5.37412550934, -8.31249236552
     331, -11.0990740903, -4.99290051832, -8.18258638998
     332, -11.4817452817, -4.69760526153, -8.29526768745
     333, -10.8532547005, -5.95679204293, -9.62688834368
     334, -10.6199136978, -5.93842458297, -9.15804665166
     335, -11.8299028726, -4.53768739598, -8.61077643501
     336, -12.0632725959, -4.55609677507, -9.0795975231
     337, -12.0925773432, -4.76419536591, -9.56902200931
     338, -11.9193798661, -5.12041166951, -9.92513096983
     339, -11.5841120505, -5.50160625316, -10.0550556699
     340, -11.2014207119, -5.7968795862, -9.94239032617
     341, -10.3186637015, -5.46841804875, -8.79712742291
     342, -10.4839577162, -5.10101665598, -8.44324163916
     343, -10.7952830935, -4.69385627665, -8.32742001003
     344, -11.1418523458, -4.3702805806, -8.45587510387
     345, -10.5487627134, -5.66050830365, -9.77584825977
     346, -10.3391455773, -5.66884097313, -9.29407062063
     347, -11.4546152108, -4.17932873386, -8.78302677222
     348, -11.664272769, -4.17104026422, -9.26478494371
     349, -11.6847070905, -4.37140872984, -9.76174919933
     350, -11.5194797623, -4.73887471961, -10.1155970672
     351, -11.2081183139, -5.14600055062, -10.2314382646
     352, -10.8615277825, -5.4695556795, -10.1029975509
     353, -10.0195965657, -5.22836545274, -8.90643804158
     354, -10.176298916, -4.85162503536, -8.55444166155
     355, -10.4601710419, -4.4205136243, -8.45058624321
     356, -10.7680184746, -4.07021283388, -8.592514707
     357, -10.2131388825, -5.38918673807, -9.90203318655
     358, -10.0308242343, -5.42206155773, -9.40917707516
     359, -11.042573381, -3.85051638946, -8.93011886109
     360, -11.2249282256, -3.81767598895, -9.42296086051
     361, -11.2361076438, -4.0113295901, -9.92571549705
     362, -11.0794681759, -4.38811869825, -10.2776873961
     363, -10.7955596594, -4.81920235413, -10.3815564788
     364, -10.4876931129, -5.16948824708, -10.2396370508
     365, -9.696350555, -5.01250381158, -8.99548945518
     366, -9.84384299822, -4.62820417618, -8.64519972126
     367, -10.0971289434, -4.17559612206, -8.55089760091
     368, -10.3639573193, -3.80038385135, -8.70382932592
     369, -9.84978819686, -5.14550303263, -10.0041858137
     370, -9.69796324301, -5.20024732656, -9.50233545975
     371, -10.5978033435, -3.554540925, -9.05059481651
     372, -10.7496556126, -3.49981464695, -9.55243857448
     373, -10.7512371394, -3.68753683543, -10.0592925252
     374, -10.6037827041, -4.07186055478, -10.409571698
     375, -10.3504736243, -4.52445457031, -10.5038794423
     376, -10.0836333466, -4.89965954145, -10.3509515112
     377, -9.35213551223, -4.82297776329, -9.06339482831
     378, -9.48974766331, -4.43278261897, -8.71475928668
     379, -9.70981599768, -3.96154829735, -8.62737737017
     380, -9.93368703824, -3.56347499515, -8.78871262958
     381, -9.46237534569, -4.93187349952, -10.0812837558
     382, -9.34373348875, -5.00536971684, -9.57270695207
     383, -10.1246741144, -3.29435256833, -9.14326275855
     384, -10.2433159748, -3.22085637654, -9.65183952077
     385, -10.2349139467, -3.40324832519, -10.1611515906
     386, -10.0973018377, -3.79344353375, -10.5097871758
     387, -9.87723337526, -4.26467822309, -10.5971690621
     388, -9.65336238385, -4.66275093515, -10.435834677
     389, -8.990373831, -4.66167187617, -9.10948072921
     390, -9.11732214972, -4.2671590875, -8.76250671625
     391, -9.30212534081, -3.78051578186, -8.6792654227
     392, -9.4814819397, -3.36184196308, -8.84631960462
     393, -9.05479601976, -4.7504331318, -10.1325561354
     394, -8.97144886367, -4.83920959748, -9.61964726968
     395, -9.62784265187, -3.07252654656, -9.20720626919
     396, -9.71115958553, -2.98373921479, -9.72011796793
     397, -9.69227130303, -3.16128932632, -10.2302799873
     398, -9.56527963471, -3.55578539569, -10.5772573846
     399, -9.38050271176, -4.04243863233, -10.6604971887
     400, -9.20115865265, -4.46111760227, -10.4934416104
     401, -8.61466031543, -4.53018920314, -9.1332890134
     402, -8.73001593194, -4.13289480553, -8.78796553387
     403, -8.87814592354, -3.63432085752, -8.70603253676
     404, -9.01183786333, -3.19748751881, -8.87607996563
     405, -8.63113676215, -4.60301260825, -10.1574853358
     406, -8.58455674318, -4.703346308, -9.64270772847
     407, -9.11221446727, -2.89123998961, -9.24179776233
     408, -9.15874005407, -2.79089361695, -9.75657438455
     409, -9.12870200063, -2.96406492203, -10.2659924417
     410, -9.01326519663, -3.36133698853, -10.6113133346
     411, -8.86518192365, -3.85992236046, -10.6932476894
     412, -8.73151499898, -4.29676374395, -10.5232019989
     413, -8.22872980368, -4.42983607593, -9.13458252247
     414, -8.3314090756, -4.03130728417, -8.79080215917
     415, -8.44212602696, -3.52444717559, -8.70737946843
     416, -8.52942225477, -3.07204557914, -8.87769614428
     417, -8.19563580882, -4.4911258336, -10.1558151203
     418, -8.18661881437, -4.59915428227, -9.6416427971
     419, -8.58288693559, -2.75224601251, -9.24670033261
     420, -8.59184103244, -2.64421025012, -9.76086878838
     421, -8.54980605311, -2.81353508078, -10.2679319762
     422, -8.44702881819, -3.21204598389, -10.6117002875
     423, -8.33636295385, -3.7189124271, -10.6951305384
     424, -8.24909883397, -4.17132158793, -10.5248182548
     425, -7.83641855731, -4.36160969161, -9.11334797672
     426, -7.92519310222, -3.96346462664, -8.77083163241
     427, -7.99842878877, -3.45202681559, -8.68324077278
     428, -8.03902845282, -2.98676305288, -8.85115295465
     429, -7.75264669793, -4.41595137087, -10.1275525312
     430, -7.78130393482, -4.52779305569, -9.61640251106
     431, -8.04509950787, -2.65685726731, -9.22187827897
     432, -8.01638743788, -2.54501570563, -9.73302076117
     433, -7.96133710691, -2.71119567614, -10.2360814185
     434, -7.87246776055, -3.1093327969, -10.5785786656
     435, -7.79927318824, -3.62076999482, -10.6661799212
     436, -7.75870634694, -4.08603900842, -10.4982751144
     437, -7.44162380533, -4.32618858958, -9.06979788275
     438, -7.51516567906, -3.93018027986, -8.7280214076
     439, -7.55149489752, -3.41783128856, -8.63378189519
     440, -7.54553184491, -2.94248744335, -8.79671367073
     441, -7.30658958931, -4.37832906496, -10.0729632536
     442, -7.3723794554, -4.49020010054, -9.56713813842
     443, -7.50417528411, -2.60592636764, -9.16759137461
     444, -7.43835586139, -2.49406023911, -9.67340946968
     445, -7.36914425897, -2.65806384704, -10.1707558024
     446, -7.29553093681, -3.05407194937, -10.5125134574
     447, -7.2592188546, -3.56641666036, -10.6067610546
     448, -7.26521000537, -4.04176328686, -10.443835934
     449, -7.04827085705, -4.32392408659, -9.00436479624
     450, -7.10521341275, -3.93200738054, -8.6624979779
     451, -7.10580237968, -3.42226798119, -8.55939437736
     452, -7.05383681885, -2.9396585309, -8.71492008012
     453, -6.86192204744, -4.37875632124, -9.9925743822
     454, -6.96369310296, -4.4870760778, -9.49420218401
     455, -6.96546528509, -2.5998368216, -9.08439594786
     456, -6.86369301751, -2.49151926948, -9.58276609875
     457, -6.77911283181, -2.65466753311, -10.0726042646
     458, -6.72212633788, -3.04658703411, -10.4144588245
     459, -6.72152822969, -3.55632420039, -10.5175634157
     460, -6.77351464683, -4.0389339843, -10.3620424934
     461, -6.66014280502, -4.35485322354, -8.91766756497
     462, -6.69920564956, -3.96923942228, -8.57453902099
     463, -6.66578102527, -3.46538352185, -8.46068069545
     464, -6.56883571614, -2.97830305498, -8.60658731255
     465, -6.423028023, -4.41739090696, -9.88714492283
     466, -6.55905525581, -4.51888687945, -9.3981197128
     467, -6.43434189738, -2.63848935174, -8.9731551206
     468, -6.29832112097, -2.53699267867, -9.46218261054
     469, -6.19722352824, -2.7010273068, -9.94263295806
     470, -6.15814569429, -3.08664235167, -10.2857569059
     471, -6.19155920983, -3.59049830798, -10.3996129103
     472, -6.28851304064, -4.07757847972, -10.253709589
     473, -6.18117822809, -4.4140084566, -8.79667212345
     474, -6.22023335494, -4.02840582463, -8.45354776997
     475, -6.18677231719, -3.52455835615, -8.33967426263
     476, -6.08976063891, -3.03747136078, -8.48556439441
     477, -5.94400469955, -4.47655943049, -9.76612376032
     478, -6.08007150418, -4.57804379393, -9.27710832483
     479, -5.95519288137, -2.69765898987, -8.852127089
     480, -5.81912607627, -2.59617438603, -9.34114252581
     481, -5.71801935199, -2.76020972324, -9.82157872633
     482, -5.67896422554, -3.14581211481, -10.1647039899
     483, -5.7124252608, -3.64965982382, -10.2785775569
     484, -5.80943693912, -4.13674706075, -10.1326864042
     485, -5.70209707623, -4.47317727699, -8.67564894324
     486, -5.74115267358, -4.08757464286, -8.33252363862
     487, -5.70769116962, -3.58372693574, -8.21865108325
     488, -5.61067996031, -3.09663993256, -8.36454121346
     489, -5.46492354932, -4.53572777003, -9.64510058121
     490, -5.60099034224, -4.63721261415, -9.15608514382
     491, -5.47611172917, -2.7568275601, -8.73110390852
     492, -5.34004492612, -2.65534295605, -9.22011934577
     493, -5.23893819386, -2.81937829281, -9.70055554648
     494, -5.19988307687, -3.20498069461, -10.0436798902
     495, -5.23334410077, -3.70882839394, -10.1575533569
     496, -5.33035578037, -4.1959153991, -10.0116633055
     497, -5.22301639832, -4.5323456176, -8.55462576517
     498, -5.26207152267, -4.14674298443, -8.21150045914
     499, -5.22861048678, -3.64289551395, -8.09762695267
     500, -5.13159881129, -3.15580851062, -8.24351803492
     501, -4.9858428689, -4.59489611052, -9.52407645025
     502, -5.12190967364, -4.69638095403, -9.03506196586
     503, -4.99703105114, -2.81599613986, -8.61008072902
     504, -4.86096424592, -2.71451153608, -9.09909616572
     505, -4.75985752128, -2.8785468738, -9.57953236691
     506, -4.72080191702, -3.26414926605, -9.922656721
     507, -4.75426343467, -3.76799697135, -10.036530258
     508, -4.85127463088, -4.25508421912, -9.89064009562
     509, -4.74393524805, -4.5915144266, -8.43360163344
     510, -4.78299036347, -4.20591179482, -8.09047727959
     511, -4.74952933684, -3.70206408621, -7.97660377254
     512, -4.65251764993, -3.21497709066, -8.12249390466
     513, -4.50676170938, -4.65406492044, -9.40305327042
     514, -4.64282851386, -4.755549764, -8.91403783592
     515, -4.51794989126, -2.87516471988, -8.48905659897
     516, -4.38188309625, -2.77368011604, -8.9780720358
     517, -4.2807763621, -2.93771545281, -9.45850823568
     518, -4.24172124508, -3.32331784473, -9.80163353971
     519, -4.27518227053, -3.82716555412, -9.9155070468
     520, -4.3721939493, -4.31425255126, -9.76961596392
     521, -4.2648540861, -4.6506827664, -8.31257845223
     522, -4.3039092134, -4.26508013409, -7.9694536292
     523, -4.27044817855, -3.76123266708, -7.8555801229
     524, -4.17343649998, -3.27414566156, -8.00147072407
     525, -4.02768056032, -4.71323325979, -9.28203009168
     526, -4.16374736298, -4.8147181041, -8.79301465517
     527, -4.03886874042, -2.93433329999, -8.36803341875
     528, -3.90280193627, -2.83284868603, -8.85704885578
     529, -3.80169521414, -2.99688402273, -9.33748505647
     530, -3.76264008693, -3.38248642457, -9.68060941021
     531, -3.79610112078, -3.88633413402, -9.79448291687
     532, -3.89311280061, -4.37342136986, -9.64859278508
     533, -3.78577317838, -4.70985158708, -8.19155528436
     534, -3.82482853414, -4.32424895449, -7.84842996964
     535, -3.79136726742, -3.82040124616, -7.73455694268
     536, -3.6943555907, -3.33331400062, -7.88044707482
     537, -3.54859963896, -4.77240208047, -9.16100596034
     538, -3.68466644354, -4.87388692404, -8.67199148584
     539, -3.55978783144, -2.9935018693, -8.24701024011
     540, -3.4237210261, -2.89201726605, -8.73602567574
     541, -3.32261429153, -3.05605260384, -9.21646187709
     542, -3.28355893731, -3.44165499598, -9.55958623106
     543, -3.31702020461, -3.94550270141, -9.67345973797
     544, -3.41403165081, -4.43258970925, -9.52756961553
     545, -3.30669225829, -4.76901992671, -8.07053114372
     546, -3.34574738379, -4.38341728378, -7.72740678916
     547, -3.31228634839, -3.87956981728, -7.61353329285
     548, -3.21527467061, -3.39248258132, -7.75942341434
     549, -3.06951848945, -4.8315704204, -9.03998278048
     550, -3.20558529399, -4.93305526399, -8.55096734607
     551, -3.08070667001, -3.05267044925, -8.12598611019
     552, -2.94463986607, -2.95118584606, -8.61500154576
     553, -2.84353314177, -3.11522118293, -9.09543774573
     554, -2.80447801507, -3.50082357469, -9.43856304969
     555, -2.83793905059, -4.00467104376, -9.55243655684
     556, -2.93495072925, -4.4917585211, -9.40654547403
     557, -2.82761110699, -4.82818873643, -7.94950797268
     558, -2.86666646408, -4.44258610399, -7.60638313936
     559, -2.83320519844, -3.93873839731, -7.49250963286
     560, -2.73619351944, -3.4516511612, -7.63840023422
     561, -2.59043758026, -4.89073922982, -8.91895960163
     562, -2.72650437302, -4.99222407409, -8.4299441753
     563, -2.60162575972, -3.11183902964, -8.00496292942
     564, -2.46555895621, -3.01035442604, -8.49397836579
     565, -2.3644522241, -3.17438976264, -8.97441456632
     566, -2.32539686677, -3.55999215448, -9.31753892011
     567, -2.35885813059, -4.06383986376, -9.43141242684
     568, -2.45586958051, -4.55092685964, -9.28552230521
     569, -2.34853018746, -4.88735707694, -7.82848431371
     570, -2.38758531289, -4.50175444392, -7.48535947895
     571, -2.35412427705, -3.99790697638, -7.37148645258
     572, -2.25711259925, -3.51081973054, -7.51737658462
     573, -2.11135641894, -4.94990757046, -8.79793547036
     574, -2.24742346345, -5.05139241407, -8.3089209962
     575, -2.12254459979, -3.17100759926, -7.88393976016
     576, -1.98647791587, -3.06952299608, -8.37295518566
     577, -1.88537107166, -3.23355833379, -8.85339138707
     578, -1.84631594735, -3.61916073587, -9.19651574102
     579, -1.87977698476, -4.12300820107, -9.31038924803
     580, -1.97678866101, -4.61009567907, -9.16449912568
     581, -1.86944903733, -4.94652589673, -7.70746113331
     582, -1.90850427286, -4.5609232539, -7.36433630893
     583, -1.87504312803, -4.05707555641, -7.25046280282
     584, -1.7780315701, -3.56998831048, -7.39635340481
     585, -1.63227550947, -5.00907639039, -8.67691229051
     586, -1.76834230397, -5.11056123399, -8.187896866
     587, -1.64346369003, -3.23017617934, -7.76291610001
     588, -1.50739688615, -3.12869157604, -8.25193105541
     589, -1.40629003173, -3.29272691296, -8.73236725576
     590, -1.36723491507, -3.6783293047, -9.07549256969
     591, -1.40069594059, -4.18217701372, -9.18936606684
     592, -1.49770762924, -4.66926402119, -9.04347499396
     593, -1.39036799727, -5.0056942266, -7.58643748308
     594, -1.42942324421, -4.62009159482, -7.24331264983
     595, -1.39596209841, -4.11624436666, -7.12943914289
     596, -1.29895053004, -3.62915689043, -7.27532975483
     597, -1.15319447023, -5.06824471983, -8.5558891216
     598, -1.28926127335, -5.16972956404, -8.06687368494
     599, -1.1643826508, -3.28934475963, -7.64189244946
     600, -1.02831584659, -3.18786015598, -8.13090788554
     601, -0.927209063145, -3.35189549263, -8.61134407632
     602, -0.888153822761, -3.73749788448, -8.95446843012
     603, -0.92161496958, -4.24134535376, -9.06834193683
     604, -1.01862659046, -4.72843282971, -8.92245181516
     605, -0.911287027257, -5.06486256662, -7.4654138231
     606, -0.950342266015, -4.67926041468, -7.12228899938
     607, -0.916881117233, -4.17541270674, -7.0084159726
     608, -0.81986949634, -3.68832547075, -7.1543060945
     609, -0.674113436047, -5.12741354058, -8.43486498013
     610, -0.810180237535, -5.228898384, -7.94585002447
     611, -0.685301616805, -3.34851333928, -7.52086927013
     612, -0.549234815884, -3.24702872608, -8.00988470564
     613, -0.448128025572, -3.41106406382, -8.49032090708
     614, -0.409072818318, -3.79666646589, -8.83344526102
     615, -0.442533938788, -4.30051417112, -8.94731875803
     616, -0.539545558003, -4.7876011691, -8.80142863566
     617, -0.43220599219, -5.12403138662, -7.34439065308
     618, -0.471261201968, -4.73842875468, -7.00126581937
     619, -0.437800083328, -4.23458152664, -6.88739231287
     620, -0.340788492424, -3.74749404063, -7.03328291477
     621, -0.195032416481, -5.18658188041, -8.31384181047
     622, -0.331099232944, -5.28806672396, -7.82482684485
     623, -0.206220583114, -3.40768190936, -7.39984560998
     624, -0.0701537669718, -3.30619730604, -7.88886057546
     625, 0.0309529935344, -3.47023264293, -8.36929676573
     626, 0.0700082187501, -3.85583503471, -8.71242207969
     627, 0.0365470849263, -4.3596825038, -8.82629558683
     628, -0.0604645183776, -4.84676999115, -8.68040450399
     629, 0.0468750373393, -5.18319972648, -7.22336699337
     630, 0.00781981412694, -4.7975975654, -6.88024216036
     631, 0.0412809472475, -4.29374985665, -6.76636866288
     632, 0.138292542996, -3.80666262042, -6.91225926483
     633, 0.284048631838, -5.24575068972, -8.19281863182
     634, 0.147981802191, -5.34723553397, -7.70380319457
     635, 0.272860451206, -3.46685048962, -7.27882195947
     636, 0.408927252797, -3.36536588603, -7.76783739549
     637, 0.510034041198, -3.52940122268, -8.24827359624
     638, 0.549089222245, -3.91500361448, -8.59139795011
     639, 0.515628134422, -4.41885132377, -8.70527144683
     640, 0.418616511505, -4.90593832969, -8.55938132518
     641, 0.525956076796, -5.24236853662, -7.10234334308
     642, 0.486900838017, -4.85676590466, -6.75921850936
     643, 0.520361986754, -4.35291867673, -6.6453454826
     644, 0.617373607647, -3.86583120076, -6.7912356045
     645, 0.763129667977, -5.30491903058, -8.07179450013
     646, 0.627062806503, -5.406403874, -7.58277953448
     647, 0.751941487174, -3.52601906938, -7.15779877993
     648, 0.888008287683, -3.42453446601, -7.64681373516
     649, 0.989115078091, -3.58856980362, -8.12725041691
     650, 1.02817025272, -3.97417219588, -8.470374771
     651, 0.99470916525, -4.47801966109, -8.58424827803
     652, 0.897697546036, -4.96510713912, -8.43835814564
     653, 1.00503705277, -5.30153687662, -6.98132016309
     654, 0.965981871947, -4.91593472468, -6.6381953294
     655, 0.999442961617, -4.41208701661, -6.52432182289
     656, 1.09645463957, -3.92499977057, -6.67021242481
     657, 1.24221070051, -5.3640878504, -7.95077132049
     658, 1.10614389606, -5.46557269396, -7.46175636486
     659, 1.2310225199, -3.58518764935, -7.03677513
     660, 1.36708932347, -3.48370303599, -7.52579055555
     661, 1.4681960479, -3.6477383729, -8.00622628583
     662, 1.50725129507, -4.03334077471, -8.34935158966
     663, 1.47379013956, -4.53718847378, -8.4632250968
     664, 1.37677858075, -5.02427548114, -8.317334014
     665, 1.48411808165, -5.36070569651, -6.86029650342
     666, 1.44506284503, -4.97510306541, -6.51717168037
     667, 1.47852399164, -4.4712558266, -6.40329817288
     668, 1.57553568044, -3.98416835039, -6.54918877478
     669, 1.7212917396, -5.42325618968, -7.8297481419
     670, 1.58522493595, -5.52474103394, -7.34073270469
     671, 1.71010355966, -3.64435621956, -6.91575146958
     672, 1.84617035366, -3.54287161604, -7.40476690612
     673, 1.94727708694, -3.70690695316, -7.88520310668
     674, 1.98633232418, -4.09250958484, -8.22832746
     675, 1.9528711795, -4.59635681366, -8.34220096682
     676, 1.85585961955, -5.08344429965, -8.19631083519
     677, 1.9631991228, -5.41987403667, -6.73927285316
     678, 1.92414388712, -5.03427187467, -6.39614801933
     679, 1.95760503288, -4.53042416656, -6.28227499259
     680, 2.05461659065, -4.04333717094, -6.42816511437
     681, 2.20037277033, -5.48242500024, -7.70872449079
     682, 2.06430596643, -5.58390984399, -7.21970905433
     683, 2.18918458996, -3.70352479982, -6.79472828908
     684, 2.3252513933, -3.60203995597, -7.28374324563
     685, 2.4263581167, -3.76607553371, -7.76417944768
     686, 2.46541324175, -4.15167792525, -8.10730428098
     687, 2.43195220519, -4.65552563096, -8.22117778805
     688, 2.33494052835, -5.14261262836, -8.07528765626
     689, 2.44228015287, -5.47904284662, -6.61824967304
     690, 2.40322503712, -5.09344021469, -6.27512483935
     691, 2.43668606177, -4.58959298648, -6.16125133286
     692, 2.5336977496, -4.10250551081, -6.30714194464
     693, 2.6794536907, -5.54159334054, -7.5877008302
     694, 2.54338688624, -5.64307818397, -7.09868587459
     695, 2.66826550947, -3.76269338004, -6.67370463865
     696, 2.80433230344, -3.66120853598, -7.16272007544
     697, 2.90543927722, -3.82524410361, -7.64315627729
     698, 2.94449439293, -4.21084674469, -7.98628110032
     699, 2.91103336732, -4.71469397228, -8.10015460744
     700, 2.81402168984, -5.20178145018, -7.95426400479
     701, 2.92136131161, -5.53821118646, -6.49722601337
     702, 2.88230594507, -5.15260903542, -6.15410119037
     703, 2.91576722132, -4.64876132643, -6.04022768297
     704, 3.01277865954, -4.1616743206, -6.1861182848
     705, 3.15853484092, -5.60076216021, -7.46667765085
     706, 3.02246803588, -5.70224700393, -6.9776622146
     707, 3.14734665879, -3.8218619502, -6.55268097835
     708, 3.2834134641, -3.72037710607, -7.04169641554
     709, 3.38452018858, -3.88441268379, -7.52213261696
     710, 3.42357531509, -4.27001508497, -7.86525744978
     711, 3.39011427955, -4.77386278363, -7.97913095681
     712, 3.29310260102, -5.2609497906, -7.83324034431
     713, 3.40044222282, -5.59738000661, -6.37620236305
     714, 3.36138710703, -5.21177736447, -6.03307752926
     715, 3.39484813288, -4.70792966601, -5.91920450262
     716, 3.49185982073, -4.22084266071, -6.06509463452
     717, 3.63761576047, -5.6599304999, -7.34565400146
     718, 3.50154895643, -5.76141534399, -6.85663856419
     719, 3.62642757981, -3.88103053009, -6.43165779856
     720, 3.76249437393, -3.77954568605, -6.92067276546
     721, 3.86360110713, -3.94358126359, -7.40110896729
     722, 3.90265646257, -4.32918389464, -7.74423379041
     723, 3.86919519826, -4.83303112352, -7.85810729713
     724, 3.77218375038, -5.32011859975, -7.71221669499
     725, 3.87952338284, -5.65654834662, -6.25517918306
     726, 3.84046801706, -5.27094618445, -5.91205434924
     727, 3.87392929179, -4.76709847584, -5.7981808529
     728, 3.97094072959, -4.2800114806, -5.94407145478
     729, 4.11669667015, -5.71909931017, -7.22463034095
     730, 3.98063010627, -5.82058415397, -6.73561538448
     731, 4.1055084889, -3.94019911, -6.31063414875
     732, 4.24157529279, -3.83871426589, -6.79964958518
     733, 4.34268201717, -4.00274960335, -7.28008578688
     734, 4.38173762312, -4.38835223602, -7.62321061095
     735, 4.34827610732, -4.89219994349, -7.73708364736
     736, 4.25126490932, -5.37928693924, -7.59119351551
     737, 4.35860429163, -5.71571715648, -6.13415553338
     738, 4.31954917524, -5.33011452521, -5.79103070021
     739, 4.35301020191, -4.82626681589, -5.67715719286
     740, 4.45002187991, -4.33917982075, -5.82304779463
     741, 4.59577783096, -5.77826765026, -7.10360716075
     742, 4.45971102592, -5.87975249393, -6.61459173458
     743, 4.58458963882, -3.99936745018, -6.1896104884
     744, 4.72065644398, -3.89788283606, -6.6786259257
     745, 4.82176317809, -4.06191841354, -7.15906212678
     746, 4.86081829492, -4.44752105624, -7.50218696049
     747, 4.82735726837, -4.95136828357, -7.6160604671
     748, 4.73034559, -5.43845575941, -7.47016986528
     749, 4.83768545271, -5.77488549652, -6.01313187296
     750, 4.79863032672, -5.38928333444, -5.67000703934
     751, 4.83209136263, -4.88543563602, -5.55613401268
     752, 4.92910304048, -4.39834863098, -5.70202414438
     753, 5.07485898057, -5.83743646991, -6.98258351144
     754, 4.93879217659, -5.93892131401, -6.49356807416
     755, 5.06367079967, -4.05853626004, -6.06858731866
     756, 5.19973760417, -3.95705141608, -6.55760227539
     757, 5.30084432755, -4.12108675364, -7.03803847718
     758, 5.3398994524, -4.50668938496, -7.38116330063
     759, 5.30643841779, -5.0105370934, -7.49503680726
     760, 5.20942674015, -5.49762409979, -7.349146205
     761, 5.31676612258, -5.8340543166, -5.89210869315
     762, 5.27771100675, -5.44845167442, -5.54898386932
     763, 5.31117203151, -4.94460397588, -5.43511036296
     764, 5.4081837194, -4.45751697077, -5.5810009647
     765, 5.55394013008, -5.89660480008, -6.86155985112
     766, 5.41787333617, -5.99808965397, -6.37254489477
     767, 5.54275194971, -4.11770459972, -5.94756365928
     768, 5.67881875368, -4.01622023602, -6.43657909555
     769, 5.77992548735, -4.1802555729, -6.91701529608
     770, 5.81898060298, -4.56585772552, -7.26014013074
     771, 5.78551957711, -5.06970543359, -7.37401315741
     772, 5.68850788931, -5.55679290943, -7.22812302538
     773, 5.79584728204, -5.89322264654, -5.7710850433
     774, 5.7567921554, -5.50762049524, -5.42796021017
     775, 5.79025319203, -5.00377278596, -5.31408670283
     776, 5.88726487009, -4.51668579059, -5.45997731471
     777, 6.0330208109, -5.95577362022, -6.74053668083
     778, 5.89695400615, -6.05725846397, -6.25152124478
     779, 6.02183262911, -4.17687341989, -5.82654000895
     780, 6.15789943432, -4.07538857611, -6.31555544566
     781, 6.25900615844, -4.23942391288, -6.79599163555
     782, 6.29806175524, -4.62502654579, -7.13911647016
     783, 6.26460024857, -5.12887425385, -7.25298997704
     784, 6.16758905023, -5.61596124943, -7.10709937523
     785, 6.27492843281, -5.95239146637, -5.65006138266
     786, 6.23587331484, -5.56678883588, -5.30693656068
     787, 6.26933434307, -5.06294112605, -5.19306353257
     788, 6.36634601991, -4.57585412062, -5.33895365472
     789, 6.51210196198, -6.01494195975, -6.61951302174
     790, 6.37603516895, -6.11642680426, -6.13049806242
     791, 6.50091377686, -4.23604176019, -5.70551682839
     792, 6.63698058396, -4.13455738603, -6.1945317846
     793, 6.73808731984, -4.2985927233, -6.6749679856
     794, 6.77714243572, -4.68419488555, -7.01809281988
     795, 6.74368140982, -5.18804259441, -7.13196631669
     796, 6.64666972079, -5.67513006919, -6.98607571529
*Element, type=R3D4
       1, 1, 2, 3, 4
       2, 5, 1, 4, 6
       3, 2, 7, 8, 3
       4, 4, 3, 9, 10
       5, 6, 4, 10, 11
       6, 12, 10, 9, 13
       7, 11, 10, 12, 14
       8, 15, 16, 17, 18
       9, 7, 19, 20, 18
      10, 7, 2, 21, 19
      11, 22, 15, 18, 20
      12, 17, 16, 13, 8
      13, 19, 21, 23, 24
      14, 25, 23, 21, 26
      15, 27, 25, 26, 28
      16, 12, 13, 16, 29
      17, 14, 12, 29, 30
      18, 16, 15, 31, 29
      19, 31, 15, 22, 32
      20, 22, 33, 34, 32
      21, 33, 35, 36, 34
      22, 18, 17, 8, 7
      23, 26, 21, 2, 1
      24, 28, 26, 1, 5
      25, 23, 25, 37, 24
      26, 38, 37, 25, 27
      27, 22, 20, 35, 33
      28, 35, 24, 37, 36
      29, 39, 36, 37, 38
      30, 35, 20, 19, 24
      31, 8, 13, 9, 3
      32, 40, 5, 6, 41
      33, 41, 6, 11, 42
      34, 42, 11, 14, 43
      35, 44, 27, 28, 45
      36, 43, 14, 30, 46
      37, 45, 28, 5, 40
      38, 47, 38, 27, 44
      39, 48, 39, 38, 47
      40, 49, 40, 41, 50
      41, 50, 41, 42, 51
      42, 51, 42, 43, 52
      43, 53, 44, 45, 54
      44, 52, 43, 46, 55
      45, 54, 45, 40, 49
      46, 56, 47, 44, 53
      47, 57, 48, 47, 56
      48, 58, 49, 50, 59
      49, 59, 50, 51, 60
      50, 60, 51, 52, 61
      51, 62, 53, 54, 63
      52, 61, 52, 55, 64
      53, 63, 54, 49, 58
      54, 65, 56, 53, 62
      55, 66, 57, 56, 65
      56, 67, 58, 59, 68
      57, 68, 59, 60, 69
      58, 69, 60, 61, 70
      59, 71, 62, 63, 72
      60, 70, 61, 64, 73
      61, 72, 63, 58, 67
      62, 74, 65, 62, 71
      63, 75, 66, 65, 74
      64, 76, 67, 68, 77
      65, 77, 68, 69, 78
      66, 78, 69, 70, 79
      67, 80, 71, 72, 81
      68, 79, 70, 73, 82
      69, 81, 72, 67, 76
      70, 83, 74, 71, 80
      71, 84, 75, 74, 83
      72, 85, 76, 77, 86
      73, 86, 77, 78, 87
      74, 87, 78, 79, 88
      75, 89, 80, 81, 90
      76, 88, 79, 82, 91
      77, 90, 81, 76, 85
      78, 92, 83, 80, 89
      79, 93, 84, 83, 92
      80, 94, 85, 86, 95
      81, 95, 86, 87, 96
      82, 96, 87, 88, 97
      83, 98, 89, 90, 99
      84, 97, 88, 91, 100
      85, 99, 90, 85, 94
      86, 101, 92, 89, 98
      87, 102, 93, 92, 101
      88, 103, 94, 95, 104
      89, 104, 95, 96, 105
      90, 105, 96, 97, 106
      91, 107, 98, 99, 108
      92, 106, 97, 100, 109
      93, 108, 99, 94, 103
      94, 110, 101, 98, 107
      95, 111, 102, 101, 110
      96, 112, 103, 104, 113
      97, 113, 104, 105, 114
      98, 114, 105, 106, 115
      99, 116, 107, 108, 117
     100, 115, 106, 109, 118
     101, 117, 108, 103, 112
     102, 119, 110, 107, 116
     103, 120, 111, 110, 119
     104, 121, 112, 113, 122
     105, 122, 113, 114, 123
     106, 123, 114, 115, 124
     107, 125, 116, 117, 126
     108, 124, 115, 118, 127
     109, 126, 117, 112, 121
     110, 128, 119, 116, 125
     111, 129, 120, 119, 128
     112, 130, 121, 122, 131
     113, 131, 122, 123, 132
     114, 132, 123, 124, 133
     115, 134, 125, 126, 135
     116, 133, 124, 127, 136
     117, 135, 126, 121, 130
     118, 137, 128, 125, 134
     119, 138, 129, 128, 137
     120, 139, 130, 131, 140
     121, 140, 131, 132, 141
     122, 141, 132, 133, 142
     123, 143, 134, 135, 144
     124, 142, 133, 136, 145
     125, 144, 135, 130, 139
     126, 146, 137, 134, 143
     127, 147, 138, 137, 146
     128, 148, 139, 140, 149
     129, 149, 140, 141, 150
     130, 150, 141, 142, 151
     131, 152, 143, 144, 153
     132, 151, 142, 145, 154
     133, 153, 144, 139, 148
     134, 155, 146, 143, 152
     135, 156, 147, 146, 155
     136, 157, 148, 149, 158
     137, 158, 149, 150, 159
     138, 159, 150, 151, 160
     139, 161, 152, 153, 162
     140, 160, 151, 154, 163
     141, 162, 153, 148, 157
     142, 164, 155, 152, 161
     143, 165, 156, 155, 164
     144, 166, 157, 158, 167
     145, 167, 158, 159, 168
     146, 168, 159, 160, 169
     147, 170, 161, 162, 171
     148, 169, 160, 163, 172
     149, 172, 163, 173, 174
     150, 171, 162, 157, 166
     151, 175, 164, 161, 170
     152, 176, 165, 164, 175
     153, 177, 166, 167, 178
     154, 178, 167, 168, 179
     155, 179, 168, 169, 180
     156, 181, 170, 171, 182
     157, 180, 169, 172, 183
     158, 183, 172, 174, 184
     159, 185, 186, 176, 187
     160, 182, 171, 166, 177
     161, 188, 175, 170, 181
     162, 187, 176, 175, 188
     163, 189, 177, 178, 190
     164, 190, 178, 179, 191
     165, 191, 179, 180, 192
     166, 193, 181, 182, 194
     167, 192, 180, 183, 195
     168, 195, 183, 184, 196
     169, 197, 185, 187, 198
     170, 194, 182, 177, 189
     171, 199, 188, 181, 193
     172, 198, 187, 188, 199
     173, 200, 189, 190, 201
     174, 201, 190, 191, 202
     175, 202, 191, 192, 203
     176, 204, 193, 194, 205
     177, 203, 192, 195, 206
     178, 206, 195, 196, 207
     179, 208, 197, 198, 209
     180, 205, 194, 189, 200
     181, 210, 199, 193, 204
     182, 209, 198, 199, 210
     183, 211, 200, 201, 212
     184, 212, 201, 202, 213
     185, 213, 202, 203, 214
     186, 215, 204, 205, 216
     187, 214, 203, 206, 217
     188, 217, 206, 207, 218
     189, 219, 208, 209, 220
     190, 216, 205, 200, 211
     191, 221, 210, 204, 215
     192, 220, 209, 210, 221
     193, 222, 211, 212, 223
     194, 223, 212, 213, 224
     195, 224, 213, 214, 225
     196, 226, 215, 216, 227
     197, 225, 214, 217, 228
     198, 228, 217, 218, 229
     199, 230, 219, 220, 231
     200, 227, 216, 211, 222
     201, 232, 221, 215, 226
     202, 231, 220, 221, 232
     203, 233, 222, 223, 234
     204, 234, 223, 224, 235
     205, 235, 224, 225, 236
     206, 237, 226, 227, 238
     207, 236, 225, 228, 239
     208, 239, 228, 229, 240
     209, 241, 230, 231, 242
     210, 238, 227, 222, 233
     211, 243, 232, 226, 237
     212, 242, 231, 232, 243
     213, 244, 233, 234, 245
     214, 245, 234, 235, 246
     215, 246, 235, 236, 247
     216, 248, 237, 238, 249
     217, 247, 236, 239, 250
     218, 250, 239, 240, 251
     219, 251, 240, 252, 253
     220, 253, 252, 241, 254
     221, 254, 241, 242, 255
     222, 249, 238, 233, 244
     223, 256, 243, 237, 248
     224, 255, 242, 243, 256
     225, 257, 244, 245, 258
     226, 258, 245, 246, 259
     227, 259, 246, 247, 260
     228, 261, 248, 249, 262
     229, 260, 247, 250, 263
     230, 263, 250, 251, 264
     231, 264, 251, 253, 265
     232, 265, 253, 254, 266
     233, 266, 254, 255, 267
     234, 262, 249, 244, 257
     235, 268, 256, 248, 261
     236, 267, 255, 256, 268
     237, 269, 257, 258, 270
     238, 270, 258, 259, 271
     239, 271, 259, 260, 272
     240, 273, 261, 262, 274
     241, 272, 260, 263, 275
     242, 275, 263, 264, 276
     243, 276, 264, 265, 277
     244, 277, 265, 266, 278
     245, 278, 266, 267, 279
     246, 274, 262, 257, 269
     247, 280, 268, 261, 273
     248, 279, 267, 268, 280
     249, 281, 269, 270, 282
     250, 282, 270, 271, 283
     251, 283, 271, 272, 284
     252, 285, 273, 274, 286
     253, 284, 272, 275, 287
     254, 287, 275, 276, 288
     255, 288, 276, 277, 289
     256, 289, 277, 278, 290
     257, 290, 278, 279, 291
     258, 286, 274, 269, 281
     259, 292, 280, 273, 285
     260, 291, 279, 280, 292
     261, 293, 281, 282, 294
     262, 294, 282, 283, 295
     263, 295, 283, 284, 296
     264, 297, 285, 286, 298
     265, 296, 284, 287, 299
     266, 299, 287, 288, 300
     267, 300, 288, 289, 301
     268, 301, 289, 290, 302
     269, 302, 290, 291, 303
     270, 298, 286, 281, 293
     271, 304, 292, 285, 297
     272, 303, 291, 292, 304
     273, 305, 293, 294, 306
     274, 306, 294, 295, 307
     275, 307, 295, 296, 308
     276, 309, 297, 298, 310
     277, 308, 296, 299, 311
     278, 311, 299, 300, 312
     279, 312, 300, 301, 313
     280, 313, 301, 302, 314
     281, 314, 302, 303, 315
     282, 310, 298, 293, 305
     283, 316, 304, 297, 309
     284, 315, 303, 304, 316
     285, 317, 305, 306, 318
     286, 318, 306, 307, 319
     287, 319, 307, 308, 320
     288, 321, 309, 310, 322
     289, 320, 308, 311, 323
     290, 323, 311, 312, 324
     291, 324, 312, 313, 325
     292, 325, 313, 314, 326
     293, 326, 314, 315, 327
     294, 322, 310, 305, 317
     295, 328, 316, 309, 321
     296, 327, 315, 316, 328
     297, 329, 317, 318, 330
     298, 330, 318, 319, 331
     299, 331, 319, 320, 332
     300, 333, 321, 322, 334
     301, 332, 320, 323, 335
     302, 335, 323, 324, 336
     303, 336, 324, 325, 337
     304, 337, 325, 326, 338
     305, 338, 326, 327, 339
     306, 334, 322, 317, 329
     307, 340, 328, 321, 333
     308, 339, 327, 328, 340
     309, 341, 329, 330, 342
     310, 342, 330, 331, 343
     311, 343, 331, 332, 344
     312, 345, 333, 334, 346
     313, 344, 332, 335, 347
     314, 347, 335, 336, 348
     315, 348, 336, 337, 349
     316, 349, 337, 338, 350
     317, 350, 338, 339, 351
     318, 346, 334, 329, 341
     319, 352, 340, 333, 345
     320, 351, 339, 340, 352
     321, 353, 341, 342, 354
     322, 354, 342, 343, 355
     323, 355, 343, 344, 356
     324, 357, 345, 346, 358
     325, 356, 344, 347, 359
     326, 359, 347, 348, 360
     327, 360, 348, 349, 361
     328, 361, 349, 350, 362
     329, 362, 350, 351, 363
     330, 358, 346, 341, 353
     331, 364, 352, 345, 357
     332, 363, 351, 352, 364
     333, 365, 353, 354, 366
     334, 366, 354, 355, 367
     335, 367, 355, 356, 368
     336, 369, 357, 358, 370
     337, 368, 356, 359, 371
     338, 371, 359, 360, 372
     339, 372, 360, 361, 373
     340, 373, 361, 362, 374
     341, 374, 362, 363, 375
     342, 370, 358, 353, 365
     343, 376, 364, 357, 369
     344, 375, 363, 364, 376
     345, 377, 365, 366, 378
     346, 378, 366, 367, 379
     347, 379, 367, 368, 380
     348, 381, 369, 370, 382
     349, 380, 368, 371, 383
     350, 383, 371, 372, 384
     351, 384, 372, 373, 385
     352, 385, 373, 374, 386
     353, 386, 374, 375, 387
     354, 382, 370, 365, 377
     355, 388, 376, 369, 381
     356, 387, 375, 376, 388
     357, 389, 377, 378, 390
     358, 390, 378, 379, 391
     359, 391, 379, 380, 392
     360, 393, 381, 382, 394
     361, 392, 380, 383, 395
     362, 395, 383, 384, 396
     363, 396, 384, 385, 397
     364, 397, 385, 386, 398
     365, 398, 386, 387, 399
     366, 394, 382, 377, 389
     367, 400, 388, 381, 393
     368, 399, 387, 388, 400
     369, 401, 389, 390, 402
     370, 402, 390, 391, 403
     371, 403, 391, 392, 404
     372, 405, 393, 394, 406
     373, 404, 392, 395, 407
     374, 407, 395, 396, 408
     375, 408, 396, 397, 409
     376, 409, 397, 398, 410
     377, 410, 398, 399, 411
     378, 406, 394, 389, 401
     379, 412, 400, 393, 405
     380, 411, 399, 400, 412
     381, 413, 401, 402, 414
     382, 414, 402, 403, 415
     383, 415, 403, 404, 416
     384, 417, 405, 406, 418
     385, 416, 404, 407, 419
     386, 419, 407, 408, 420
     387, 420, 408, 409, 421
     388, 421, 409, 410, 422
     389, 422, 410, 411, 423
     390, 418, 406, 401, 413
     391, 424, 412, 405, 417
     392, 423, 411, 412, 424
     393, 425, 413, 414, 426
     394, 426, 414, 415, 427
     395, 427, 415, 416, 428
     396, 429, 417, 418, 430
     397, 428, 416, 419, 431
     398, 431, 419, 420, 432
     399, 432, 420, 421, 433
     400, 433, 421, 422, 434
     401, 434, 422, 423, 435
     402, 430, 418, 413, 425
     403, 436, 424, 417, 429
     404, 435, 423, 424, 436
     405, 437, 425, 426, 438
     406, 438, 426, 427, 439
     407, 439, 427, 428, 440
     408, 441, 429, 430, 442
     409, 440, 428, 431, 443
     410, 443, 431, 432, 444
     411, 444, 432, 433, 445
     412, 445, 433, 434, 446
     413, 446, 434, 435, 447
     414, 442, 430, 425, 437
     415, 448, 436, 429, 441
     416, 447, 435, 436, 448
     417, 449, 437, 438, 450
     418, 450, 438, 439, 451
     419, 451, 439, 440, 452
     420, 453, 441, 442, 454
     421, 452, 440, 443, 455
     422, 455, 443, 444, 456
     423, 456, 444, 445, 457
     424, 457, 445, 446, 458
     425, 458, 446, 447, 459
     426, 454, 442, 437, 449
     427, 460, 448, 441, 453
     428, 459, 447, 448, 460
     429, 461, 449, 450, 462
     430, 462, 450, 451, 463
     431, 463, 451, 452, 464
     432, 465, 453, 454, 466
     433, 464, 452, 455, 467
     434, 467, 455, 456, 468
     435, 468, 456, 457, 469
     436, 469, 457, 458, 470
     437, 470, 458, 459, 471
     438, 466, 454, 449, 461
     439, 472, 460, 453, 465
     440, 471, 459, 460, 472
     441, 473, 461, 462, 474
     442, 474, 462, 463, 475
     443, 475, 463, 464, 476
     444, 477, 465, 466, 478
     445, 476, 464, 467, 479
     446, 479, 467, 468, 480
     447, 480, 468, 469, 481
     448, 481, 469, 470, 482
     449, 482, 470, 471, 483
     450, 478, 466, 461, 473
     451, 484, 472, 465, 477
     452, 483, 471, 472, 484
     453, 485, 473, 474, 486
     454, 486, 474, 475, 487
     455, 487, 475, 476, 488
     456, 489, 477, 478, 490
     457, 488, 476, 479, 491
     458, 491, 479, 480, 492
     459, 492, 480, 481, 493
     460, 493, 481, 482, 494
     461, 494, 482, 483, 495
     462, 490, 478, 473, 485
     463, 496, 484, 477, 489
     464, 495, 483, 484, 496
     465, 497, 485, 486, 498
     466, 498, 486, 487, 499
     467, 499, 487, 488, 500
     468, 501, 489, 490, 502
     469, 500, 488, 491, 503
     470, 503, 491, 492, 504
     471, 504, 492, 493, 505
     472, 505, 493, 494, 506
     473, 506, 494, 495, 507
     474, 502, 490, 485, 497
     475, 508, 496, 489, 501
     476, 507, 495, 496, 508
     477, 509, 497, 498, 510
     478, 510, 498, 499, 511
     479, 511, 499, 500, 512
     480, 513, 501, 502, 514
     481, 512, 500, 503, 515
     482, 515, 503, 504, 516
     483, 516, 504, 505, 517
     484, 517, 505, 506, 518
     485, 518, 506, 507, 519
     486, 514, 502, 497, 509
     487, 520, 508, 501, 513
     488, 519, 507, 508, 520
     489, 521, 509, 510, 522
     490, 522, 510, 511, 523
     491, 523, 511, 512, 524
     492, 525, 513, 514, 526
     493, 524, 512, 515, 527
     494, 527, 515, 516, 528
     495, 528, 516, 517, 529
     496, 529, 517, 518, 530
     497, 530, 518, 519, 531
     498, 526, 514, 509, 521
     499, 532, 520, 513, 525
     500, 531, 519, 520, 532
     501, 533, 521, 522, 534
     502, 534, 522, 523, 535
     503, 535, 523, 524, 536
     504, 537, 525, 526, 538
     505, 536, 524, 527, 539
     506, 539, 527, 528, 540
     507, 540, 528, 529, 541
     508, 541, 529, 530, 542
     509, 542, 530, 531, 543
     510, 538, 526, 521, 533
     511, 544, 532, 525, 537
     512, 543, 531, 532, 544
     513, 545, 533, 534, 546
     514, 546, 534, 535, 547
     515, 547, 535, 536, 548
     516, 549, 537, 538, 550
     517, 548, 536, 539, 551
     518, 551, 539, 540, 552
     519, 552, 540, 541, 553
     520, 553, 541, 542, 554
     521, 554, 542, 543, 555
     522, 550, 538, 533, 545
     523, 556, 544, 537, 549
     524, 555, 543, 544, 556
     525, 557, 545, 546, 558
     526, 558, 546, 547, 559
     527, 559, 547, 548, 560
     528, 561, 549, 550, 562
     529, 560, 548, 551, 563
     530, 563, 551, 552, 564
     531, 564, 552, 553, 565
     532, 565, 553, 554, 566
     533, 566, 554, 555, 567
     534, 562, 550, 545, 557
     535, 568, 556, 549, 561
     536, 567, 555, 556, 568
     537, 569, 557, 558, 570
     538, 570, 558, 559, 571
     539, 571, 559, 560, 572
     540, 573, 561, 562, 574
     541, 572, 560, 563, 575
     542, 575, 563, 564, 576
     543, 576, 564, 565, 577
     544, 577, 565, 566, 578
     545, 578, 566, 567, 579
     546, 574, 562, 557, 569
     547, 580, 568, 561, 573
     548, 579, 567, 568, 580
     549, 581, 569, 570, 582
     550, 582, 570, 571, 583
     551, 583, 571, 572, 584
     552, 585, 573, 574, 586
     553, 584, 572, 575, 587
     554, 587, 575, 576, 588
     555, 588, 576, 577, 589
     556, 589, 577, 578, 590
     557, 590, 578, 579, 591
     558, 586, 574, 569, 581
     559, 592, 580, 573, 585
     560, 591, 579, 580, 592
     561, 593, 581, 582, 594
     562, 594, 582, 583, 595
     563, 595, 583, 584, 596
     564, 597, 585, 586, 598
     565, 596, 584, 587, 599
     566, 599, 587, 588, 600
     567, 600, 588, 589, 601
     568, 601, 589, 590, 602
     569, 602, 590, 591, 603
     570, 598, 586, 581, 593
     571, 604, 592, 585, 597
     572, 603, 591, 592, 604
     573, 605, 593, 594, 606
     574, 606, 594, 595, 607
     575, 607, 595, 596, 608
     576, 609, 597, 598, 610
     577, 608, 596, 599, 611
     578, 611, 599, 600, 612
     579, 612, 600, 601, 613
     580, 613, 601, 602, 614
     581, 614, 602, 603, 615
     582, 610, 598, 593, 605
     583, 616, 604, 597, 609
     584, 615, 603, 604, 616
     585, 617, 605, 606, 618
     586, 618, 606, 607, 619
     587, 619, 607, 608, 620
     588, 621, 609, 610, 622
     589, 620, 608, 611, 623
     590, 623, 611, 612, 624
     591, 624, 612, 613, 625
     592, 625, 613, 614, 626
     593, 626, 614, 615, 627
     594, 622, 610, 605, 617
     595, 628, 616, 609, 621
     596, 627, 615, 616, 628
     597, 629, 617, 618, 630
     598, 630, 618, 619, 631
     599, 631, 619, 620, 632
     600, 633, 621, 622, 634
     601, 632, 620, 623, 635
     602, 635, 623, 624, 636
     603, 636, 624, 625, 637
     604, 637, 625, 626, 638
     605, 638, 626, 627, 639
     606, 634, 622, 617, 629
     607, 640, 628, 621, 633
     608, 639, 627, 628, 640
     609, 641, 629, 630, 642
     610, 642, 630, 631, 643
     611, 643, 631, 632, 644
     612, 645, 633, 634, 646
     613, 644, 632, 635, 647
     614, 647, 635, 636, 648
     615, 648, 636, 637, 649
     616, 649, 637, 638, 650
     617, 650, 638, 639, 651
     618, 646, 634, 629, 641
     619, 652, 640, 633, 645
     620, 651, 639, 640, 652
     621, 653, 641, 642, 654
     622, 654, 642, 643, 655
     623, 655, 643, 644, 656
     624, 657, 645, 646, 658
     625, 656, 644, 647, 659
     626, 659, 647, 648, 660
     627, 660, 648, 649, 661
     628, 661, 649, 650, 662
     629, 662, 650, 651, 663
     630, 658, 646, 641, 653
     631, 664, 652, 645, 657
     632, 663, 651, 652, 664
     633, 665, 653, 654, 666
     634, 666, 654, 655, 667
     635, 667, 655, 656, 668
     636, 669, 657, 658, 670
     637, 668, 656, 659, 671
     638, 671, 659, 660, 672
     639, 672, 660, 661, 673
     640, 673, 661, 662, 674
     641, 674, 662, 663, 675
     642, 670, 658, 653, 665
     643, 676, 664, 657, 669
     644, 675, 663, 664, 676
     645, 677, 665, 666, 678
     646, 678, 666, 667, 679
     647, 679, 667, 668, 680
     648, 681, 669, 670, 682
     649, 680, 668, 671, 683
     650, 683, 671, 672, 684
     651, 684, 672, 673, 685
     652, 685, 673, 674, 686
     653, 686, 674, 675, 687
     654, 682, 670, 665, 677
     655, 688, 676, 669, 681
     656, 687, 675, 676, 688
     657, 689, 677, 678, 690
     658, 690, 678, 679, 691
     659, 691, 679, 680, 692
     660, 693, 681, 682, 694
     661, 692, 680, 683, 695
     662, 695, 683, 684, 696
     663, 696, 684, 685, 697
     664, 697, 685, 686, 698
     665, 698, 686, 687, 699
     666, 694, 682, 677, 689
     667, 700, 688, 681, 693
     668, 699, 687, 688, 700
     669, 701, 689, 690, 702
     670, 702, 690, 691, 703
     671, 703, 691, 692, 704
     672, 705, 693, 694, 706
     673, 704, 692, 695, 707
     674, 707, 695, 696, 708
     675, 708, 696, 697, 709
     676, 709, 697, 698, 710
     677, 710, 698, 699, 711
     678, 706, 694, 689, 701
     679, 712, 700, 693, 705
     680, 711, 699, 700, 712
     681, 713, 701, 702, 714
     682, 714, 702, 703, 715
     683, 715, 703, 704, 716
     684, 717, 705, 706, 718
     685, 716, 704, 707, 719
     686, 719, 707, 708, 720
     687, 720, 708, 709, 721
     688, 721, 709, 710, 722
     689, 722, 710, 711, 723
     690, 718, 706, 701, 713
     691, 724, 712, 705, 717
     692, 723, 711, 712, 724
     693, 725, 713, 714, 726
     694, 726, 714, 715, 727
     695, 727, 715, 716, 728
     696, 729, 717, 718, 730
     697, 728, 716, 719, 731
     698, 731, 719, 720, 732
     699, 732, 720, 721, 733
     700, 733, 721, 722, 734
     701, 734, 722, 723, 735
     702, 730, 718, 713, 725
     703, 736, 724, 717, 729
     704, 735, 723, 724, 736
     705, 737, 725, 726, 738
     706, 738, 726, 727, 739
     707, 739, 727, 728, 740
     708, 741, 729, 730, 742
     709, 740, 728, 731, 743
     710, 743, 731, 732, 744
     711, 744, 732, 733, 745
     712, 745, 733, 734, 746
     713, 746, 734, 735, 747
     714, 742, 730, 725, 737
     715, 748, 736, 729, 741
     716, 747, 735, 736, 748
     717, 749, 737, 738, 750
     718, 750, 738, 739, 751
     719, 751, 739, 740, 752
     720, 753, 741, 742, 754
     721, 752, 740, 743, 755
     722, 755, 743, 744, 756
     723, 756, 744, 745, 757
     724, 757, 745, 746, 758
     725, 758, 746, 747, 759
     726, 754, 742, 737, 749
     727, 760, 748, 741, 753
     728, 759, 747, 748, 760
     729, 761, 749, 750, 762
     730, 762, 750, 751, 763
     731, 763, 751, 752, 764
     732, 765, 753, 754, 766
     733, 764, 752, 755, 767
     734, 767, 755, 756, 768
     735, 768, 756, 757, 769
     736, 769, 757, 758, 770
     737, 770, 758, 759, 771
     738, 766, 754, 749, 761
     739, 772, 760, 753, 765
     740, 771, 759, 760, 772
     741, 773, 761, 762, 774
     742, 774, 762, 763, 775
     743, 775, 763, 764, 776
     744, 777, 765, 766, 778
     745, 776, 764, 767, 779
     746, 779, 767, 768, 780
     747, 780, 768, 769, 781
     748, 781, 769, 770, 782
     749, 782, 770, 771, 783
     750, 778, 766, 761, 773
     751, 784, 772, 765, 777
     752, 783, 771, 772, 784
     753, 785, 773, 774, 786
     754, 786, 774, 775, 787
     755, 787, 775, 776, 788
     756, 789, 777, 778, 790
     757, 788, 776, 779, 791
     758, 791, 779, 780, 792
     759, 792, 780, 781, 793
     760, 793, 781, 782, 794
     761, 794, 782, 783, 795
     762, 790, 778, 773, 785
     763, 796, 784, 777, 789
     764, 795, 783, 784, 796
*Elset, elset=PIPE_WALL_HELPER_ALL, generate
1, 764, 1
*Surface, type=ELEMENT, name=PIPE_WALL_HELPER_SURF
PIPE_WALL_HELPER_ALL, SPOS
*End Part
** Robot-only terminal stop; not included in CEL material contact
*Part, name=Pipe_TERMINAL_STOP
*Node
       1, -17.8120422, -16.0254612, -1.98043847
       2, -18.0087299, -16.4204502, -1.75030053
       3, -18.288311, -16.5256882, -2.16986728
       4, -18.0916214, -16.1306992, -2.40000534
       5, -18.3395977, -16.7643833, -2.62337637
       6, -18.1429081, -16.3693943, -2.85351443
       7, -18.1488495, -17.0725784, -2.9893105
       8, -17.9521599, -16.6775894, -3.21944857
       9, -17.7671776, -17.367691, -3.16961789
      10, -17.570488, -16.972702, -3.39975595
      11, -17.6153526, -15.6304722, -2.21057653
      12, -17.8949337, -15.7357101, -2.63014317
      13, -17.9462204, -15.9744062, -3.08365226
      14, -17.7554722, -16.2826004, -3.44958639
      15, -17.3737984, -16.577713, -3.62989378
      16, -17.4186649, -15.2354832, -2.44071436
      17, -17.6982441, -15.3407211, -2.86028123
      18, -17.7495308, -15.5794172, -3.31379032
      19, -17.5587826, -15.8876114, -3.67972445
      20, -17.1771107, -16.182724, -3.86003184
      21, -17.2219753, -14.8404942, -2.67085242
      22, -17.5015564, -14.9457321, -3.09041905
      23, -17.5528431, -15.1844282, -3.54392815
      24, -17.3620949, -15.4926224, -3.90986228
      25, -16.9804211, -15.787735, -4.09016991
      26, -17.0252876, -14.4455051, -2.90099025
      27, -17.3048668, -14.5507431, -3.32055712
      28, -17.3561535, -14.7894392, -3.77406621
      29, -17.1654053, -15.0976334, -4.14000034
      30, -16.7837334, -15.392746, -4.32030773
      31, -16.828598, -14.0505161, -3.13112831
      32, -17.1081791, -14.1557541, -3.55069494
      33, -17.1594658, -14.3944502, -4.00420427
      34, -16.9687176, -14.7026443, -4.37013817
      35, -16.5870438, -14.997757, -4.55044556
      36, -16.6319103, -13.6555271, -3.36126614
      37, -16.9114895, -13.7607651, -3.78083301
      38, -16.9627762, -13.9994612, -4.2343421
      39, -16.772028, -14.3076553, -4.60027599
      40, -16.3903561, -14.6027679, -4.78058338
      41, -16.4352207, -13.2605381, -3.5914042
      42, -16.7148018, -13.3657761, -4.01097107
      43, -16.7660885, -13.6044722, -4.46447992
      44, -16.5753403, -13.9126663, -4.8304143
      45, -16.1936665, -14.2077789, -5.01072168
      46, -16.238533, -12.8655491, -3.82154202
      47, -16.5181122, -12.970787, -4.24110889
      48, -16.5693989, -13.2094831, -4.69461775
      49, -16.3786507, -13.5176773, -5.06055212
      50, -15.9969788, -13.8127899, -5.24085951
      51, -16.0418434, -12.4705601, -4.05168009
      52, -16.3214245, -12.575798, -4.47124672
      53, -16.3727112, -12.8144941, -4.92475605
      54, -16.181963, -13.1226883, -5.29068995
      55, -15.8002901, -13.4178009, -5.47099733
      56, -15.8451548, -12.0755711, -4.28181791
      57, -16.1247349, -12.180809, -4.70138454
      58, -16.1760216, -12.4195051, -5.15489388
      59, -15.9852734, -12.7276993, -5.52082777
      60, -15.6036015, -13.0228119, -5.70113516
      61, -15.6484661, -11.680582, -4.51195574
      62, -15.9280462, -11.78582, -4.93152285
      63, -15.9793329, -12.0245161, -5.3850317
      64, -15.7885847, -12.3327103, -5.75096607
      65, -15.4069118, -12.6278229, -5.93127346
      66, -15.4517775, -11.285593, -4.74209404
      67, -15.7313576, -11.390831, -5.16166067
      68, -15.7826443, -11.6295271, -5.61516953
      69, -15.5918961, -11.9377213, -5.9811039
      70, -15.2102232, -12.2328339, -6.16141129
      71, -15.2550888, -10.890604, -4.97223186
      72, -15.5346689, -10.995842, -5.3917985
      73, -15.5859556, -11.2345381, -5.84530783
      74, -15.3952074, -11.5427322, -6.21124172
      75, -15.0135345, -11.8378448, -6.39154911
      76, -15.0584002, -10.495615, -5.20236969
      77, -15.3379803, -10.600853, -5.62193632
      78, -15.389267, -10.8395491, -6.07544565
      79, -15.1985188, -11.1477432, -6.44137955
      80, -14.8168459, -11.4428558, -6.62168694
      81, -15.1412916, -10.205864, -5.85207462
      82, -15.1925783, -10.4445601, -6.30558348
      83, -15.0018301, -10.7527542, -6.67151785
      84, -14.6201572, -11.0478668, -6.85182524
      85, -14.944603, -9.81087494, -6.08221245
      86, -14.9958897, -10.049571, -6.5357213
      87, -14.8051414, -10.3577652, -6.90165567
      88, -14.7479143, -9.41588593, -6.31235027
      89, -14.799201, -9.65458202, -6.7658596
      90, -14.6084528, -9.96277618, -7.1317935
      91, -14.5512257, -9.02089691, -6.5424881
      92, -14.6025124, -9.25959301, -6.99599743
      93, -14.4117641, -9.56778717, -7.36193132
      94, -14.354537, -8.6259079, -6.7726264
      95, -14.4058237, -8.864604, -7.22613525
      96, -14.2150755, -9.17279816, -7.59206963
      97, -14.1578484, -8.23091888, -7.00276423
      98, -14.2091351, -8.46961498, -7.45627308
      99, -14.0183868, -8.77780914, -7.82220745
     100, -13.9611597, -7.83593035, -7.23290205
     101, -14.0124464, -8.07462597, -7.68641138
     102, -13.8216982, -8.38282013, -8.05234528
*Element, type=R3D4
       1, 1, 2, 3, 4
       2, 4, 3, 5, 6
       3, 6, 5, 7, 8
       4, 8, 7, 9, 10
       5, 11, 1, 4, 12
       6, 12, 4, 6, 13
       7, 13, 6, 8, 14
       8, 14, 8, 10, 15
       9, 16, 11, 12, 17
      10, 17, 12, 13, 18
      11, 18, 13, 14, 19
      12, 19, 14, 15, 20
      13, 21, 16, 17, 22
      14, 22, 17, 18, 23
      15, 23, 18, 19, 24
      16, 24, 19, 20, 25
      17, 26, 21, 22, 27
      18, 27, 22, 23, 28
      19, 28, 23, 24, 29
      20, 29, 24, 25, 30
      21, 31, 26, 27, 32
      22, 32, 27, 28, 33
      23, 33, 28, 29, 34
      24, 34, 29, 30, 35
      25, 36, 31, 32, 37
      26, 37, 32, 33, 38
      27, 38, 33, 34, 39
      28, 39, 34, 35, 40
      29, 41, 36, 37, 42
      30, 42, 37, 38, 43
      31, 43, 38, 39, 44
      32, 44, 39, 40, 45
      33, 46, 41, 42, 47
      34, 47, 42, 43, 48
      35, 48, 43, 44, 49
      36, 49, 44, 45, 50
      37, 51, 46, 47, 52
      38, 52, 47, 48, 53
      39, 53, 48, 49, 54
      40, 54, 49, 50, 55
      41, 56, 51, 52, 57
      42, 57, 52, 53, 58
      43, 58, 53, 54, 59
      44, 59, 54, 55, 60
      45, 61, 56, 57, 62
      46, 62, 57, 58, 63
      47, 63, 58, 59, 64
      48, 64, 59, 60, 65
      49, 66, 61, 62, 67
      50, 67, 62, 63, 68
      51, 68, 63, 64, 69
      52, 69, 64, 65, 70
      53, 71, 66, 67, 72
      54, 72, 67, 68, 73
      55, 73, 68, 69, 74
      56, 74, 69, 70, 75
      57, 76, 71, 72, 77
      58, 77, 72, 73, 78
      59, 78, 73, 74, 79
      60, 79, 74, 75, 80
      61, 81, 77, 78, 82
      62, 82, 78, 79, 83
      63, 83, 79, 80, 84
      64, 85, 81, 82, 86
      65, 86, 82, 83, 87
      66, 88, 85, 86, 89
      67, 89, 86, 87, 90
      68, 91, 88, 89, 92
      69, 92, 89, 90, 93
      70, 94, 91, 92, 95
      71, 95, 92, 93, 96
      72, 97, 94, 95, 98
      73, 98, 95, 96, 99
      74, 100, 97, 98, 101
      75, 101, 98, 99, 102
*Elset, elset=PIPE_TERMINAL_STOP_ALL, generate
1, 75, 1
*Surface, type=ELEMENT, name=PIPE_TERMINAL_STOP_SURF
PIPE_TERMINAL_STOP_ALL, SPOS
*End Part
** Robot-only HIGH terminal stop; CEL material remains open
*Part, name=Pipe_TERMINAL_STOP_HIGH
*Node
       1, 6.27608633, -5.94825697, -5.65262365
       2, 6.23722649, -5.56458235, -5.31121445
       3, 6.34579229, -5.31667519, -5.61977959
       4, 6.38327122, -5.54258728, -5.87859058
       5, 6.42685938, -5.04812479, -5.80939579
       6, 6.46756983, -5.20532656, -6.0474062
       7, 6.27052021, -5.06325388, -5.19791079
       8, 6.33665085, -5.0666728, -5.4613657
       9, 6.36704683, -4.57860231, -5.34307146
      10, 6.40535831, -4.81330633, -5.60947752
      11, 6.58144331, -4.56312513, -6.18421125
      12, 6.53330231, -4.8993721, -6.15803194
      13, 6.48639822, -4.85262394, -5.94950342
      14, 6.49429512, -4.60639381, -5.86038208
      15, 6.58811331, -4.99606991, -6.42228222
      16, 6.52141619, -5.31991053, -6.3165822
      17, 6.44574213, -5.67432833, -6.19029665
      18, 6.65065527, -4.65971994, -6.50541687
      19, 6.5850873, -5.45662498, -6.63546896
      20, 6.51303816, -5.71766949, -6.47788239
      21, 6.51207399, -6.01049471, -6.61722803
      22, 6.37668753, -6.11147213, -6.13065815
      23, 6.50094175, -4.24048901, -5.70780182
      24, 6.63632822, -4.13951206, -6.1943717
      25, 6.73692942, -4.30272722, -6.67240572
      26, 6.77578926, -4.68640137, -7.01381493
      27, 6.69572878, -4.81666231, -6.76057386
      28, 6.74249554, -5.18772984, -7.12711906
      29, 6.65333557, -5.12154388, -6.74181366
      30, 6.64596891, -5.67238188, -6.98195791
*Element, type=R3D4
       1, 1, 2, 3, 4
       2, 4, 3, 5, 6
       3, 2, 7, 8, 3
       4, 9, 10, 8, 7
       5, 11, 12, 13, 14
       6, 6, 12, 15, 16
       7, 6, 16, 17, 4
       8, 18, 15, 12, 11
       9, 13, 5, 10, 14
      10, 16, 19, 20, 17
      11, 21, 22, 17, 20
      12, 9, 23, 14, 10
      13, 14, 23, 24, 11
      14, 24, 25, 18, 11
      15, 18, 25, 26, 27
      16, 27, 26, 28, 29
      17, 12, 6, 5, 13
      18, 22, 1, 4, 17
      19, 20, 19, 30, 21
      20, 18, 27, 29, 15
      21, 29, 28, 30, 19
      22, 29, 19, 16, 15
      23, 5, 3, 8, 10
*Elset, elset=PIPE_TERMINAL_STOP_HIGH_ALL, generate
1, 23, 1
*Surface, type=ELEMENT, name=PIPE_TERMINAL_STOP_HIGH_SURF
PIPE_TERMINAL_STOP_HIGH_ALL, SPOS
*End Part
*Part, name=Pipe_SOLID
*Node
      1,  -16.5284824,  -17.2844334,  -1.96806526
      2,  -18.3441372,  -16.7630806,  -2.62501884
      3,  -13.0335417,  -6.09837723,  -8.83874321
      4,  -11.2178869,  -6.61973047,   -8.1817894
      5,  -6.19710016,  -2.70104122,  -9.94260216
      6,   6.73808718,  -4.29859257,  -6.67496824
      7,   6.27492857,  -5.95239115,  -5.65006161
      8,  -6.66025925,   -4.3548398,    -8.917696
      9,  -16.7201881,  -16.9746914,  -1.60029233
     10,  -17.1037788,  -16.6780949,  -1.41907883
     11,  -17.5764713,  -16.4741192,  -1.47298098
     12,  -18.0116062,  -16.4174194,  -1.74755561
     13,   -18.292593,  -16.5231857,   -2.1692307
     14,  -18.1524296,  -17.0728245,  -2.99279189
     15,  -17.7688389,  -17.3694191,  -3.17400527
     16,  -17.2961483,  -17.5733948,  -3.12010312
     17,  -16.8610115,  -17.6300964,  -2.84552836
     18,  -16.5800266,  -17.5243282,   -2.4238534
     19,  -18.1474476,  -16.3680916,  -2.85515666
     20,  -17.9507599,  -15.9731026,  -3.08529472
     21,  -17.7540703,  -15.5781136,  -3.31543255
     22,  -17.5573826,  -15.1831245,  -3.54557061
     23,   -17.360693,  -14.7881355,  -3.77570844
     24,  -17.1640053,  -14.3931465,   -4.0058465
     25,  -16.9673157,  -13.9981575,  -4.23598433
     26,   -16.770628,  -13.6031685,  -4.46612215
     27,  -16.5739384,  -13.2081795,  -4.69626045
     28,  -16.3772507,  -12.8131905,  -4.92639828
     29,  -16.1805611,  -12.4182014,   -5.1565361
     30,  -15.9838724,  -12.0232124,  -5.38667393
     31,  -15.7871838,  -11.6282234,  -5.61681223
     32,  -15.5904951,  -11.2332344,  -5.84695005
     33,  -15.3938065,  -10.8382454,  -6.07708788
     34,  -15.1971178,  -10.4432564,   -6.3072257
     35,  -15.0004292,  -10.0482674,  -6.53736401
     36,  -14.8037405,  -9.65327835,  -6.76750183
     37,  -14.6070518,  -9.25828934,  -6.99763966
     38,  -14.4103632,  -8.86330032,  -7.22777748
     39,  -14.2136745,  -8.46831131,  -7.45791578
     40,  -14.0169859,   -8.0733223,  -7.68805361
     41,  -13.8202972,  -7.67833328,  -7.91819143
     42,  -13.6236076,  -7.28334427,  -8.14832973
     43,   -13.426919,  -6.88835526,  -8.37846756
     44,  -13.2302303,  -6.49336624,  -8.60860538
     45,   -12.841835,  -6.40812016,  -9.20651627
     46,  -12.4582443,  -6.70471573,  -9.38772964
     47,  -11.9855528,  -6.90869188,  -9.33382797
     48,  -11.5504169,  -6.96539259,  -9.05925274
     49,  -11.2694321,  -6.85962534,  -8.63757801
     50,  -11.4145756,  -7.01471949,  -7.95165205
     51,  -11.6112642,   -7.4097085,  -7.72151375
     52,  -11.8079529,  -7.80469751,  -7.49137592
     53,  -12.0046415,    -8.199687,   -7.2612381
     54,  -12.2013302,  -8.59467602,  -7.03110027
     55,  -12.3980188,  -8.98966503,  -6.80096197
     56,  -12.5947084,  -9.38465405,  -6.57082415
     57,  -12.7913971,  -9.77964306,  -6.34068632
     58,  -12.9880857,  -10.1746321,   -6.1105485
     59,  -13.1847744,  -10.5696211,  -5.88041019
     60,  -13.3814631,  -10.9646101,  -5.65027237
     61,  -13.5781517,  -11.3595991,  -5.42013454
     62,  -13.7748404,  -11.7545881,  -5.18999672
     63,   -13.971529,  -12.1495771,  -4.95985842
     64,  -14.1682177,  -12.5445662,  -4.72972059
     65,  -14.3649063,  -12.9395552,  -4.49958277
     66,   -14.561595,  -13.3345442,  -4.26944494
     67,  -14.7582836,  -13.7295332,  -4.03930664
     68,  -14.9549723,  -14.1245222,  -3.80916882
     69,  -15.1516609,  -14.5195112,  -3.57903099
     70,  -15.3483496,  -14.9145002,  -3.34889293
     71,  -15.5450382,  -15.3094893,   -3.1187551
     72,  -15.7417269,  -15.7044783,  -2.88861704
     73,  -15.9384155,  -16.0994663,  -2.65847921
     74,  -16.1351051,  -16.4944553,  -2.42834115
     75,  -16.3317928,  -16.8894444,  -2.19820333
     76,  -5.71801949,   -2.7602098,  -9.82157898
     77,  -5.23893833,  -2.81937838,   -9.7005558
     78,  -4.75985718,  -2.87854695,  -9.57953167
     79,   -4.2807765,  -2.93771553,  -9.45850849
     80,  -3.80169535,  -2.99688411,  -9.33748531
     81,  -3.32261419,  -3.05605268,  -9.21646118
     82,  -2.84353328,  -3.11522126,    -9.095438
     83,  -2.36445212,  -3.17438984,  -8.97441483
     84,  -1.88537109,  -3.23355842,  -8.85339069
     85,  -1.40629005,  -3.29272699,  -8.73236752
     86, -0.927209079,  -3.35189557,  -8.61134434
     87, -0.448128045,  -3.41106415,  -8.49032021
     88, 0.0309529938,  -3.47023273,  -8.36929703
     89,  0.510034025,   -3.5294013,  -8.24827385
     90,  0.989115059,  -3.58856988,  -8.12724972
     91,   1.46819603,  -3.64773846,  -8.00622654
     92,   1.94727707,  -3.70690703,  -7.88520288
     93,   2.42635822,  -3.76607561,  -7.76417971
     94,   2.90543914,  -3.82524419,  -7.64315605
     95,   3.38452029,  -3.88441277,   -7.5221324
     96,   3.86360121,   -3.9435811,  -7.40110922
     97,   4.34268236,  -4.00274992,  -7.28008556
     98,   4.82176352,  -4.06191826,  -7.15906191
     99,   5.30084419,  -4.12108707,  -7.03803873
    100,   5.77992535,  -4.18025541,  -6.91701508
    101,    6.2590065,  -4.23942423,   -6.7959919
    102,   6.77714252,  -4.68419504,  -7.01809311
    103,   6.74368143,  -5.18804264,  -7.13196611
    104,   6.64666986,  -5.67512989,  -6.98607588
    105,   6.51210213,  -6.01494217,  -6.61951303
    106,   6.37603521,  -6.11642694,  -6.13049793
    107,   5.79584742,  -5.89322281,  -5.77108526
    108,   5.31676626,  -5.83405447,  -5.89210844
    109,   4.83768511,  -5.77488565,   -6.0131321
    110,   4.35860443,  -5.71571732,  -6.13415575
    111,   3.87952328,   -5.6565485,  -6.25517893
    112,   3.40044212,  -5.59738016,  -6.37620258
    113,   2.92136121,  -5.53821135,  -6.49722624
    114,   2.44228029,  -5.47904301,  -6.61824942
    115,   1.96319914,  -5.41987419,  -6.73927307
    116,    1.4841181,  -5.36070585,  -6.86029673
    117,   1.00503707,  -5.30153704,   -6.9813199
    118,  0.525956094,   -5.2423687,  -7.10234356
    119, 0.0468750373,  -5.18319988,  -7.22336674
    120, -0.432206005,  -5.12403154,  -7.34439039
    121,  -0.91128701,  -5.06486273,  -7.46541405
    122,   -1.3903681,  -5.00569439,  -7.58643723
    123,  -1.86944914,  -4.94652557,  -7.70746088
    124,  -2.34853005,  -4.88735723,  -7.82848454
    125,  -2.82761121,  -4.82818842,  -7.94950771
    126,  -3.30669212,  -4.76902008,  -8.07053185
    127,  -3.78577328,  -4.70985126,  -8.19155502
    128,  -4.26485443,  -4.65068293,   -8.3125782
    129,  -4.74393511,  -4.59151411,  -8.43360233
    130,  -5.22301626,  -4.53234577,  -8.55462551
    131,  -5.70209742,  -4.47317696,  -8.67564869
    132,  -6.18117857,  -4.41400862,  -8.79667282
    133,   -6.5591526,   -4.5188756,  -9.39813232
    134,  -6.42308569,  -4.41739082,  -9.88714695
    135,  -6.28851795,  -4.07757854,  -10.2537098
    136,  -6.19150639,  -3.59049129,   -10.399601
    137,  -6.15804529,   -3.0866437,  -10.2857275
    138,   6.63698053,  -4.13455725,  -6.19453192
    139,   6.50091362,  -4.23604202,  -5.70551682
    140,   6.36634588,   -4.5758543,  -5.33895397
    141,   6.26933432,  -5.06294155,  -5.19306326
    142,   6.23587322,  -5.56678915,  -5.30693674
    143,  -11.4095936,  -6.30998755,  -7.81401682
    144,  -11.7931843,  -6.01339197,  -7.63280344
    145,  -12.2658768,  -5.80941582,  -7.68670559
    146,  -12.7010117,  -5.75271511,  -7.96128035
    147,  -12.9819975,  -5.85848236,  -8.38295555
    148,  -12.7703638,  -5.63199282,  -9.10521412
    149,  -12.4556665,  -5.18578768,  -9.34944916
    150,  -12.0925779,   -4.7641964,  -9.56902218
    151,  -11.6847076,  -4.37140942,  -9.76174927
    152,  -11.2361078,  -4.01133013,  -9.92571545
    153,  -10.7512369,  -3.68753695,  -10.0592928
    154,  -10.2349148,  -3.40324831,  -10.1611509
    155,  -9.69227123,  -3.16128922,  -10.2302799
    156,  -9.12870121,  -2.96406484,  -10.2659922
    157,  -8.54980469,  -2.81353498,  -10.2679319
    158,  -7.96133518,  -2.71119547,  -10.2360811
    159,  -7.36914158,  -2.65806365,  -10.1707554
    160,  -6.77910852,  -2.65466785,  -10.0726042
    161,   -7.0482645,  -4.32392406,  -9.00436306
    162,  -7.44161987,  -4.32618809,  -9.06979752
    163,  -7.83641624,  -4.36160946,  -9.11334801
    164,  -8.22872925,   -4.4298358,  -9.13458252
    165,  -8.61466026,  -4.53018904,  -9.13328934
    166,  -8.99037361,  -4.66167212,  -9.10948086
    167,  -9.35213566,  -4.82297802,   -9.0633955
    168,   -9.6963501,  -5.01250362,  -8.99548912
    169,  -10.0195971,   -5.2283659,  -8.90643787
    170,  -10.3186646,   -5.4684186,  -8.79712677
    171,  -10.5905781,  -5.73027658,  -8.66864204
    172,  -10.8326368,  -6.01133728,  -8.52226067
    173,  -11.0424347,  -6.30880737,  -8.35943699
    174,  -6.29820728,  -2.53700566,  -9.46216583
    175,   -6.4342742,  -2.63849044,  -8.97315121
    176,  -6.56884193,  -2.97830272,  -8.60658836
    177,   -6.6658535,  -3.46538997,  -8.46069813
    178,  -6.69931459,  -3.96923757,  -8.57457066
    179,  -16.9367886,  -17.1639099,  -2.11016941
    180,  -17.1209431,  -17.3531113,  -2.59228754
    181,  -17.2510071,   -16.834156,  -1.81275749
    182,  -17.7513466,  -16.6892757,    -1.991714
    183,  -17.9320316,  -16.8792171,  -2.47213769
    184,  -17.6167412,  -17.2113457,  -2.77270818
    185,  -17.4348106,  -17.0218353,  -2.29196239
    186,  -17.9557419,  -16.6778355,  -3.22292972
    187,  -17.7590523,  -16.2828465,  -3.45306778
    188,  -17.5623646,  -15.8878565,   -3.6832056
    189,   -17.365675,  -15.4928675,  -3.91334367
    190,  -17.1689873,  -15.0978785,  -4.14348173
    191,  -16.9722977,  -14.7028894,  -4.37361956
    192,    -16.77561,  -14.3079004,  -4.60375738
    193,  -16.5789204,  -13.9129114,  -4.83389521
    194,  -16.3822327,  -13.5179224,  -5.06403351
    195,  -16.1855431,  -13.1229334,  -5.29417133
    196,  -15.9888544,  -12.7279444,  -5.52430916
    197,  -15.7921658,  -12.3329554,  -5.75444698
    198,  -15.5954771,  -11.9379663,  -5.98458529
    199,  -15.3987885,  -11.5429773,  -6.21472311
    200,  -15.2020998,  -11.1479883,  -6.44486094
    201,  -15.0054111,  -10.7529993,  -6.67499876
    202,  -14.8087225,  -10.3580103,  -6.90513706
    203,  -14.6120338,  -9.96302128,  -7.13527489
    204,  -14.4153452,  -9.56803226,  -7.36541271
    205,  -14.2186565,  -9.17304325,  -7.59555054
    206,  -14.0219669,  -8.77805424,  -7.82568884
    207,  -13.8252783,  -8.38306522,  -8.05582619
    208,  -13.6285896,  -7.98807621,  -8.28596497
    209,   -13.431901,   -7.5930872,  -8.51610279
    210,  -13.2352123,  -7.19809818,  -8.74624062
    211,  -13.0385237,  -6.80310917,  -8.97637844
    212,  -17.5721512,  -16.9744301,   -3.4041431
    213,  -17.3754616,  -16.5794411,  -3.63428116
    214,  -17.1787739,  -16.1844521,  -3.86441898
    215,  -16.9820843,   -15.789463,  -4.09455681
    216,  -16.7853966,   -15.394474,  -4.32469511
    217,   -16.588707,   -14.999485,  -4.55483294
    218,  -16.3920193,   -14.604496,  -4.78497076
    219,  -16.1953297,   -14.209507,  -5.01510859
    220,   -15.998641,   -13.814518,  -5.24524689
    221,  -15.8019524,   -13.419529,  -5.47538471
    222,  -15.6052637,  -13.0245399,  -5.70552254
    223,  -15.4085751,  -12.6295509,  -5.93566036
    224,  -15.2118864,  -12.2345619,  -6.16579866
    225,  -15.0151978,  -11.8395729,  -6.39593649
    226,  -14.8185091,  -11.4445839,  -6.62607431
    227,  -14.6218204,  -11.0495949,  -6.85621214
    228,  -14.4251318,  -10.6546059,  -7.08635044
    229,  -14.2284431,  -10.2596169,  -7.31648827
    230,  -14.0317545,  -9.86462784,  -7.54662609
    231,  -13.8350649,  -9.46963882,  -7.77676392
    232,  -13.6383762,  -9.07464981,  -8.00690174
    233,  -13.4416876,   -8.6796608,  -8.23703957
    234,  -13.2449989,  -8.28467178,  -8.46717834
    235,  -13.0483103,  -7.88968277,  -8.69731617
    236,  -12.8516216,  -7.49469376,  -8.92745399
    237,   -12.654933,  -7.09970474,  -9.15759182
    238,  -17.0994587,  -17.1784058,  -3.35024095
    239,   -16.902771,  -16.7834167,  -3.58037901
    240,  -16.7060814,  -16.3884277,  -3.81051683
    241,  -16.5093918,  -15.9934387,  -4.04065466
    242,  -16.3127041,  -15.5984497,  -4.27079296
    243,  -16.1160145,  -15.2034607,  -4.50093079
    244,  -15.9193268,  -14.8084717,  -4.73106861
    245,  -15.7226381,  -14.4134827,  -4.96120644
    246,  -15.5259495,  -14.0184937,  -5.19134474
    247,  -15.3292608,  -13.6235046,  -5.42148256
    248,  -15.1325722,  -13.2285156,  -5.65162039
    249,  -14.9358835,  -12.8335266,  -5.88175821
    250,  -14.7391939,  -12.4385376,  -6.11189651
    251,  -14.5425053,  -12.0435486,  -6.34203434
    252,  -14.3458166,  -11.6485596,  -6.57217216
    253,   -14.149128,  -11.2535706,  -6.80230999
    254,  -13.9524393,  -10.8585815,  -7.03244829
    255,  -13.7557507,  -10.4635925,  -7.26258612
    256,   -13.559062,  -10.0686035,  -7.49272394
    257,  -13.3623734,   -9.6736145,  -7.72286177
    258,  -13.1656847,  -9.27862549,  -7.95300007
    259,   -12.968996,  -8.88363647,  -8.18313789
    260,  -12.7723074,  -8.48864746,  -8.41327572
    261,  -12.5756187,  -8.09365845,  -8.64341354
    262,  -12.3789301,  -7.69866991,  -8.87355137
    263,  -12.1822414,   -7.3036809,  -9.10368919
    264,  -16.6643238,  -17.2351074,  -3.07566643
    265,  -16.4676342,  -16.8401184,  -3.30580425
    266,  -16.2709465,  -16.4451294,  -3.53594232
    267,  -16.0742569,  -16.0501404,  -3.76608014
    268,  -15.8775682,  -15.6551514,   -3.9962182
    269,  -15.6808796,  -15.2601624,  -4.22635603
    270,  -15.4841909,  -14.8651733,  -4.45649385
    271,  -15.2875023,  -14.4701843,  -4.68663216
    272,  -15.0908136,  -14.0751953,  -4.91676998
    273,   -14.894125,  -13.6802063,  -5.14690781
    274,  -14.6974363,  -13.2852173,  -5.37704563
    275,  -14.5007477,  -12.8902283,  -5.60718393
    276,   -14.304059,  -12.4952393,  -5.83732176
    277,  -14.1073704,  -12.1002502,  -6.06745958
    278,  -13.9106817,  -11.7052612,  -6.29759741
    279,  -13.7139931,  -11.3102722,  -6.52773571
    280,  -13.5173044,  -10.9152832,  -6.75787354
    281,  -13.3206158,  -10.5202942,  -6.98801136
    282,  -13.1239262,  -10.1253052,  -7.21814919
    283,  -12.9272375,  -9.73031616,  -7.44828749
    284,  -12.7305489,  -9.33532715,  -7.67842531
    285,  -12.5338602,  -8.94033813,  -7.90856314
    286,  -12.3371716,  -8.54534912,  -8.13870144
    287,  -12.1404829,  -8.15036011,  -8.36883926
    288,  -11.9437943,  -7.75537062,  -8.59897709
    289,  -11.7471056,   -7.3603816,  -8.82911491
    290,  -16.3833389,  -17.1293392,  -2.65399122
    291,  -16.1866493,  -16.7343502,  -2.88412929
    292,  -15.9899607,  -16.3393612,  -3.11426711
    293,   -15.793272,  -15.9443731,  -3.34440517
    294,  -15.5965834,  -15.5493841,    -3.574543
    295,  -15.3998947,  -15.1543951,  -3.80468106
    296,  -15.2032061,  -14.7594061,  -4.03481913
    297,  -15.0065174,  -14.3644171,  -4.26495695
    298,  -14.8098288,  -13.9694281,  -4.49509478
    299,  -14.6131401,   -13.574439,   -4.7252326
    300,  -14.4164515,    -13.17945,   -4.9553709
    301,  -14.2197628,   -12.784461,  -5.18550873
    302,  -14.0230742,   -12.389472,  -5.41564655
    303,  -13.8263855,   -11.994483,  -5.64578438
    304,  -13.6296959,   -11.599494,  -5.87592268
    305,  -13.4330072,   -11.204505,   -6.1060605
    306,  -13.2363186,   -10.809516,  -6.33619833
    307,  -13.0396299,  -10.4145269,  -6.56633615
    308,  -12.8429413,  -10.0195379,  -6.79647446
    309,  -12.6462526,  -9.62454891,  -7.02661228
    310,   -12.449564,   -9.2295599,  -7.25675011
    311,  -12.2528753,  -8.83457088,  -7.48688793
    312,  -12.0561867,  -8.43958187,  -7.71702623
    313,   -11.859498,  -8.04459286,  -7.94716406
    314,  -11.6628094,  -7.64960337,  -8.17730236
    315,  -11.4661207,  -7.25461435,  -8.40744019
    316,  -5.67896414,  -3.14581227,  -10.1647034
    317,  -5.19988298,  -3.20498085,  -10.0436802
    318,  -4.72080231,  -3.26414943,  -9.92265701
    319,  -4.24172115,    -3.323318,  -9.80163288
    320,     -3.76264,  -3.38248658,   -9.6806097
    321,  -3.28355908,  -3.44165516,  -9.55958652
    322,  -2.80447793,  -3.50082374,  -9.43856239
    323,  -2.32539701,  -3.55999231,  -9.31753922
    324,  -1.84631586,  -3.61916089,  -9.19651604
    325,  -1.36723483,  -3.67832947,  -9.07549191
    326, -0.888153851,  -3.73749804,  -8.95446873
    327, -0.409072816,  -3.79666662,  -8.83344555
    328, 0.0700082108,   -3.8558352,  -8.71242142
    329,  0.549089253,  -3.91500378,  -8.59139824
    330,   1.02817023,  -3.97417235,  -8.47037506
    331,   1.50725126,  -4.03334093,  -8.34935093
    332,    1.9863323,  -4.09250927,  -8.22832775
    333,   2.46541333,  -4.15167809,  -8.10730457
    334,   2.94449449,  -4.21084642,  -7.98628092
    335,    3.4235754,  -4.27001524,  -7.86525726
    336,   3.90265656,  -4.32918358,  -7.74423409
    337,   4.38173771,  -4.38835239,  -7.62321043
    338,   4.86081839,  -4.44752073,  -7.50218678
    339,   5.33989954,  -4.50668955,   -7.3811636
    340,   5.81898069,  -4.56585789,  -7.26013994
    341,   6.29806137,   -4.6250267,  -7.13911629
    342,  -5.71242523,  -3.64965987,  -10.2785769
    343,  -5.23334408,  -3.70882845,  -10.1575537
    344,   -4.7542634,  -3.76799703,  -10.0365305
    345,  -4.27518225,   -3.8271656,  -9.91550636
    346,  -3.79610109,  -3.88633418,  -9.79448318
    347,  -3.31702018,  -3.94550276,  -9.67346001
    348,  -2.83793902,   -4.0046711,  -9.55243587
    349,  -2.35885811,  -4.06383991,   -9.4314127
    350,  -1.87977707,  -4.12300825,  -9.31038952
    351,  -1.40069604,  -4.18217707,  -9.18936539
    352, -0.921615005,  -4.24134541,  -9.06834221
    353,  -0.44253394,  -4.30051422,  -8.94731903
    354, 0.0365470834,  -4.35968256,   -8.8262949
    355,  0.515628099,  -4.41885138,  -8.70527172
    356,  0.994709134,  -4.47801971,  -8.58424854
    357,   1.47379017,  -4.53718853,  -8.46322441
    358,    1.9528712,  -4.59635687,  -8.34220123
    359,   2.43195224,  -4.65552568,  -8.22117805
    360,   2.91103315,  -4.71469402,  -8.10015392
    361,   3.39011431,  -4.77386284,  -7.97913074
    362,   3.86919522,  -4.83303118,  -7.85810709
    363,   4.34827614,  -4.89219999,  -7.73708391
    364,   4.82735729,  -4.95136833,  -7.61606026
    365,   5.30643845,  -5.01053715,   -7.4950366
    366,    5.7855196,  -5.06970549,  -7.37401342
    367,   6.26460028,   -5.1288743,  -7.25298977
    368,   -5.8094368,  -4.13674688,  -10.1326866
    369,  -5.33035564,   -4.1959157,  -10.0116634
    370,  -4.85127497,  -4.25508404,  -9.89063931
    371,  -4.37219381,  -4.31425285,  -9.76961613
    372,  -3.89311266,  -4.37342119,  -9.64859295
    373,  -3.41403174,  -4.43259001,  -9.52756882
    374,  -2.93495059,  -4.49175835,  -9.40654564
    375,  -2.45586967,  -4.55092716,  -9.28552246
    376,  -1.97678864,   -4.6100955,  -9.16449833
    377,  -1.49770761,  -4.66926432,  -9.04347515
    378,  -1.01862657,  -4.72843266,  -8.92245197
    379, -0.539545536,  -4.78760147,  -8.80142784
    380,  -0.06046452,  -4.84676981,  -8.68040466
    381,  0.418616503,  -4.90593863,  -8.55938148
    382,  0.897697568,  -4.96510696,  -8.43835831
    383,    1.3767786,  -5.02427578,  -8.31733418
    384,   1.85585964,  -5.08344412,    -8.196311
    385,   2.33494067,  -5.14261293,  -8.07528782
    386,   2.81402159,  -5.20178127,  -7.95426369
    387,   3.29310274,  -5.26095009,  -7.83324051
    388,   3.77218366,  -5.32011843,  -7.71221685
    389,   4.25126457,  -5.37928724,   -7.5911932
    390,   4.73034573,  -5.43845558,  -7.47017002
    391,   5.20942688,   -5.4976244,  -7.34914637
    392,   5.68850803,  -5.55679274,  -7.22812271
    393,   6.16758871,  -5.61596155,  -7.10709953
    394,  -5.94400454,  -4.47655916,  -9.76612377
    395,  -5.46492386,  -4.53572798,  -9.64510059
    396,   -4.9858427,  -4.59489632,  -9.52407646
    397,  -4.50676155,  -4.65406513,  -9.40305328
    398,  -4.02768087,  -4.71323347,  -9.28203011
    399,  -3.54859972,  -4.77240229,  -9.16100597
    400,  -3.06951857,  -4.83157063,   -9.0399828
    401,  -2.59043765,  -4.89073944,  -8.91895962
    402,   -2.1113565,  -4.94990778,  -8.79793549
    403,  -1.63227546,  -5.00907612,  -8.67691231
    404,  -1.15319443,  -5.06824493,  -8.55588913
    405, -0.674113452,  -5.12741327,    -8.434865
    406, -0.195032418,  -5.18658209,  -8.31384182
    407,  0.284048617,  -5.24575043,  -8.19281864
    408,  0.763129652,  -5.30491924,  -8.07179451
    409,   1.24221063,  -5.36408758,  -7.95077133
    410,   1.72129166,   -5.4232564,  -7.82974815
    411,    2.2003727,  -5.48242474,   -7.7087245
    412,   2.67945385,  -5.54159355,  -7.58770084
    413,   3.15853477,  -5.60076189,  -7.46667767
    414,   3.63761592,  -5.65993071,  -7.34565401
    415,   4.11669683,  -5.71909904,  -7.22463036
    416,   4.59577799,  -5.77826786,  -7.10360718
    417,   5.07485914,   -5.8374362,  -6.98258352
    418,   5.55393982,  -5.89660501,  -6.86155987
    419,   6.03302097,  -5.95577335,  -6.74053669
    420,  -6.08007145,  -4.57804394,  -9.27710819
    421,  -5.60099077,  -4.63721275,  -9.15608501
    422,  -5.12190962,  -4.69638109,  -9.03506184
    423,  -4.64282846,  -4.75554943,   -8.9140377
    424,  -4.16374731,  -4.81471825,  -8.79301453
    425,   -3.6846664,  -4.87388659,  -8.67199135
    426,  -3.20558548,   -4.9330554,  -8.55096722
    427,  -2.72650433,  -4.99222374,  -8.42994404
    428,  -2.24742341,  -5.05139256,  -8.30892086
    429,  -1.76834238,  -5.11056089,  -8.18789673
    430,  -1.28926134,  -5.16972971,  -8.06687355
    431, -0.810180247,  -5.22889805,  -7.94585037
    432, -0.331099242,  -5.28806686,  -7.82482672
    433,  0.147981793,   -5.3472352,  -7.70380306
    434,  0.627062798,  -5.40640402,  -7.58277988
    435,   1.10614383,  -5.46557236,  -7.46175623
    436,   1.58522487,  -5.52474117,  -7.34073257
    437,   2.06430602,  -5.58390951,   -7.2197094
    438,   2.54338694,  -5.64307833,  -7.09868574
    439,   3.02246785,  -5.70224667,  -6.97766209
    440,   3.50154901,  -5.76141548,  -6.85663891
    441,   3.98062992,  -5.82058382,  -6.73561525
    442,   4.45971107,  -5.87975264,   -6.6145916
    443,   4.93879223,  -5.93892097,  -6.49356842
    444,   5.41787291,  -5.99808979,  -6.37254477
    445,   5.89695406,  -6.05725813,  -6.25152111
    446,   6.63325882,   -4.6661377,  -6.43969011
    447,    6.6359005,  -5.15575457,  -6.68952179
    448,   6.50400925,  -4.63386059,  -5.91226435
    449,    6.3761282,  -5.08798599,  -5.62806034
    450,   6.37960291,  -5.57410288,  -5.87947702
    451,   6.50954962,  -5.60815048,  -6.41052771
    452,   6.50640821,  -5.12099886,  -6.15992355
    453,  -11.6062822,  -6.70497656,  -7.58387899
    454,  -11.9898729,  -6.40838099,  -7.40266562
    455,  -12.4625654,  -6.20440483,  -7.45656776
    456,  -12.8977013,  -6.14770412,  -7.73114204
    457,  -13.1786861,  -6.25347137,  -8.15281773
    458,  -11.8029709,  -7.09996557,  -7.35374069
    459,  -12.1865625,     -6.80337,  -7.17252731
    460,  -12.6592541,  -6.59939384,  -7.22642946
    461,  -13.0943899,  -6.54269314,  -7.50100422
    462,  -13.3753748,  -6.64846039,  -7.92267942
    463,  -11.9996605,  -7.49495459,  -7.12360287
    464,  -12.3832512,  -7.19835901,  -6.94238949
    465,  -12.8559427,  -6.99438286,  -6.99629164
    466,  -13.2910786,  -6.93768215,  -7.27086639
    467,  -13.5720634,   -7.0434494,   -7.6925416
    468,  -12.1963491,   -7.8899436,  -6.89346504
    469,  -12.5799398,  -7.59334803,  -6.71225166
    470,  -13.0526314,  -7.38937187,  -6.76615381
    471,  -13.4877672,  -7.33267117,  -7.04072857
    472,  -13.7687521,  -7.43843842,   -7.4624033
    473,  -12.3930378,  -8.28493309,  -6.66332722
    474,  -12.7766285,  -7.98833704,  -6.48211384
    475,    -13.24932,  -7.78436089,  -6.53601599
    476,  -13.6844559,  -7.72766018,  -6.81059027
    477,  -13.9654408,  -7.83342743,  -7.23226547
    478,  -12.5897264,   -8.6799221,  -6.43318892
    479,  -12.9733171,  -8.38332558,  -6.25197554
    480,  -13.4460087,   -8.1793499,  -6.30587769
    481,  -13.8811445,  -8.12264919,  -6.58045244
    482,  -14.1621294,  -8.22841644,  -7.00212765
    483,  -12.7864151,  -9.07491112,  -6.20305109
    484,  -13.1700058,  -8.77831459,  -6.02183771
    485,  -13.6426973,  -8.57433891,  -6.07573986
    486,  -14.0778332,  -8.51763821,  -6.35031462
    487,  -14.3588181,  -8.62340546,  -6.77198982
    488,  -12.9831038,  -9.46990013,  -5.97291327
    489,  -13.3666945,   -9.1733036,  -5.79169989
    490,   -13.839386,  -8.96932793,  -5.84560204
    491,  -14.2745218,  -8.91262722,  -6.12017679
    492,  -14.5555067,  -9.01839447,  -6.54185152
    493,  -13.1797924,  -9.86488914,  -5.74277544
    494,  -13.5633831,  -9.56829262,  -5.56156206
    495,  -14.0360746,  -9.36431694,  -5.61546421
    496,  -14.4712105,  -9.30761623,  -5.89003849
    497,  -14.7521954,  -9.41338348,   -6.3117137
    498,  -13.3764811,  -10.2598782,  -5.51263714
    499,  -13.7600718,  -9.96328163,  -5.33142376
    500,  -14.2327633,  -9.75930595,  -5.38532591
    501,  -14.6678991,  -9.70260525,  -5.65990067
    502,   -14.948884,   -9.8083725,  -6.08157587
    503,  -13.5731697,  -10.6548672,  -5.28249931
    504,  -13.9567604,  -10.3582706,  -5.10128593
    505,  -14.4294519,   -10.154295,  -5.15518808
    506,  -14.8645878,  -10.0975943,  -5.42976284
    507,  -15.1455727,  -10.2033615,  -5.85143805
    508,  -13.7698584,  -11.0498562,  -5.05236149
    509,  -14.1534491,  -10.7532597,  -4.87114811
    510,  -14.6261406,   -10.549284,  -4.92505026
    511,  -15.0612764,  -10.4925833,  -5.19962502
    512,  -15.3422613,  -10.5983505,  -5.62129974
    513,   -13.966547,  -11.4448452,  -4.82222366
    514,  -14.3501377,  -11.1482487,  -4.64101028
    515,  -14.8228292,   -10.944273,  -4.69491243
    516,  -15.2579651,  -10.8875723,  -4.96948671
    517,    -15.53895,  -10.9933395,  -5.39116192
    518,  -14.1632357,  -11.8398342,  -4.59208536
    519,  -14.5468264,  -11.5432377,  -4.41087198
    520,  -15.0195179,   -11.339262,  -4.46477413
    521,  -15.4546537,  -11.2825613,  -4.73934889
    522,  -15.7356386,  -11.3883286,  -5.16102409
    523,  -14.3599243,  -12.2348232,  -4.36194754
    524,   -14.743515,  -11.9382267,  -4.18073416
    525,  -15.2162075,   -11.734251,  -4.23463631
    526,  -15.6513424,  -11.6775503,  -4.50921106
    527,  -15.9323273,  -11.7833176,  -4.93088627
    528,   -14.556613,  -12.6298122,  -4.13180971
    529,  -14.9402037,  -12.3332157,  -3.95059633
    530,  -15.4128962,    -12.12924,  -4.00449848
    531,   -15.848031,  -12.0725393,  -4.27907324
    532,  -16.1290169,  -12.1783066,  -4.70074797
    533,  -14.7533016,  -13.0248013,  -3.90167165
    534,  -15.1368923,  -12.7282047,  -3.72045827
    535,  -15.6095848,   -12.524229,  -3.77436042
    536,  -16.0447197,  -12.4675283,  -4.04893494
    537,  -16.3257046,  -12.5732956,  -4.47061014
    538,  -14.9499903,  -13.4197903,  -3.67153382
    539,   -15.333581,  -13.1231937,  -3.49032044
    540,  -15.8062735,  -12.9192181,  -3.54422259
    541,  -16.2414093,  -12.8625174,  -3.81879711
    542,  -16.5223942,  -12.9682846,  -4.24047232
    543,  -15.1466789,  -13.8147793,  -3.44139576
    544,  -15.5302696,  -13.5181828,  -3.26018238
    545,  -16.0029621,  -13.3142071,  -3.31408453
    546,   -16.438097,  -13.2575064,  -3.58865929
    547,  -16.7190819,  -13.3632736,  -4.01033449
    548,  -15.3433676,  -14.2097683,  -3.21125793
    549,  -15.7269583,  -13.9131718,  -3.03004456
    550,  -16.1996498,  -13.7091961,   -3.0839467
    551,  -16.6347866,  -13.6524954,  -3.35852122
    552,  -16.9157715,  -13.7582626,  -3.78019643
    553,  -15.5400562,  -14.6047573,  -2.98111987
    554,  -15.9236469,  -14.3081608,  -2.79990649
    555,  -16.3963394,  -14.1041851,  -2.85380864
    556,  -16.8314743,  -14.0474844,   -3.1283834
    557,  -17.1124592,  -14.1532516,  -3.55005836
    558,  -15.7367449,  -14.9997463,  -2.75098205
    559,  -16.1203365,  -14.7031498,  -2.56976867
    560,  -16.5930271,  -14.4991741,  -2.62367082
    561,  -17.0281639,  -14.4424734,  -2.89824533
    562,  -17.3091488,  -14.5482407,  -3.31992054
    563,  -15.9334335,  -15.3947353,  -2.52084398
    564,  -16.3170242,  -15.0981388,   -2.3396306
    565,  -16.7897167,  -14.8941631,  -2.39353275
    566,  -17.2248516,  -14.8374624,  -2.66810751
    567,  -17.5058365,  -14.9432297,  -3.08978248
    568,  -16.1301231,  -15.7897243,  -2.29070616
    569,  -16.5137138,  -15.4931278,  -2.10949278
    570,  -16.9864044,  -15.2891521,  -2.16339493
    571,  -17.4215412,  -15.2324514,  -2.43796945
    572,  -17.7025261,  -15.3382187,  -2.85964465
    573,  -16.3268108,  -16.1847134,  -2.06056809
    574,  -16.7104015,  -15.8881168,  -1.87935472
    575,   -17.183094,  -15.6841412,  -1.93325686
    576,  -17.6182289,  -15.6274405,  -2.20783162
    577,  -17.8992138,  -15.7332077,  -2.62950659
    578,  -16.5235004,  -16.5797024,  -1.83043027
    579,  -16.9070911,  -16.2831059,  -1.64921677
    580,  -17.3797836,  -16.0791302,  -1.70311892
    581,  -17.8149185,  -16.0224304,  -1.97769356
    582,  -18.0959034,  -16.1281967,  -2.39936876
    583,  -12.5836515,  -5.95944548,  -9.46800804
    584,   -12.275238,  -5.52872562,  -9.70844746
    585,  -11.9193916,  -5.12044859,  -9.92512798
    586,  -11.5194921,  -4.73890924,  -10.1155968
    587,  -11.0794783,  -4.38814783,  -10.2776899
    588,  -10.6037846,   -4.0718832,  -10.4095783
    589,  -10.0972958,  -3.79345894,  -10.5097942
    590,  -9.56526279,  -3.55579448,  -10.5772648
    591,  -9.01323986,    -3.361341,  -10.6113186
    592,  -8.44699574,  -3.21204758,  -10.6117039
    593,  -7.87243414,  -3.10933256,   -10.578578
    594,  -7.29550266,  -3.05407023,  -10.5125093
    595,   -6.7221117,  -3.04658246,  -10.4144535
    596,  -12.2121696,  -6.28487301,  -9.63100529
    597,  -11.9198608,   -5.8825202,  -9.85421658
    598,  -11.5840912,  -5.50165129,  -10.0550499
    599,  -11.2080975,  -5.14605188,   -10.231432
    600,   -10.795537,  -4.81925583,  -10.3815498
    601,  -10.3504496,    -4.524508,  -10.5038738
    602,  -9.87720776,  -4.26472807,  -10.5971642
    603,  -9.38047504,  -4.04248428,  -10.6604919
    604,  -8.86515331,  -3.85996175,   -10.693243
    605,  -8.33633804,  -3.71894479,  -10.6951256
    606,  -7.79925156,  -3.62079382,  -10.6661758
    607,  -7.25920486,  -3.56643033,  -10.6067581
    608,  -6.72152662,  -3.55632496,  -10.5175629
    609,  -11.7662373,  -6.52003813,  -9.55588627
    610,  -11.5039902,  -6.14820051,  -9.75941658
    611,   -11.201416,  -5.79687452,   -9.9423933
    612,  -10.8615236,  -5.46955204,  -10.1029987
    613,  -10.4876909,  -5.16948557,  -10.2396383
    614,  -10.0836315,   -4.8996582,  -10.3509521
    615,  -9.65336323,   -4.6627512,  -10.4358339
    616,  -9.20116043,   -4.4611187,  -10.4934416
    617,  -8.73151875,  -4.29676485,  -10.5232019
    618,   -8.2491045,   -4.1713233,  -10.5248184
    619,  -7.75871372,   -4.0860405,  -10.4982758
    620,  -7.26521873,  -4.04176378,  -10.4438372
    621,  -6.77352476,  -4.03893375,  -10.3620443
    622,  -11.3567181,  -6.61241817,  -9.26681709
    623,  -11.1235123,  -6.27511454,  -9.45667553
    624,  -10.8532639,  -5.95676565,  -9.62693501
    625,  -10.5487728,  -5.66048002,  -9.77589989
    626,    -10.21315,  -5.38915968,  -9.90208721
    627,  -9.84980202,  -5.14547873,  -10.0042381
    628,  -9.46239376,  -4.93185282,  -10.0813332
    629,  -9.05481911,   -4.7504158,  -10.1326017
    630,   -8.6311636,  -4.60299921,   -10.157526
    631,  -8.19566441,  -4.49111509,  -10.1558485
    632,  -7.75267315,  -4.41594267,  -10.1275778
    633,  -7.30661106,  -4.37832355,   -10.072979
    634,   -6.8619318,  -4.37875557,   -9.9925766
    635,  -11.0876074,  -6.53643084,  -8.82832336
    636,  -10.8702774,  -6.22845221,  -9.00235081
    637,  -10.6198978,  -5.93840742,  -9.15807533
    638,  -10.3391275,  -5.66882563,   -9.2940979
    639,  -10.0308094,  -5.42205095,  -9.40920258
    640,  -9.69795513,  -5.20024252,  -9.50235748
    641,  -9.34373569,  -5.00537205,   -9.5727253
    642,   -8.9714632,  -4.83921576,  -9.61966228
    643,  -8.58458042,  -4.70335436,  -9.64272118
    644,  -8.18664837,  -4.59916115,  -9.64165306
    645,  -7.78133488,   -4.5277977,  -9.61641026
    646,  -7.37240314,    -4.490201,  -9.56714153
    647,  -6.96370125,  -4.48707581,  -9.49419785
    648,   5.75679207,  -5.50762033,   -5.4279604
    649,   5.79025316,  -5.00377274,  -5.31408691
    650,   5.88726473,  -4.51668549,  -5.45997715
    651,   6.02183294,  -4.17687321,  -5.82653999
    652,   6.15789938,  -4.07538843,  -6.31555557
    653,   5.27771091,    -5.448452,  -5.54898357
    654,   5.31117249,   -4.9446044,  -5.43511057
    655,   5.40818405,  -4.45751715,   -5.5810008
    656,   5.54275179,  -4.11770487,  -5.94756365
    657,    5.6788187,  -4.01622009,  -6.43657875
    658,   4.79863024,  -5.38928318,  -5.67000723
    659,   4.83209133,  -4.88543558,  -5.55613375
    660,    4.9291029,  -4.39834833,  -5.70202446
    661,   5.06367064,  -4.05853605,   -6.0685873
    662,   5.19973755,  -3.95705152,  -6.55760241
    663,   4.31954908,  -5.33011484,  -5.79103088
    664,   4.35301018,  -4.82626724,   -5.6771574
    665,   4.45002174,  -4.33917999,  -5.82304764
    666,   4.58458948,  -3.99936771,  -6.18961048
    667,   4.72065639,  -3.89788294,  -6.67862606
    668,   3.84046793,  -5.27094603,  -5.91205406
    669,   3.87392926,  -4.76709843,  -5.79818106
    670,   3.97094083,  -4.28001118,  -5.94407129
    671,    4.1055088,  -3.94019914,  -6.31063414
    672,   4.24157572,  -3.83871436,  -6.79964924
    673,   3.36138701,  -5.21177769,  -6.03307772
    674,   3.39484811,  -4.70793009,  -5.91920424
    675,   3.49185967,  -4.22084284,  -6.06509495
    676,   3.62642765,  -3.88103056,  -6.43165779
    677,   3.76249456,  -3.77954578,  -6.92067289
    678,    2.8823061,  -5.15260887,  -6.15410137
    679,   2.91576719,  -4.64876127,  -6.04022789
    680,   3.01277876,  -4.16167402,  -6.18611813
    681,    3.1473465,  -3.82186198,  -6.55268097
    682,   3.28341341,  -3.72037721,  -7.04169655
    683,   2.40322495,  -5.09344053,  -6.27512455
    684,   2.43668604,  -4.58959293,  -6.16125154
    685,   2.53369761,  -4.10250568,  -6.30714178
    686,   2.66826558,  -3.76269341,  -6.67370462
    687,   2.80433249,  -3.66120863,  -7.16271973
    688,   1.92414391,  -5.03427172,   -6.3961482
    689,     1.957605,  -4.53042412,  -6.28227472
    690,   2.05461669,  -4.04333687,  -6.42816544
    691,   2.18918467,  -3.70352483,  -6.79472828
    692,   2.32525134,  -3.60204005,  -7.28374338
    693,   1.44506288,  -4.97510338,  -6.51717186
    694,   1.47852409,  -4.47125578,  -6.40329838
    695,   1.57553566,  -3.98416853,  -6.54918861
    696,   1.71010351,  -3.64435625,  -6.91575146
    697,   1.84617031,  -3.54287148,  -7.40476704
    698,  0.965981901,  -4.91593456,  -6.63819504
    699,  0.999442995,  -4.41208696,  -6.52432203
    700,   1.09645462,  -3.92499995,  -6.67021227
    701,   1.23102248,  -3.58518767,  -7.03677511
    702,   1.36708927,   -3.4837029,  -7.52579021
    703,  0.486900836,  -4.85676622,  -6.75921869
    704,   0.52036196,  -4.35291862,  -6.64534521
    705,  0.617373586,  -3.86583138,  -6.79123592
    706,  0.751941442,   -3.5260191,  -7.15779877
    707,  0.888008296,  -3.42453432,  -7.64681387
    708, 0.00781981554,  -4.79759741,  -6.88024235
    709, 0.0412809476,  -4.29374981,  -6.76636887
    710,  0.138292551,   -3.8066628,   -6.9122591
    711,  0.272860438,  -3.46685052,  -7.27882195
    712,  0.408927262,  -3.36536574,  -7.76783752
    713, -0.471261203,  -4.73842907,  -7.00126553
    714,  -0.43780008,  -4.23458147,  -6.88739252
    715, -0.340788484,  -3.74749422,  -7.03328276
    716, -0.206220582,  -3.40768194,   -7.3998456
    717, -0.0701537654,  -3.30619717,   -7.8888607
    718, -0.950342238,  -4.67926025,  -7.12228918
    719, -0.916881084,  -4.17541265,   -7.0084157
    720, -0.819869518,  -3.68832564,  -7.15430641
    721, -0.685301602,  -3.34851336,  -7.52086926
    722, -0.549234807,  -3.24702859,  -8.00988388
    723,  -1.42942321,  -4.62009192,  -7.24331284
    724,  -1.39596212,  -4.11624432,  -7.12943935
    725,  -1.29895055,  -3.62915707,  -7.27532959
    726,   -1.1643827,  -3.28934479,  -7.64189243
    727,  -1.02831578,  -3.18786001,  -8.13090801
    728,  -1.90850425,   -4.5609231,  -7.36433601
    729,  -1.87504315,   -4.0570755,  -7.25046301
    730,  -1.77803159,  -3.56998849,  -7.39635324
    731,  -1.64346373,  -3.23017621,  -7.76291609
    732,  -1.50739682,  -3.12869143,  -8.25193119
    733,   -2.3875854,  -4.50175476,  -7.48535967
    734,  -2.35412431,  -3.99790692,  -7.37148619
    735,   -2.2571125,  -3.51081991,   -7.5173769
    736,  -2.12254477,  -3.17100763,  -7.88393974
    737,  -1.98647785,  -3.06952286,  -8.37295437
    738,  -2.86666632,  -4.44258595,  -7.60638332
    739,  -2.83320522,  -3.93873835,  -7.49250984
    740,  -2.73619366,  -3.45165133,  -7.63840008
    741,  -2.60162568,  -3.11183906,  -8.00496292
    742,  -2.46555901,  -3.01035428,   -8.4939785
    743,  -3.34574747,  -4.38341761,   -7.7274065
    744,  -3.31228614,  -3.87957001,   -7.6135335
    745,  -3.21527457,  -3.39248276,  -7.75942373
    746,  -3.08070683,  -3.05267048,   -8.1259861
    747,  -2.94463992,   -2.9511857,  -8.61500168
    748,  -3.82482839,  -4.32424879,  -7.84843016
    749,  -3.79136729,  -3.82040143,  -7.73455667
    750,  -3.69435573,  -3.33331418,  -7.88044691
    751,  -3.55978775,   -2.9935019,  -8.24701023
    752,  -3.42372108,  -2.89201713,  -8.73602486
    753,   -4.3039093,  -4.26508045,  -7.96945381
    754,  -4.27044821,  -3.76123285,  -7.85558033
    755,  -4.17343664,   -3.2741456,  -8.00147057
    756,   -4.0388689,  -2.93433332,  -8.36803341
    757,  -3.90280199,  -2.83284855,  -8.85704899
    758,  -4.78299046,  -4.20591164,  -8.09047699
    759,  -4.74952936,  -3.70206428,  -7.97660351
    760,   -4.6525178,  -3.21497703,  -8.12249374
    761,  -4.51795006,  -2.87516475,  -8.48905659
    762,  -4.38188314,  -2.77367997,  -8.97807217
    763,  -5.26207161,   -4.1467433,  -8.21150017
    764,  -5.22861052,   -3.6428957,  -8.09762764
    765,  -5.13159895,  -3.15580845,  -8.24351788
    766,  -4.99703074,  -2.81599617,  -8.61008072
    767,  -4.86096382,  -2.71451139,  -9.09909534
    768,  -5.74115276,  -4.08757448,   -8.3325243
    769,  -5.70769119,  -3.58372712,  -8.21865082
    770,  -5.61067963,  -3.09663987,  -8.36454105
    771,  -5.47611189,  -2.75682759,   -8.7311039
    772,  -5.34004498,  -2.65534282,  -9.22011948
    773,  -6.22023344,  -4.02840614,  -8.45354748
    774,  -6.18677235,  -3.52455854,    -8.339674
    775,  -6.08976078,  -3.03747129,  -8.48556423
    776,  -5.95519304,  -2.69765902,  -8.85212708
    777,  -5.81912613,  -2.59617424,  -9.34114265
    778,  -7.10524654,  -3.93201208,  -8.66250706
    779,  -7.10584354,   -3.4222672,  -8.55940247
    780,  -7.05384874,  -2.93965793,   -8.7149229
    781,  -6.96543837,  -2.59983802,  -9.08439064
    782,  -6.86365652,  -2.49152088,  -9.58276558
    783,  -7.51521206,  -3.93018389,   -8.7280283
    784,  -7.55154657,  -3.41782093,  -8.63379002
    785,  -7.54554272,  -2.94248796,  -8.79671574
    786,  -7.50413942,  -2.60593104,  -9.16757393
    787,  -7.43831015,  -2.49405813,  -9.67340469
    788,  -7.92524338,  -3.96346736,  -8.77083397
    789,  -7.99848413,  -3.45200849,  -8.68324757
    790,   -8.0390377,  -2.98676467,  -8.85115337
    791,  -8.04506111,  -2.65686393,   -9.2218523
    792,  -8.01634121,  -2.54500937,   -9.7330122
    793,  -8.33145523,  -4.03130913,  -8.79080009
    794,  -8.44217873,  -3.52442145,  -8.70738411
    795,  -8.52942848,  -3.07204747,  -8.87769604
    796,  -8.58285046,   -2.7522552,  -9.24666691
    797,  -8.59180069,  -2.64420104,  -9.76085854
    798,  -8.73005199,  -4.13289356,   -8.7879591
    799,  -8.87819195,  -3.63428736,  -8.70603657
    800,  -9.01184273,  -3.19748902,  -8.87607956
    801,  -9.11218262,  -2.89125204,  -9.24175739
    802,  -9.15871048,  -2.79088378,  -9.75656319
    803,  -9.11734295,  -4.26715231,  -8.76249886
    804,  -9.30216217,  -3.78047395,  -8.67926979
    805,  -9.48148441,  -3.36184311,   -8.8463192
    806,  -9.62781811,  -3.07254291,  -9.20716095
    807,  -9.71114349,  -2.98373175,  -9.72010326
    808,  -9.48975372,  -4.43276739,   -8.7147522
    809,  -9.70984173,  -3.96149802,  -8.62738228
    810,  -9.93368721,  -3.56347513,   -8.7887125
    811,  -10.1246567,  -3.29437351,  -9.14321327
    812,  -10.2433138,  -3.22085428,  -9.65182114
    813,  -9.84383583,  -4.62817907,  -8.64519405
    814,  -10.0971451,  -4.17553711,  -8.55090618
    815,  -10.3639555,  -3.80038238,  -8.70382977
    816,  -10.5977917,  -3.55456686,  -9.05054188
    817,  -10.7496662,  -3.49982023,   -9.5524168
    818,   -10.176281,  -4.85159016,  -8.55444145
    819,  -10.4601793,  -4.42044783,  -8.45059776
    820,  -10.7680149,  -4.07020998,  -8.59251595
    821,  -11.0425663,  -3.85054636,   -8.9300642
    822,  -11.2249489,  -3.81769061,  -9.42293358
    823,  -10.4839344,  -5.10097313,  -8.44324589
    824,  -10.7952862,  -4.69378662,  -8.32743549
    825,  -11.1418476,  -4.37027597,   -8.4558773
    826,  -11.4546099,   -4.1793623,  -8.78297234
    827,  -11.6642981,  -4.17106342,  -9.26475334
    828,  -10.7638073,   -5.3740778,      -8.3125
    829,  -11.0990753,  -4.99283171,  -8.18260479
    830,    -11.48174,  -4.69759846,  -8.29527092
    831,  -11.8299007,  -4.53772116,   -8.6107254
    832,  -12.0632982,  -4.55612469,  -9.07956314
    833,  -11.0130863,  -5.66843462,  -8.16323662
    834,  -11.3684483,  -5.31461191,  -8.01748657
    835,  -11.7843142,  -5.04892445,   -8.1122942
    836,  -12.1647949,  -4.92202044,  -8.41503239
    837,   -12.418046,  -4.96871376,   -8.8693409
    838,  -11.2291527,  -5.98136711,  -7.99663305
    839,  -11.6006298,  -5.65592957,  -7.83364296
    840,  -12.0465612,  -5.42076206,  -7.90876436
    841,  -12.4560814,  -5.32838583,  -8.19783401
    842,  -12.7251959,  -5.40438414,  -8.63632107
    843,  -10.9936361,  -4.39642286,  -9.62744141
    844,  -10.3627052,  -4.35934925,  -10.0400238
    845,  -10.3738508,  -3.90222144,  -9.81771278
    846,   -10.435461,  -4.33111334,  -9.58098412
    847,    3.6815958,  -4.46310377,  -6.43616962
    848,   3.97813129,  -4.26917124,  -6.76678562
    849,  -9.94153786,  -4.25552416,  -9.45052719
    850,  -10.1263514,  -3.74799776,  -9.33864307
    851,  -10.3772612,  -4.13658571,  -9.08961296
    852,  -10.4535694,  -4.69758558,  -9.38119316
    853,  -10.0735712,  -4.62485123,  -9.05657005
    854,  -10.7979918,  -4.03466415,  -9.39614487
    855,  -10.7038269,  -4.27534866,  -9.00790882
    856,  -13.4302444,  -10.1661224,  -6.10813618
    857,  -13.7261419,  -10.0952749,  -5.88490343
    858,  -13.7547607,  -10.6847229,   -5.8394022
    859, -0.127503976,  -4.33985901,  -7.83738089
    860,  0.200742528,  -4.77090263,  -8.19087124
    861, -0.226819068,  -4.84202957,  -7.87921095
    862, -0.0289304033,   -4.3927598,  -8.39801788
    863,  0.386123717,  -4.48407078,  -8.13251591
    864, -0.766009152,  -4.77453995,  -7.76049995
    865, -0.477156401,   -4.4756465,  -7.32918596
    866, -0.528102875,  -4.20667839,  -7.98473692
    867,  -14.0475569,  -9.86550713,  -5.77069998
    868, -0.394104213,  -3.89273429,  -7.43715429
    869,  0.321142137,  -4.47533131,  -7.65135193
    870, -0.0388854668,  -4.79288769,  -7.42264032
    871,  -17.1750393,  -15.6362524,  -3.23496008
    872,  -17.4699726,  -15.8728743,  -3.12628508
    873,  -17.3132381,  -15.3637609,  -3.12113237
    874,  0.274558932,  -3.95480061,   -8.0661087
    875, -0.305737108,   -3.7219739,  -7.96045065
    876,  0.190641075,  -3.74672771,  -7.85059643
    877,  -11.1019945,  -4.98070669,  -9.83375549
    878,  -14.5173473,  -10.1941833,  -5.69857979
    879,  -14.1165638,  -10.2702255,  -6.16291618
    880,  -14.0138197,    -10.20508,  -5.59558582
    881,   2.88368559,  -4.08073139,  -7.03364658
    882,  -9.84140491,     -4.75737,  -9.72311401
    883,  -9.64799881,  -4.60923767,  -9.24802208
    884,  -10.0569267,  -4.93399954,   -9.2435751
    885,  -10.3419638,  -4.53321886,  -8.86195469
    886,   -10.526062,  -5.10672998,  -9.06044483
    887,   4.31062984,  -4.40577316,  -7.03528738
    888,    3.8999548,  -4.45935154,  -7.27834749
    889,  -9.90767193,  -4.04863548,  -8.97526836
    890,   2.26728988,  -4.69496965,  -6.61142397
    891,     1.940781,   -4.2851634,  -6.86264563
    892,   1.90322983,  -4.73682356,  -6.76559019
    893,   2.73917818,  -4.71935463,   -6.4428339
    894,   2.41832781,  -5.04532528,  -6.90136003
    895,   2.58901191,  -4.56480265,  -7.03321075
    896,  -14.1009359,  -9.32372665,  -6.94210482
    897,  -14.1357603,  -8.99364662,  -6.82889462
    898,  -13.8821335,  -9.13637829,  -7.26651144
    899,  -9.16095066,  -3.67285085,  -10.2621355
    900,  -8.83080578,  -3.30481601,  -10.0564814
    901,  -8.41609383,  -3.44130349,  -10.2164907
    902,  -9.37970734,  -3.42580438,  -9.94188976
    903,  -9.57440662,  -4.10695887,  -9.94664097
    904,   -9.8133173,  -3.89742851,  -10.1628714
    905,  -4.01160431,  -4.18435907,  -8.28556442
    906,  -8.91084576,  -3.81207228,   -9.7147007
    907,   -8.9681139,  -4.14797592,  -10.1906347
    908, -0.842473388,  -4.09486866,  -7.42691946
    909,  -1.08637881,  -3.82952547,  -7.93991661
    910, -0.744354963,  -3.63256931,  -8.10409927
    911,  -14.4531431,  -9.71692562,  -6.38552856
    912,   3.47218323,   -4.4108429,  -7.45598412
    913,  -1.14465785,  -3.74698234,  -8.37501335
    914, -0.370979697,  -3.95539594,  -8.42803955
    915,  -15.7093315,  -13.9967871,  -4.13129425
    916,  -15.5494919,  -14.0826082,   -3.6101048
    917,  -16.0083866,  -13.6819191,  -3.65461612
    918,  -16.1561508,  -14.4116344,  -3.97256398
    919,  -15.3353224,  -13.7405691,  -3.83397603
    920,  -15.8610134,  -13.5927687,   -4.3564415
    921,  -15.2812471,   -13.868331,  -4.22226477
    922,  -14.5694399,  -12.5869226,   -5.1336813
    923,  -15.8348322,   -13.901474,  -4.73841619
    924,  -16.2148991,  -14.0358324,  -4.40483904
    925,  -16.0463009,  -14.5423346,  -4.42555094
    926,  -15.3533993,  -13.9723406,  -4.56680298
    927,   5.45016909,  -4.89599657,  -6.32226562
    928,    4.9734149,  -4.71584082,  -5.97710514
    929,   5.22722101,  -5.19495678,  -5.90731478
    930,   5.60666847,  -4.75146961,  -5.88348389
    931,   4.88638735,  -4.84572124,  -6.59017372
    932,   5.30050611,  -5.12689447,  -6.76230574
    933,   4.97916555,  -5.29263639,  -6.31054592
    934,  -17.1944466,  -17.0778923,  -2.99906206
    935,   5.80384445,  -4.99213839,  -6.45632935
    936,   5.94683075,  -4.46663046,   -6.3926034
    937,   5.23929262,  -4.47097445,  -6.16285706
    938,  -12.5850248,  -8.48449993,  -7.16993046
    939,   5.50761461,   -4.5924592,  -6.67816544
    940,  -14.9914045,  -12.7427235,  -5.45811796
    941,  -14.9336863,  -12.0643501,  -5.16518211
    942,   -14.919137,  -12.3665838,  -5.70798111
    943,  -15.4093952,  -12.4081278,  -5.53553391
    944,   3.24137092,  -4.88994932,  -6.37963772
    945,   3.29583097,  -4.71992111,   -6.9681654
    946,   3.69650626,  -5.07104397,   -6.3353076
    947,   2.81457949,   -5.1595192,  -6.72007799
    948,   3.33079147,  -5.20515394,  -6.57551193
    949,  -17.4578724,  -16.0175953,  -2.48256373
    950,   -16.967144,  -16.3729362,  -2.84968209
    951,  -17.0323086,   -15.775176,  -2.54846811
    952,  -16.9480476,  -16.4241791,  -2.41070127
    953,  -17.6917667,  -16.1925735,  -2.76812553
    954,   -17.400753,  -16.7099113,  -2.69829702
    955,  -17.0067863,   -16.848156,  -2.33687544
    956,  -16.4985771,  -16.3100128,  -3.19422007
    957,  -16.4038925,  -16.1706963,  -2.67404914
    958,  -16.6304073,  -16.7467384,  -2.88820052
    959,  -16.9464073,  -16.4251213,  -3.32615972
    960,  -15.7230339,  -12.9063997,   -5.2256093
    961,  -13.8534889,  -9.90731335,  -6.98174524
    962,  -13.9298801,  -9.74117374,  -6.27986717
    963,   -13.961236,  -10.1223841,  -6.54936218
    964,  -13.4166689,  -10.0835714,  -6.89308214
    965,  -13.3165503,  -9.80334187,  -6.45477152
    966,  -13.5023403,   -9.5634594,  -7.25921583
    967,  -14.5167475,  -10.4773197,  -6.47315741
    968,  -14.2144585,  -10.6440115,  -6.70946598
    969,  -13.5801077,  -10.5321875,    -6.422575
    970,  -14.3498144,  -10.1181965,  -6.81546593
    971,  -9.48556995,  -4.36623287,   -10.185463
    972,  -9.26789379,  -4.05315161,  -9.49847603
    973,  -9.86668873,  -3.54811668,  -9.65134716
    974,  -9.05800819,  -3.89313841,  -9.06749439
    975,  -9.31445312,  -3.67683864,  -9.23410034
    976,  -9.51132488,  -4.05918884,  -9.04617786
    977,  -6.64635372,  -4.09736681,  -9.52456379
    978,  -13.9022284,  -8.93171406,  -6.49196005
    979,  -13.6736021,  -9.31193829,  -6.72431564
    980,  -13.7379122,  -8.91413307,  -7.29975986
    981,  -9.03866386,  -4.39818287,  -9.87367821
    982,   -8.5835247,  -4.27994728,  -9.56768036
    983,  -9.21682644,  -3.29206347,  -9.66113186
    984,  -8.46036148,  -3.13779187,  -9.40108013
    985,  -7.96623468,  -3.02306032,  -9.82493401
    986,  -8.08742046,   -3.4006207,  -9.14182663
    987,  -3.93327498,  -3.50234818,  -8.35021114
    988,  -4.20644093,  -3.88092375,  -8.48920631
    989,  -4.18899059,  -3.75519347,  -9.08249569
    990,  -3.54446101,  -3.75751352,  -8.50395489
    991,  -4.31546259,  -3.27221704,  -8.59820175
    992,  -4.37896442,  -3.67622757,  -8.28783798
    993,  -4.84762859,  -3.65933466,  -8.90832043
    994,  -4.49004221,  -4.27320337,  -8.64852715
    995,  -4.82899809,  -3.94446683,  -8.44111538
    996,    3.9820714,  -4.82461452,  -7.07016516
    997,   3.60776687,  -5.10124636,  -7.40227032
    998,   -3.7608912,  -3.99525428,   -8.8241291
    999,  -13.5816326,  -9.57005692,  -6.02017975
   1000,  -3.51367927,  -4.19947958,  -8.15853691
   1001,  -2.85241246,  -4.00207472,  -8.50577164
   1002,  -3.06152606,   -4.2771244,  -8.05275345
   1003,  -3.51229167,  -4.41796541,  -8.47153378
   1004,  -4.06301212,  -3.25183582,  -8.97497749
   1005,  -3.51863122,  -3.30633092,  -8.53712463
   1006,  -3.01204348,  -3.69680285,  -8.02960014
   1007,  -3.06013203,  -3.43524718,  -8.69152832
   1008,  -3.36420369,  -3.44741082,  -8.21263599
   1009,  -2.73918629,   -3.4519906,  -8.27781105
   1010,  -2.35320497,  -3.45332718,     -8.44312
   1011,  -2.33752751,  -4.04279232,  -8.45833778
   1012,  -2.27335429,  -4.54706335,  -8.33718967
   1013,  -2.46863008,   -4.4869318,  -8.02705193
   1014,  -2.86505985,  -4.56819868,  -8.43376827
   1015,  -3.07070136,  -4.47869205,  -8.86998463
   1016,  -2.35616779,  -4.51503372,  -8.77340221
   1017,  -2.62329316,  -4.08174706,  -9.08081722
   1018,  -3.97423458,  -4.40992022,  -8.58570671
   1019,  -3.28763127,  -4.17804813,  -9.18456173
   1020,  -6.87684917,   -3.5506978,   -9.5331583
   1021,  -6.69245958,  -3.49117112,  -10.0519876
   1022,  -6.22223091,   -3.5589087,  -9.56940556
   1023,  -6.35291338,  -3.87045956,   -9.9208231
   1024,  -7.40778065,  -4.11029768,  -9.65656662
   1025,  -7.00127172,   -3.8007009,  -10.0327663
   1026,  -6.41450071,  -3.13191056,  -9.70656013
   1027,  -14.1385984,  -9.35978794,  -6.22089148
   1028,   -12.443656,  -6.80016899,  -8.88128757
   1029,   -11.996994,  -7.19814587,  -8.45569229
   1030,  -12.4335489,  -6.89054775,  -8.07715225
   1031,  -12.4214544,  -7.33973169,   -8.6172142
   1032,  -11.7055359,  -6.71627998,  -8.72677231
   1033,  -11.9109516,  -6.64300442,   -9.0376358
   1034,  -12.6603022,  -7.23025751,  -8.86418629
   1035,  -12.7877436,  -6.92272663,  -8.62038422
   1036,  -12.5434084,  -6.39290619,  -8.94879913
   1037,  -12.7541513,  -6.47290945,  -8.50204563
   1038,  -12.1282825,  -6.48804855,  -8.60012054
   1039,  -9.74656296,  -3.54532242,   -9.1508379
   1040,  -11.6399164,  -5.70701265,     -8.93048
   1041,  -10.8557615,  -5.40844631,  -8.92141533
   1042,  -11.3358126,  -5.16540384,  -9.02871037
   1043,  -11.1452971,  -5.36503315,  -8.50360584
   1044,   -11.571208,  -4.99463367,  -8.56915092
   1045,  -11.1521587,  -4.80087566,  -8.71498871
   1046,  -11.6119642,  -5.78405905,  -8.45753098
   1047,  -11.1682673,  -5.95167542,  -8.81377125
   1048,  -16.1864395,  -15.7066441,  -2.88915849
   1049,  -15.9752855,  -15.2380381,  -3.26220608
   1050,  -11.8569565,  -5.35760164,  -8.40689468
   1051,  -13.2418556,  -9.14110756,  -7.47099304
   1052,  -13.2334213,  -8.73096371,  -7.11323118
   1053,  -13.3638496,  -8.74517441,  -6.49744797
   1054,  -13.4134579,  -9.15484047,  -6.24838066
   1055,  -16.0869923,  -14.5785313,  -3.51836419
   1056,  -16.5630016,  -15.2661867,  -3.32867718
   1057,  -16.3880348,  -14.8017864,  -2.93565273
   1058,  -16.6531105,  -14.7001543,   -3.5879097
   1059,  -15.6269674,  -14.6578741,    -3.602072
   1060,  -16.0263538,  -14.2155457,  -3.28678179
   1061,  -16.5504494,  -14.3609781,  -3.40048528
   1062,  -16.4636135,   -14.010087,  -3.53741503
   1063,  -15.9638357,  -14.8767166,  -3.11090374
   1064,  -9.14698982,  -4.48015594,  -9.43330193
   1065,  -8.77038574,  -3.53920555,  -9.20465469
   1066,  -8.36587238,  -3.94018006,  -9.20234489
   1067,   -6.3949914,  -4.03870916,   -8.8545599
   1068,  -6.30561733,  -4.10351896,  -9.34798527
   1069,  -6.72252178,  -4.04993057,  -9.20761776
   1070,  -6.60898733,  -3.55874658,  -8.88663292
   1071,  -6.20855379,  -3.74528933,  -8.78450775
   1072,  -5.95431614,  -4.02187967,   -9.0117588
   1073,  -7.35296392,  -3.13154125,   -10.056881
   1074,  -7.39930725,  -3.51509452,  -9.62197971
   1075,  -7.39587307,  -3.96467304,  -9.27272701
   1076,  -13.2214489,    -7.692554,  -7.26086903
   1077,  -11.7180567,  -6.58832169,  -8.28787613
   1078,  -12.1038132,  -7.56494904,  -8.08171749
   1079,  -12.2384758,  -7.95331097,  -7.77241516
   1080,  -12.3575163,  -7.60482025,  -7.30310011
   1081,  -11.8230267,  -6.27113771,  -8.82139301
   1082,  -12.9826593,  -7.32930231,  -8.41027641
   1083,   4.68414497,   -4.7290802,   -7.2285533
   1084,  -11.1173935,  -4.27198792,  -9.15001011
   1085,   -11.800168,  -4.95811033,  -9.08413029
   1086,  -12.0358591,  -5.12626123,  -8.73872757
   1087,  -10.9244566,  -5.15482807,  -9.47376823
   1088,  -10.8781986,  -5.57146692,  -9.37590122
   1089,  -12.1236954,  -5.55480003,  -9.06854439
   1090,   -11.604001,  -4.87578392,   -9.4631815
   1091,   5.44616556,  -5.56440496,  -6.45371485
   1092,  -11.6800346,  -5.49957275,  -9.52487087
   1093,  -11.8044329,  -6.01131344,   -8.0741272
   1094,  -12.3387251,  -5.60439062,  -8.67298031
   1095,  -10.3152122,  -4.73993921,   -10.017664
   1096,    -10.41574,  -5.25028563,   -9.5085268
   1097,  -16.3617325,  -13.5135336,  -4.35836697
   1098,  -15.8895473,  -13.1392822,  -4.72975969
   1099,  -15.9044476,   -12.969511,   -4.0880146
   1100,  -15.4194984,  -13.2814455,  -4.14088964
   1101,  -12.4922132,  -5.90289307,   -8.4840641
   1102,  -15.2423944,  -13.6453476,  -4.80680656
   1103,  -15.9111309,  -13.2485838,  -3.89633203
   1104,  -12.2084637,  -6.42349339,  -7.93638086
   1105,  -10.7345457,  -4.62593985,  -8.69952488
   1106,  -16.9470692,   -16.595665,  -1.99277973
   1107,  -17.2895908,  -16.0301552,  -2.19660401
   1108,  -17.3775272,  -16.5822716,  -2.14970255
   1109,  -14.3660135,  -10.6977329,  -5.86690569
   1110,  -14.0864115,  -10.9759912,  -6.37686729
   1111,  -1.96604908,  -3.57723403,  -7.97324467
   1112,  -1.92991114,  -3.99319196,  -7.64948559
   1113,   -2.2400775,  -4.16262531,  -7.77790976
   1114,  -1.72726452,  -4.03226089,  -8.13553429
   1115,  -2.40243268,  -3.65517807,  -7.84154844
   1116,  -1.57596219,  -3.86346102,  -7.65760565
   1117,  -1.81867731,  -3.58958244,   -8.5544672
   1118,  -1.48976564,  -3.54503918,  -8.18420887
   1119,   5.61874962,  -5.30667448,  -5.85633659
   1120,   6.14077282,  -5.39736462,  -6.41021395
   1121,     6.200634,  -5.68991566,  -6.08724403
   1122,    6.1111784,  -5.22987938,  -5.92871141
   1123,   2.45427179,  -4.32276583,  -6.67637825
   1124,   3.07882142,  -4.41587448,  -6.45403814
   1125,  -14.8239498,  -12.3702936,   -4.4738431
   1126,  -14.9052114,  -12.7799482,  -4.72369671
   1127,  -14.9663801,  -12.9427128,  -4.24634743
   1128,  -15.5912209,  -12.4450579,  -4.48758554
   1129,  -15.4224882,   -12.743556,  -4.10803604
   1130,  -15.2205715,  -12.4817152,  -4.95899677
   1131,    -15.02075,  -11.8695421,  -4.60689354
   1132,  -14.6090565,  -12.4433422,  -4.75339651
   1133,  -1.08836794,  -4.47979975,  -7.53098106
   1134,  -1.49634719,  -4.72926807,  -7.99659491
   1135,  -1.56654501,  -4.42050838,  -7.63049698
   1136,  -1.23469579,  -4.29392529,  -7.90368319
   1137,   4.38437271,   -5.1244154,  -7.24398708
   1138,   4.98438835,  -5.21404934,  -7.02837324
   1139,   5.00643396,   -4.4943347,   -6.9428196
   1140,   4.16821003,  -5.06104088,  -6.71579123
   1141,  -2.51239681,  -3.90069079,  -8.05780411
   1142,  -1.84268975,  -4.36561584,  -8.79512882
   1143,   6.25012922,  -5.28522062,  -6.79623842
   1144,   5.58867741,  -5.20620108,  -6.94876289
   1145,    6.0206151,  -4.83785105,  -6.90088749
   1146,   6.27588558,  -4.81124163,  -6.42488718
   1147,  -5.15149355,  -3.07672167,  -9.13942719
   1148,  -5.00184965,   -3.2362287,  -9.45728588
   1149,  -5.40849829,  -3.39515638,  -8.61995602
   1150,  -5.55422831,  -3.51297164,  -9.09092617
   1151,  -4.67887354,  -3.15433478,  -9.00946045
   1152,  -5.67830658,  -3.00433421,  -9.22848129
   1153,  -16.7151928,  -15.3701496,  -2.79277778
   1154,  -17.3285332,  -16.4989777,  -3.17657924
   1155,  -1.21395183,  -4.17346525,  -8.41001797
   1156, -0.818798304,  -4.28599405,  -8.61528587
   1157,  -5.65505791,  -3.91466212,  -9.75156116
   1158,  -5.51909256,  -4.22176361,  -9.32631493
   1159,     5.414114,  -4.65527058,   -6.9688673
   1160,  -15.4912891,  -13.3860416,   -5.1139431
   1161,  -16.5715027,  -15.5631838,  -2.52722788
   1162,  -5.15378523,  -3.64272475,  -9.70451069
   1163,  -5.15112782,  -4.20715237,   -9.6005888
   1164,   -6.0467205,  -3.25813746,  -9.28603458
   1165,  -6.07860327,  -2.96634722,  -9.43715763
   1166,  -5.45693731,  -3.21236897,  -9.51497269
   1167,  -5.88452101,  -3.31992674,  -8.74660587
   1168,  -5.16324377,  -3.82250142,  -8.55455399
   1169,  -4.96127796,   -4.2467947,  -8.77686882
   1170,  -4.48631859,  -3.51638341,   -9.4945879
   1171,  -4.86892319,  -3.93868732,  -9.28715515
   1172,   -1.9389751,  -4.55241632,  -7.90242481
   1173,  -1.55328643,  -4.72562075,  -8.24668217
   1174,  -14.2853231,  -9.76039982,  -6.97508097
   1175, -0.531530499,  -4.68753529,  -8.31975269
   1176,  0.573688149,  -4.95317125,  -7.87902021
   1177,  0.343766987,  -4.87702179,  -7.42697334
   1178,  -11.4521961,  -6.27180624,   -8.4094677
   1179,  -13.1035576,  -8.33368778,  -7.38810778
   1180,   -12.792614,  -8.43961334,  -6.81692362
   1181,  -12.7071962,  -8.02533913,  -7.04485893
   1182,  -13.0835466,  -8.18829536,  -6.77867365
   1183,  -13.4143772,   -8.7217598,  -7.77662277
   1184,  -13.6880474,   -8.3377676,  -7.51624107
   1185,    -13.26367,  -8.35815239,  -7.98660517
   1186,  -12.7242308,    -8.289711,  -7.62718391
   1187,  -13.0445366,  -7.94008732,  -7.76342916
   1188,  -13.5313416,  -7.87581205,  -7.30660725
   1189,   4.45261669,  -4.96860981,  -6.10968113
   1190,  -12.6608973,   -7.3869195,   -7.9808445
   1191,  -13.1445932,  -7.12335205,  -7.82306242
   1192,  -12.6976433,  -6.80116224,  -7.65589046
   1193,  -12.4448109,  -7.97201157,  -7.47161674
   1194,  -12.9218149,  -7.34326124,  -7.26809025
   1195,  -12.3952951,  -7.21887684,  -7.38880014
   1196,  -11.9620848,  -7.17961025,  -7.99286175
   1197,  -13.3260498,  -7.50374508,  -7.63483286
   1198,  -12.4598627,  -7.63967228,   -8.4379034
   1199,  -16.3897285,  -15.0151701,  -3.87360835
   1200,  -16.8703365,  -15.5387735,   -3.7221694
   1201,  -16.8117256,  -15.0529327,  -3.80698156
   1202,  -11.2310686,  -5.86050749,  -9.33784676
   1203,  -16.6873169,  -14.6870461,  -4.07204151
   1204,   -16.024725,  -15.3108273,  -3.73582244
   1205,   -7.7299962,  -3.03025937,  -9.55547428
   1206,  -7.83664083,  -3.47088861,  -10.1802826
   1207,  -7.93444729,  -3.69551086,  -9.51974964
   1208,   4.13880301,   -4.6152401,  -6.19493294
   1209,   4.44502926,  -4.31139135,  -6.47497272
   1210,  -13.0128288,  -8.68921185,  -6.53872919
   1211,   4.36236858,  -5.30158234,  -6.27738667
   1212,  -17.8211861,  -16.6134853,   -2.8959024
   1213,  -14.5301876,  -11.1895304,  -6.46131802
   1214,    -14.51752,  -11.4470787,  -5.90730858
   1215,  -17.0424595,  -16.0018005,  -2.91021132
   1216,    -17.78578,  -16.3432751,  -2.33405566
   1217,   1.95537937,  -4.47076416,  -7.24222088
   1218,   2.29117799,  -5.20154476,  -7.27734661
   1219,   1.41197562,  -3.99879003,  -7.12081861
   1220,   1.83469975,  -4.03096914,  -7.55823803
   1221,   2.23049927,  -4.00507259,  -7.06351995
   1222,   2.58310843,  -5.00522184,  -7.63149929
   1223,   2.30993605,  -4.13048124,  -7.52974939
   1224,  -13.8359079,  -8.51268196,  -6.94662237
   1225,  -13.6160994,  -8.13583088,  -7.01858997
   1226,  -16.3634834,   -13.602972,  -3.87750387
   1227,  -16.6592903,  -14.1310043,  -3.81934881
   1228,  -3.69146037,  -4.20267773,  -9.21670628
   1229,  -16.1595325,  -12.8592052,  -4.43065929
   1230,  -12.8683167,  -9.11382675,  -6.82619905
   1231,  -12.7446165,  -8.92743015,  -7.37165546
   1232,  -13.0923691,  -9.48662949,   -7.0227561
   1233,  -13.0390768,   -8.6088171,  -7.77135706
   1234,  -16.1648846,  -15.7215843,   -3.4253602
   1235,  -16.6758652,  -16.0246429,  -3.37882471
   1236,  -13.1389236,  -7.73329687,  -8.19779873
   1237,  -12.7659845,  -8.12468243,  -8.14191055
   1238,  -11.9908819,  -6.94734049,  -7.74173069
   1239,  -14.4942102,  -10.5166578,  -5.42638159
   1240,  -13.9600935,  -10.8719749,  -5.44758368
   1241,  -16.2843857,  -15.1731901,  -2.78299451
   1242,  -13.2520542,  -7.13209486,  -7.48382521
   1243,  -4.88200378,  -3.42639637,  -8.51117897
   1244,  -5.61559772,  -3.77052379,  -8.67453194
   1245,  -5.38296175,  -4.15582085,  -8.87172508
   1246,  -7.18375015,   -2.9286561,  -9.57582474
   1247,   3.80343723,  -5.25234509,  -6.95679235
   1248,   -7.4817977,  -3.19493794,  -9.12025547
   1249,  -8.40690708,  -3.62332082,   -9.6463871
   1250,  -8.06364536,  -3.93698788,  -10.1942368
   1251,  -7.85801792,  -4.05579948,  -9.84306526
   1252,  -7.57119894,  -3.85150409,  -10.1414537
   1253,  -6.43118668,  -3.02923775,  -9.17249203
   1254,   -6.8624115,  -3.11603904,  -9.75109673
   1255,  -5.82175589,    -3.337641,  -9.80779552
   1256,   3.25771642,  -5.34253883,  -7.03115463
   1257,   2.75366831,  -5.20341301,  -7.20454693
   1258,  -17.0612564,   -15.186451,  -3.44328117
   1259,  -16.7482281,  -14.6079683,  -3.17491794
   1260,  -12.1942272,   -6.2551837,  -9.16941166
   1261,   1.79209471,  -5.06675386,  -7.03554678
   1262,  -9.88354015,  -4.49064922,  -10.1152334
   1263,  -17.1421242,  -15.9788218,  -3.49361038
   1264,  -12.9160547,  -6.61870575,  -8.18077946
   1265,  -12.3921938,  -6.03868341,  -9.02323341
   1266,  -11.4596605,  -6.16642523,  -9.17692852
   1267,  -2.68858671,  -3.43996358,  -8.94106197
   1268,  -6.85510778,  -3.21955514,  -8.97594643
   1269,  -7.94634533,  -3.64900708,  -9.07003403
   1270,  -7.22358656,  -3.58262849,  -9.14663696
   1271,  -3.92402005,  -3.72406483,  -9.39003658
   1272,  -4.44785738,  -3.97755933,  -9.53148556
   1273,  -4.41774702,  -4.24971294,  -9.11297989
   1274,  -4.91357803,  -4.34874487,  -9.16174316
   1275,  -8.00813198,  -4.13904905,  -9.42102623
   1276,    -8.417799,  -4.18614769,  -9.83447361
   1277,   -15.226326,  -11.8086233,  -5.38900566
   1278,  -14.6652269,  -11.9391193,  -5.91516924
   1279,  -14.5128841,  -12.0727968,  -5.55797434
   1280,  -15.0463953,  -12.0843906,  -5.75381994
   1281,  -11.9330626,  -5.83290195,  -9.38165474
   1282,  -11.8438978,  -6.11425638,   -9.4085474
   1283,   2.74356055,  -4.46305323,  -7.70588875
   1284,   3.07717609,  -4.68308258,   -7.7557354
   1285,  -8.48551178,  -3.94973087,  -10.2326899
   1286,  -3.24213004,  -3.62098145,  -9.14968395
   1287,  -14.8410845,  -10.7415285,  -6.17958164
   1288,   1.10173929,  -3.91666412,  -7.70227146
   1289,  0.896804392,  -4.07026434,  -7.14465761
   1290,   1.25528836,  -4.65983105,  -6.95810366
   1291,  0.646435201,  -4.11221027,  -8.21335602
   1292,  0.639331698,  -3.82823324,  -7.73377752
   1293,  0.804691434,  -4.59555912,   -7.7652607
   1294,   1.14686167,  -4.49137449,  -8.13146877
   1295,   6.09263325,  -4.79459667,  -5.72839737
   1296,  0.755743563,  -4.75808954,  -7.09440517
   1297,   1.23349416,  -4.96104813,  -7.31486273
   1298,  -14.4067011,  -10.9938068,  -5.14172649
   1299,  0.217193216,  -4.49421024,  -7.11632633
   1300,  -15.0418234,  -13.4894466,  -4.30609989
   1301,  -15.4002018,  -12.9801779,  -4.69899702
   1302,   3.06835723,  -4.99039745,  -7.50155497
   1303,   3.10828876,  -4.28109312,  -7.41404104
   1304,  -15.8309793,  -14.8865747,  -3.92959285
   1305,  -16.9562321,  -14.6992922,  -3.65357232
   1306,  -15.9185734,  -13.4108534,  -5.02635241
   1307,   1.49645996,  -4.76544142,  -7.97951746
   1308,  -3.58162069,  -3.44295216,  -9.03252125
   1309,   1.92807615,  -4.60081339,  -7.69279242
   1310,    3.3709712,  -4.14128637,  -6.92143726
   1311,   1.04491138,  -4.98105335,  -7.86255169
   1312,  0.839728236,  -5.02476311,  -7.60713196
   1313,  0.340361625,   -4.1001358,  -7.17351055
   1314,  -2.11954737,  -4.05688763,  -8.94949341
   1315,  -5.46635771,  -3.41756797,  -9.83629894
   1316,  -15.3275175,  -12.8696356,  -5.21236372
   1317,  -15.8522139,  -12.6580877,  -4.90877247
   1318,  -14.8983946,   -11.181983,  -6.04344559
   1319,  -15.1323195,  -11.6940985,  -5.89191103
   1320,  -14.4492455,  -11.4887323,  -5.31008768
   1321,  -14.1293612,  -11.6841307,  -5.73286915
   1322,  -14.3303804,  -11.7332907,  -6.02999783
   1323,  -13.9264717,  -11.2877827,  -5.96104622
   1324,   -14.905818,   -10.983695,  -5.20260906
   1325,  -14.7459784,  -11.3489046,  -4.96393919
   1326,  -14.2577457,  -11.8431473,  -5.19353867
   1327,  -14.9631948,  -10.9861231,  -5.63374472
   1328,  -15.1899538,  -11.4007215,  -5.12125301
   1329,  -1.03181052,  -4.72377491,  -8.26574135
   1330,   1.45058644,  -4.49132681,  -7.52604485
   1331,   1.72982144,  -5.06943989,  -7.58399487
   1332,  -13.1469212,  -9.37108612,  -6.48141146
   1333,  -16.9759941,  -15.0319033,  -2.85277224
   1334,    4.6479435,  -5.49241209,  -6.69072866
   1335,   4.92234087,  -4.36573362,  -6.35297728
   1336,   -15.334342,  -11.6766243,  -4.91240406
   1337,  -4.09974194,  -3.38950729,  -9.40911388
   1338,  -15.4303951,  -14.3221397,  -4.08892155
   1339,   1.59387505,  -4.19760799,   -7.9463315
   1340,  -13.3804913,  -7.80715179,  -7.99312449
   1341,  -1.39781177,   -3.9348619,  -8.72356319
   1342,  -1.35954142,  -4.45811987,  -8.71008778
   1343,  -15.5371227,  -12.0574503,  -4.71304798
   1344,  -15.1271267,  -13.2857504,  -4.96049547
   1345,   -15.672617,  -12.2970943,  -5.22640181
*Element, type=C3D4
   1,  843,  844,  845,  846
   2,  847,  671,  848,  676
   3,  846,  849,  845,  850
   4,  846,  851,  849,  850
   5,  849,  852,  851,  846
   6,  853,  849,  852,  851
   7,  846,  854,  855,  851
   8,  846,  852,  851,  855
   9,  856,  498,  857,  858
  10,  859,  860,  861,  862
  11,  859,  863,  860,  862
  12,  859,  864,  865,  866
  13,  867,  499,  494,  495
  14,  868,  869,  870,  859
  15,  871,  872,  873,   21
  16,  859,  869,  863,  874
  17,  859,  875,  862,  866
  18,  859,  876,  875,  868
  19,  877,  586,  843,  587
  20,  876,  869,  868,  859
  21,  867,  501,  878,  500
  22,  867,  879,  880,  878
  23,  881,   95,  687,  682
  24,  867,  880,  857,  499
  25,  853,  849,  882,  852
  26,  853,  883,  168,  884
  27,  885,  853,  818,  886
  28,  853,  849,  883,  882
  29,  337,  887,   97,  888
  30,  885,  889,  813,  853
  31,   22,   21,  873,  572
  32,  853,  849,  851,  889
  33,  890,  689,  891,  892
  34,  890,  892,  688,  689
  35,  890,  893,  894,  895
  36,  896,  897,  898,   38
  37,  890,  688,  892,  894
  38,  899,  591,  900,  901
  39,  899,  902,  900,  156
  40,  155,  902,  590,  156
  41,  902,  590,  156,  899
  42,  902,  903,  904,  899
  43,  905,  127,  748,  128
  44,  903,  899,  906,  907
  45,  721,  908,  909,  910
  46,  911,  497,  492,   37
  47,  362,  912,  888,  336
  48,  910,  727,  909,  726
  49,  910,   86,  913,  727
  50,  910,  913,  914,  866
  51,  910,  866,  908,  909
  52,  910,  914,   87,  875
  53,  915,  916,  917,  918
  54,  919,  920,  921,  915
  55,  922,   64,  300,  301
  56,  915,  920,  923,  924
  57,  915,  925,  924,  923
  58,  915,  926,  920,  921
  59,  927,  928,  929,  930
  60,  927,  931,  932,  933
  61,  934,   17,  180,   16
  62,  927,  930,  935,  936
  63,  927,  928,  937,  931
  64,  938,  311,   54,  310
  65,  927,  936,  935,  939
  66,  940,  941,  942,  943
  67,  944,  945,  847,  946
  68,  944,  946,  674,  673
  69,  944,  678,  893,  947
  70,  944,  948,  946,  673
  71,  949,  950,  951,  952
  72,  953,  954,  950,  949
  73,  950,  955,  952,  954
  74,  950,  956,  957,  958
  75,  950,  958,  952,  955
  76,  950,  934,  959,  958
  77,  196,  943,  960,  222
  78,  961,  962,  911,  963
  79,  961,  964,  965,  963
  80,  965,  966,  964,  961
  81,  963,  967,  879,  911
  82,  963,  879,  968,  969
  83,  255,  963,  970,  968
  84,  963,  255,  969,  968
  85,  963,  968,  879,  967
  86,  903,  603,  971,  602
  87,  903,  849,  883,  972
  88,  903,  972,  902,  973
  89,  903,  972,  973,  849
  90,  972,  974,  975,  976
  91,  975,  849,  973,  972
  92,  977,  647,  634,  134
  93,  978,  979,  897,  980
  94,  973,  845,  904,  903
  95,  882,  849,  883,  903
  96,  899,  903,  904,  603
  97,  972,  981,  906,  982
  98,  972,  983,  906,  902
  99,  972,  983,  973,  975
 100,  902,  903,  899,  906
 101,  791,  984,  985,  986
 102,  987,  988,  989,  990
 103,  991,  988,  989,  987
 104,  988,  991,  992,  987
 105,  988,  993,  991,  989
 106,  988,  993,  994,  995
 107,  988,  994,  905,  753
 108,  996,  997,  362,  389
 109,  990,  988,  989,  998
 110,  989,  994,  998,  988
 111,  999,  962,  856,  857
 112, 1000, 1001, 1002, 1003
 113,  987, 1004,  757, 1005
 114, 1006,  990, 1007, 1001
 115, 1008, 1006,  990, 1007
 116, 1009, 1007, 1010, 1011
 117, 1001, 1012, 1013, 1014
 118, 1015, 1014, 1016, 1001
 119, 1011, 1001, 1012, 1013
 120, 1001, 1011, 1016, 1017
 121,  905, 1018,  127,  128
 122, 1016, 1001, 1012, 1011
 123, 1011, 1007, 1010, 1017
 124, 1001, 1019, 1007, 1017
 125, 1020, 1021, 1022, 1023
 126, 1020,  977, 1024, 1025
 127, 1020, 1022, 1021, 1026
 128,  492,  897, 1027,  896
 129, 1028, 1029, 1030, 1031
 130,  289, 1032, 1033, 1028
 131, 1028, 1034, 1035,  237
 132,   47, 1036,   46, 1028
 133, 1028, 1037, 1030, 1038
 134,  850,  889, 1039,  810
 135, 1028, 1037, 1038, 1036
 136, 1040, 1041, 1042, 1043
 137, 1043, 1044,  829, 1045
 138, 1043, 1046, 1040, 1047
 139, 1043, 1044,  834,  829
 140, 1048,  293, 1049,   72
 141, 1043, 1046,  834, 1050
 142,  979, 1051,  980, 1052
 143, 1027,  897,  979,  896
 144,  979, 1052,  980, 1053
 145,  978, 1027,  897,  979
 146,  979, 1054, 1053,  978
 147, 1055, 1056, 1057, 1058
 148, 1055,  548, 1059,  916
 149,  918, 1060, 1061, 1055
 150, 1062,  918, 1060, 1061
 151,  553,  548, 1059, 1055
 152, 1055, 1059,  553, 1063
 153, 1055, 1061, 1057, 1060
 154,  974,  804,  976,  803
 155,  972,  974,  976, 1064
 156,  974,  906, 1065,  982
 157,  972,  906,  974,  982
 158,  982,  798, 1066, 1065
 159,  798,  974, 1065,  982
 160,  974,  975,  804,  799
 161,  974,  975,  799, 1065
 162, 1067, 1068,    8, 1069
 163, 1067, 1068, 1070, 1071
 164, 1067,  773, 1071,  178
 165, 1067, 1071,  773, 1072
 166, 1067, 1072, 1068, 1071
 167, 1073, 1025, 1021, 1074
 168, 1025, 1021, 1023,  621
 169, 1025,  634, 1023,  977
 170, 1074, 1020, 1075, 1024
 171, 1020, 1069, 1075,  977
 172,  647, 1024,  977,  634
 173, 1024,  977,  634, 1025
 174, 1014, 1015,  426, 1003
 175, 1014,  401, 1016,  427
 176, 1014, 1015,  400,  426
 177, 1076,  470,  471,  475
 178, 1077,   50,  315,    4
 179,   52, 1078, 1079, 1080
 180, 1014, 1016, 1001, 1012
 181, 1001, 1002, 1014, 1013
 182, 1040, 1046, 1081, 1047
 183, 1034,  210, 1082, 1035
 184, 1014,  125, 1013, 1002
 185,  365,  364, 1083,  338
 186,  851,  850,  846,  854
 187,  854,  855,  816,  821
 188,  854,  821, 1084,  855
 189,  854,  153,  845,  843
 190,  854,  843,  822,  152
 191,  854,  153,  843,  152
 192,  854,  843, 1084,  822
 193, 1043, 1044, 1050,  834
 194, 1044, 1085,  831, 1045
 195, 1044, 1042, 1086, 1085
 196, 1043, 1045,  828, 1041
 197, 1042, 1087, 1041, 1088
 198, 1043, 1044, 1042, 1050
 199, 1086, 1089, 1085, 1042
 200, 1042, 1040, 1050, 1086
 201, 1042, 1087, 1090, 1045
 202,  935,  932, 1091,  927
 203,  886, 1041, 1045, 1087
 204, 1044,  836, 1086, 1050
 205, 1044, 1050,  835,  836
 206, 1092, 1087, 1090, 1042
 207, 1093,  841, 1050, 1094
 208, 1087,  852, 1095,  843
 209, 1096, 1095,  613, 1087
 210, 1087,  611,  877,  612
 211, 1092,  611,  877, 1087
 212,  920, 1097, 1098,  194
 213,  920, 1099, 1100, 1098
 214, 1101,    3,  147,  148
 215,  920, 1100, 1102, 1098
 216,  920, 1099, 1097, 1103
 217,  983,  900,  156,  802
 218,  983, 1065,  906,  900
 219,  983,  800,  975, 1065
 220,  983,  984, 1065,  900
 221,  983,  805,  975,  800
 222,  972,  906,  983,  975
 223,  900,  984,  797,  983
 224,  805,  983, 1039,  806
 225,  850,  975, 1039,  976
 226, 1039,  850,  973,  975
 227, 1039,  850,  811,  973
 228,  975,  805,  983, 1039
 229,  877,  600,  612,  599
 230,  889, 1039,  810,  809
 231,  849,  883,  976,  889
 232,  972,  974, 1064,  982
 233,  982,  974,  803,  798
 234,  976, 1064,  803,  883
 235,  975,  804, 1039,  976
 236,  974,  975,  976,  804
 237, 1104,  457,  455, 1101
 238,  820,  855,  815,  819
 239,  885,  819,  851,  855
 240, 1092,  150, 1090,  585
 241,  855,  825, 1084, 1045
 242,  825, 1105,  855,  820
 243, 1105,  886,  885,  823
 244,   44, 1037, 1036,    3
 245, 1105, 1045,  886,  823
 246,  823, 1105,  819,  885
 247,  952,  578,  574, 1106
 248, 1106,  952, 1107,  574
 249, 1106,  952,   75,  955
 250, 1106, 1108,  952,  955
 251, 1106, 1108,  181,  580
 252, 1106,   10,  580,  181
 253, 1106,  181,    9,   10
 254, 1106,  179,  578,    9
 255,  879, 1109, 1110,  858
 256,  879,  858,  880, 1109
 257,  879,  880,  878, 1109
 258,  879,  857,  969,  963
 259,  879,  969, 1110,  968
 260,  878,  911,  867,  879
 261,   59,  305,  858,  306
 262, 1111, 1112, 1113, 1114
 263, 1115, 1112, 1113, 1111
 264, 1111,  730, 1112, 1116
 265, 1111, 1115, 1112,  735
 266, 1111, 1112,  730,  735
 267, 1111, 1116, 1112, 1114
 268,  732, 1111, 1117, 1118
 269, 1111,  731, 1118,  732
 270,  108,  107, 1091, 1119
 271, 1120, 1121,  445,  451
 272, 1121,  106,  451,  450
 273, 1121,  106,  450,    7
 274, 1121,    7,  450,  107
 275, 1121,  648, 1119,  107
 276, 1121,  450, 1122,  648
 277,  893, 1123,  685, 1124
 278, 1069,    8,  178,  161
 279, 1124,  893,  945,  944
 280,  944,  893,  679, 1124
 281,  893,  947,  678,  683
 282,  893,  945,  947,  895
 283,  893,  945,  944,  947
 284,  685, 1124,  680,  893
 285,  893, 1124,  680,  679
 286, 1125, 1126,  528, 1127
 287, 1126, 1128, 1129, 1125
 288, 1125, 1126, 1128, 1130
 289, 1128,  530,  529, 1131
 290,  524,  529,  525, 1131
 291, 1125, 1131,  523, 1132
 292, 1125, 1132, 1126, 1130
 293, 1133, 1134, 1135, 1136
 294, 1133,  719,  908,  724
 295, 1133,  908,  719,  865
 296, 1133,  866,  908,  865
 297, 1133,  864,  718,  121
 298, 1133,  122,  864,  121
 299, 1083,  887,   98,   97
 300, 1083,  337,  888,  887
 301, 1083,  931, 1137, 1138
 302, 1083,  365, 1139, 1138
 303, 1083, 1139,   98,  887
 304, 1137, 1083, 1140,  931
 305, 1083,  337,  887,   97
 306, 1011, 1113, 1141, 1013
 307,  915,  916,  919,  917
 308, 1001, 1141, 1002, 1013
 309, 1001, 1017, 1016, 1015
 310, 1011, 1016, 1142, 1012
 311,  103,  447,  367,  104
 312, 1120, 1143,  393, 1144
 313, 1143, 1144,  935, 1145
 314, 1143,  935, 1120, 1146
 315,  367,  447,  341, 1145
 316,  451, 1143,  393, 1120
 317, 1086,  832,  837,  836
 318, 1143,  104,  451,  393
 319, 1147, 1148,   77,   78
 320, 1147,  993, 1149, 1150
 321,  909,  727, 1118,  726
 322, 1147,  993, 1148, 1151
 323, 1147,   78, 1151, 1148
 324, 1147,  771, 1152, 1149
 325,  767, 1147,   78, 1151
 326,  867,  500,  496,  501
 327,  951, 1153,  871,  873
 328,  871,  951,  873,  872
 329,  872,  873,   21,  572
 330,  872, 1154,  953,   20
 331,  872,  871,  188,   21
 332,  872,  949,  572,  577
 333,  872,  577,  953,  949
 334,  909,  721,  726,  725
 335,  910,  721,  726,  909
 336,  913,  909,  866,  910
 337,  914,   86,  327,  326
 338,  909, 1114, 1155, 1136
 339,  866, 1156, 1155,  914
 340,  910,  721,  875,  722
 341, 1068, 1072,  132,  420
 342, 1068, 1157, 1072, 1158
 343, 1067,  132, 1068, 1072
 344, 1068, 1022, 1070, 1071
 345, 1068, 1022, 1023,  977
 346,  365, 1144, 1159,  932
 347,  923, 1102,  246, 1160
 348,  927,  935,  932,  939
 349,  939,  932, 1144,  935
 350, 1144,  939, 1145, 1159
 351,  932,  931,  939, 1139
 352,  950,  955,  934,  958
 353,  952,  958,   75,  955
 354,  951,  957,  573,  952
 355, 1161,  957,  573,  951
 356,  952,  951,  574,  573
 357,  573,  952,  578,  574
 358, 1106, 1107,  952, 1108
 359, 1106,  955,  181, 1108
 360, 1006,  741, 1009,  746
 361, 1006,  746, 1008,  745
 362, 1006, 1009, 1007, 1008
 363, 1006, 1008,  990,  744
 364, 1006,  741, 1115, 1009
 365, 1009, 1141, 1115, 1006
 366, 1006, 1141,  739, 1002
 367,  923,  920,  194,  193
 368, 1162, 1163, 1158, 1157
 369,  776, 1164, 1165, 1152
 370, 1152, 1166,   76,   77
 371, 1152, 1150, 1167, 1164
 372, 1152,   77, 1147, 1166
 373,  993, 1168, 1169,  995
 374,  993, 1149, 1150, 1168
 375, 1147,  993, 1150, 1148
 376,  993, 1148, 1170, 1171
 377, 1134, 1172, 1173,  429
 378, 1134, 1135, 1172,  123
 379,  970, 1174,  911,  961
 380,  970,  911,   35,  967
 381,  961,  255,  963,  970
 382,  970,  968,  229,  255
 383,  970,  961,  229, 1174
 384,  970,  228,  968,  967
 385,  970,  229,  968,  228
 386,  861,  406, 1175,  862
 387,  860,  433, 1176, 1177
 388,  860,  869, 1176,  863
 389,  860,  862,  863,  381
 390,  406,  860,  862,  861
 391,  860, 1176,  433,  407
 392,  937,  657,  936,  939
 393, 1046, 1081, 1047, 1178
 394,  840, 1093, 1050,  839
 395, 1093, 1050,  839, 1046
 396, 1043,  834, 1046,  833
 397, 1046, 1050,  839,  834
 398, 1046, 1093, 1178,  838
 399, 1043,  833, 1046, 1047
 400, 1094,  837,  842,  841
 401, 1043, 1040, 1046, 1050
 402, 1179, 1180, 1181, 1182
 403, 1179, 1183, 1052, 1184
 404, 1183, 1185, 1184, 1179
 405, 1186, 1187, 1185, 1179
 406, 1179, 1188, 1184, 1182
 407, 1179, 1180, 1182, 1052
 408,  928,  654,  929,  930
 409, 1189,  928,  659,  933
 410,  927,  929,  928,  933
 411,  928, 1189,  931,  933
 412,  933,  928,  659,  929
 413, 1190, 1030, 1191, 1192
 414, 1193, 1194, 1080, 1190
 415, 1194, 1080, 1190, 1195
 416, 1190, 1196, 1030, 1195
 417, 1190, 1196, 1029, 1030
 418, 1190, 1197, 1187, 1194
 419, 1190, 1198, 1031, 1078
 420, 1199,  216, 1200, 1201
 421, 1202,  624,  636,  623
 422, 1199, 1058,  918, 1203
 423, 1199, 1056, 1200, 1204
 424, 1097,  542, 1103, 1099
 425, 1199,  243, 1204,  242
 426, 1112, 1113, 1114, 1172
 427, 1115, 1010,  736, 1111
 428, 1112,  728, 1135,  729
 429, 1202,  623,  611,  624
 430, 1111, 1116,  731,  730
 431, 1112, 1113,  734, 1115
 432, 1112,  734, 1113,  729
 433, 1114, 1135, 1172, 1136
 434, 1114, 1111, 1141, 1113
 435, 1141, 1111, 1011, 1010
 436, 1111, 1114, 1011, 1117
 437, 1112, 1135, 1114, 1116
 438, 1140, 1083,  887,  931
 439,  887,  848,  996, 1140
 440, 1205, 1206, 1074, 1207
 441, 1140,  847,  946, 1208
 442, 1140, 1209, 1208, 1189
 443,  479, 1053, 1182, 1210
 444, 1189, 1140,  931, 1211
 445, 1140,  848,  996,  847
 446,  953, 1212, 1154,  954
 447,  917,  549, 1060,  916
 448,   20, 1212, 1154,  953
 449, 1213, 1110, 1214,  252
 450,  872, 1215,  953, 1154
 451,  953, 1216,  582, 1212
 452,  953, 1212,  582,   19
 453,  953,   20, 1212,   19
 454, 1217,  895,  894, 1218
 455, 1219, 1220, 1221,  891
 456, 1217,  895, 1218, 1222
 457,  891, 1220, 1221, 1223
 458, 1217,  895, 1222, 1223
 459,  895,  891, 1223, 1217
 460, 1224,  482,  481, 1225
 461, 1123,  891, 1221,  895
 462, 1226, 1227,  552, 1097
 463, 1097,  924, 1226, 1227
 464,  955,  290,   75,  179
 465,  542, 1103, 1226, 1097
 466, 1228,  346,  347,  373
 467,  920, 1103, 1097, 1226
 468, 1097, 1226,  542,  547
 469, 1097, 1099, 1229,  542
 470, 1097, 1229, 1098,   27
 471,   55,  938,  310, 1230
 472,  877,  600,  613,  612
 473, 1231, 1051,  284, 1232
 474, 1041,  638,  171,  637
 475, 1231, 1186,  285, 1233
 476, 1231, 1052, 1233, 1051
 477, 1179, 1186, 1231, 1233
 478, 1080,  464, 1195, 1194
 479, 1080,  469, 1194, 1181
 480, 1193, 1181,  468, 1080
 481, 1080, 1194, 1193, 1181
 482, 1080,  464, 1194,  469
 483, 1106,  574, 1107,  579
 484, 1106,  579, 1107,  580
 485, 1107,  952, 1108, 1216
 486, 1107,  951,  949,  576
 487, 1107,  581, 1216,  580
 488, 1107,  576,  949,  581
 489,  956,  293, 1234, 1048
 490,  240,  959,  266, 1235
 491,  959,  266, 1235,  956
 492,  956,  958,  291,  957
 493, 1235, 1048,  957,  956
 494, 1092,  611,  610,  598
 495, 1093,  144,  840,  145
 496,   73,  292,  957, 1048
 497, 1198,  236, 1031,  262
 498, 1190, 1197, 1191, 1236
 499, 1237, 1190, 1187, 1079
 500, 1190, 1079, 1193, 1187
 501, 1190, 1080, 1193, 1079
 502, 1198, 1078,  288, 1031
 503, 1198, 1079,  287, 1078
 504, 1198, 1078,  287,  288
 505, 1078, 1196, 1029, 1190
 506,  453, 1104, 1077, 1238
 507,  880, 1239, 1109,  858
 508, 1238, 1104, 1077, 1030
 509, 1238, 1196, 1077,   50
 510, 1238, 1196,   50,   51
 511,  458, 1238,   51, 1195
 512, 1238,   51, 1195, 1196
 513, 1239, 1240,  858,  880
 514,  867,  878,  880,  500
 515,  867,  857,  494,  499
 516,  867,  880,  879,  857
 517,  880,  857,  498,  858
 518,  880, 1240,  858,  503
 519, 1049, 1241, 1056, 1048
 520, 1241, 1153, 1048, 1161
 521, 1241,  559, 1063, 1057
 522, 1241,  564, 1153, 1161
 523, 1241,  565, 1153,  564
 524, 1241, 1153,  565, 1057
 525, 1241, 1057,  564,  559
 526, 1076,  470, 1182, 1181
 527, 1076,  475, 1182,  470
 528, 1076, 1188, 1182,  476
 529, 1197, 1242,  471, 1076
 530, 1242, 1194,  471, 1076
 531,  466, 1242, 1194,  471
 532, 1239,  506,  510,  505
 533, 1191, 1197, 1194, 1242
 534, 1076,  472, 1188,  471
 535, 1076, 1187, 1188, 1197
 536,  993, 1168, 1243, 1149
 537, 1150, 1071, 1072, 1244
 538, 1150, 1162, 1148, 1171
 539, 1152, 1150, 1149, 1167
 540, 1147, 1150, 1166, 1148
 541,  772, 1152,   77, 1147
 542, 1150, 1168, 1244, 1245
 543, 1205, 1246, 1074, 1073
 544, 1093,  840,  841,  145
 545, 1247,  111,  440,  441
 546, 1150, 1167, 1244, 1149
 547,  986,  791, 1205,  985
 548, 1205, 1248,  790,  986
 549, 1246,  782,  787,  786
 550,  791,  787, 1205,  792
 551,  787,  792,  159, 1205
 552, 1205,  786, 1246,  787
 553,  935, 1119, 1091, 1120
 554,  935, 1122, 1119, 1120
 555,  935, 1145,  936, 1146
 556, 1206, 1207,  985, 1249
 557, 1008,  746, 1005,  751
 558, 1250, 1249, 1251, 1206
 559, 1206, 1074, 1207, 1251
 560, 1205, 1073, 1206,  985
 561, 1206, 1250,  606, 1252
 562, 1247,  441,  414,  415
 563, 1022, 1253, 1070, 1164
 564, 1020, 1253, 1022, 1026
 565, 1020, 1254, 1074, 1246
 566, 1020, 1074, 1248, 1246
 567, 1022, 1157, 1023, 1255
 568, 1068, 1023, 1022, 1157
 569,  890,  893,  683,  894
 570,  947,  894,  114,  683
 571,  947, 1256,  945,  948
 572,  947,  895,  945, 1257
 573,  944,  947,  945,  948
 574, 1056, 1058, 1258, 1259
 575,  911,  967,  502,   35
 576, 1056, 1153, 1258,  871
 577, 1056, 1235, 1153,  871
 578,  851,  815,  819,  814
 579, 1056, 1153, 1235, 1048
 580, 1056, 1234, 1235, 1200
 581, 1056, 1234, 1200, 1204
 582,   46, 1260,  583,   45
 583, 1045, 1105,  886,  855
 584,  843,  855, 1084, 1087
 585,  892, 1261,  688,  693
 586, 1087,  852,  886, 1096
 587,  852, 1096,  884,  886
 588,  882,  846,  844, 1095
 589, 1095,  882, 1262,  844
 590,  135,  621, 1023,  136
 591,  844,  882, 1262,  849
 592,  846,  849,  844,  845
 593,  852,  851,  855,  885
 594,  872, 1215,  871,  951
 595,  952,  954,  949,  950
 596,  951,  873,  872,  572
 597, 1215,  951, 1161, 1153
 598,  872, 1215, 1263,  871
 599, 1215, 1263,  959, 1154
 600, 1215,  871,  951, 1153
 601, 1093, 1104,  145, 1101
 602, 1264,  457, 1192, 1104
 603, 1238, 1104, 1030, 1192
 604, 1081, 1040, 1265, 1094
 605, 1081, 1033, 1038, 1260
 606, 1046, 1094, 1081, 1093
 607, 1040, 1260, 1266, 1081
 608, 1007,  747, 1267,   82
 609, 1081, 1040, 1260, 1265
 610, 1081, 1038, 1032, 1077
 611, 1077, 1081, 1093, 1178
 612, 1046, 1093, 1081, 1178
 613, 1025,  608,  621,  620
 614, 1081, 1266, 1040, 1047
 615,  854,  822, 1084,  821
 616, 1045, 1105,  855,  825
 617, 1090,  826, 1085, 1045
 618,  826, 1084, 1090,  827
 619,  854,  855, 1084,  843
 620, 1084, 1087, 1090,  843
 621,  846,  882,  849,  852
 622,  846,  852,  843, 1095
 623,  902,  972,  983,  973
 624,  883,  889,  813,  808
 625,  972,  849,  976,  975
 626,  877,  587,  600,  599
 627,  883,  640,  884,  882
 628,  883,  882,  641,  640
 629,  849,  976,  975,  850
 630,  853,  851,  852,  885
 631,  883, 1064,  641,  882
 632, 1021, 1025, 1023, 1020
 633, 1020, 1268, 1253, 1254
 634, 1025, 1252, 1073,  607
 635, 1205, 1206, 1207,  985
 636, 1074, 1251, 1024, 1207
 637, 1074, 1269, 1207, 1075
 638, 1074, 1251, 1252, 1024
 639, 1020, 1270, 1075, 1069
 640, 1271, 1272,  372,  989
 641,  372,  989, 1228, 1271
 642, 1273,  371,  398,  397
 643, 1274, 1272,  370, 1171
 644,  372,  371,  398, 1273
 645, 1272,  989, 1170, 1171
 646, 1205, 1073,  159, 1246
 647, 1248, 1020, 1268, 1270
 648, 1246, 1254, 1073,  160
 649, 1254,  781, 1253,  782
 650, 1270, 1074, 1248, 1020
 651, 1268,  781, 1253, 1254
 652, 1074, 1269, 1270, 1248
 653, 1207, 1251, 1024, 1275
 654, 1207, 1249, 1066,  986
 655, 1275,  645, 1251, 1024
 656, 1207, 1269, 1275, 1075
 657, 1275, 1251,  645,  644
 658, 1207, 1066, 1275, 1269
 659, 1275,  644,  982, 1276
 660, 1251, 1249, 1275, 1207
 661, 1275, 1066, 1249, 1276
 662, 1275,  982, 1066, 1276
 663,  168,  883,  640,  884
 664,  976, 1039,  889,  809
 665,  889,  810,  850,  815
 666,  850,  976, 1039,  889
 667,  853,  818,  886,  169
 668,  889,  815,  850,  851
 669, 1210,  478, 1180,  479
 670, 1277, 1278, 1279, 1280
 671,  889,  851,  885,  814
 672, 1096, 1095,  626,  613
 673, 1096,  638,  886, 1088
 674,  627, 1096,  639,  882
 675,  884,  882,  640,  639
 676, 1096,  882,  852,  884
 677, 1096,  627, 1095,  882
 678, 1179, 1076, 1188, 1182
 679, 1096,  886,  638,  639
 680, 1134, 1135,  123,  122
 681, 1136, 1135,  724, 1116
 682, 1133, 1135,  724, 1136
 683, 1135, 1172,  123,  728
 684, 1113, 1172, 1112,  728
 685, 1172, 1112,  728, 1135
 686, 1135, 1116,  729,  724
 687, 1050, 1094, 1040, 1046
 688, 1040, 1281, 1282, 1260
 689, 1216,  581,  182,  580
 690, 1260, 1040, 1266, 1282
 691, 1283, 1284,  334,  335
 692, 1202, 1281, 1282, 1040
 693,  903,  971,  603,  907
 694,  903,  882,  971,  981
 695,  971,  981,  628,  629
 696,  971,  981,  629,  907
 697,  971,  603,  907,  616
 698,  903, 1262,  844,  602
 699,  603,  899,  590,  904
 700, 1285,  618,  617,  605
 701,  924,  193,  923,  219
 702, 1096,  612,  613,  625
 703,  907,  906,  903,  981
 704,  906,  974,  975,  972
 705,  807,  902,  156,  983
 706,  972,  982, 1064,  981
 707,  906, 1276, 1249,  982
 708,  900, 1249,  906,  901
 709,  906,  901,  899,  900
 710, 1249,  982, 1065,  906
 711, 1066, 1249,  982, 1065
 712,  984, 1249, 1065,  900
 713, 1249, 1065,  900,  906
 714, 1065,  906,  974,  975
 715, 1030, 1038, 1077, 1029
 716, 1104, 1038, 1030, 1037
 717, 1282, 1260,  609, 1266
 718, 1281, 1260,  596, 1282
 719,  322, 1286, 1007,   82
 720, 1282,  609, 1260,  596
 721, 1287,   34,  201,   33
 722, 1176,  407,  434,  433
 723, 1282, 1281,  610,  597
 724, 1219, 1220, 1288,  702
 725, 1219, 1220,  702,  697
 726, 1219, 1221, 1220,  697
 727, 1220, 1217,  891, 1219
 728, 1219,  700, 1289, 1290
 729, 1291, 1292,   90,   89
 730, 1291,  874,  863, 1292
 731, 1291,  863,  355,  356
 732, 1291,  862,  329,  355
 733, 1293, 1294,  382,  863
 734, 1291,  863, 1293, 1292
 735, 1288, 1291, 1293, 1292
 736, 1250,  619,  618,  606
 737,  863, 1294,  382,  356
 738,  935, 1119, 1295,  930
 739, 1121, 1119, 1120, 1091
 740,  923,  926,  245,  246
 741, 1114, 1135, 1136, 1116
 742,  927, 1119,  930,  929
 743, 1290,  117, 1296, 1297
 744,  927,  933, 1091,  929
 745,  447,  367,  104, 1143
 746, 1119,  108,  929, 1091
 747,  651,  936,  448, 1295
 748, 1298,  515,  514,  510
 749, 1295,  930,  649,  650
 750,  449, 1295,  649,  140
 751, 1176,  408,  381,  382
 752, 1119, 1295,  649, 1122
 753, 1295, 1122,  452,  449
 754,  935,  930, 1295,  936
 755, 1295, 1146,  452, 1122
 756,  920,  917, 1103, 1226
 757,  539, 1103, 1129, 1100
 758, 1177, 1299,  708,  703
 759,  814,  885,  889,  813
 760, 1100,  538,  919, 1300
 761,  920, 1103,  917,  919
 762,  920, 1098, 1102,  923
 763, 1100, 1301, 1127, 1300
 764, 1100, 1301, 1102, 1098
 765,  859,  866,  865,  868
 766,  864, 1175,  866,  859
 767, 1299,  869,  870,  868
 768,  869,  876, 1292,  874
 769, 1141, 1013,  738, 1002
 770,  903, 1262,  849,  844
 771, 1001, 1014, 1003, 1015
 772, 1115, 1113,  739, 1141
 773, 1178,  635,  173,    4
 774,  740, 1006,  741, 1115
 775, 1006, 1141, 1115,  739
 776,  997, 1302, 1284,  387
 777,  912, 1302, 1284,  997
 778, 1302,  945,  912, 1303
 779, 1302,  895, 1283, 1222
 780, 1302, 1256,  945, 1257
 781, 1204, 1055, 1304, 1199
 782, 1199, 1056, 1058, 1201
 783, 1061, 1058, 1305, 1227
 784, 1055, 1059, 1304,  918
 785, 1055, 1199,  918, 1304
 786, 1058, 1227,  918, 1203
 787, 1305, 1227,  557, 1061
 788, 1058, 1259, 1305, 1258
 789, 1061, 1058, 1227,  918
 790,  992,  995,  759, 1243
 791,  988,  753,  905,  754
 792, 1240,  508,  503,  504
 793,  992,  987,  991,  755
 794,  988,  990,  905,  998
 795,  992,  758,  754,  759
 796, 1306,  960, 1098, 1160
 797,  246, 1160,  220,  923
 798,  983,  902,  156,  900
 799, 1307,  384,  357,  358
 800, 1306,  923, 1098,  194
 801, 1306, 1160,  220,  221
 802,  989,  990, 1308,  987
 803,  990, 1007, 1005, 1008
 804,  990, 1308, 1007, 1286
 805, 1272,  345,  371,  344
 806,  988,  905,  990,  987
 807,  990,  987,  749, 1008
 808,  749,  990,  905,  987
 809, 1001,  990, 1000, 1006
 810, 1217, 1309, 1223, 1222
 811,  893, 1124,  895, 1123
 812,  893,  895,  947,  894
 813,  945, 1124, 1310,  895
 814, 1302,  895, 1222, 1257
 815, 1302, 1283,  895, 1303
 816, 1302,  895, 1257,  945
 817, 1141,  739, 1002,  738
 818,  845,  589,  588,  154
 819, 1013, 1113,  738,  733
 820, 1013,  733, 1172, 1113
 821, 1013,  427,  125, 1014
 822, 1013, 1172,  124, 1012
 823, 1311, 1307,  383, 1294
 824,  408, 1312,  435, 1311
 825,  984,  900,  797,  901
 826, 1311, 1307,  409,  383
 827, 1311, 1176,  408, 1312
 828,  876, 1313, 1292,  711
 829, 1313,  869,  868,  876
 830,  876,  716,  875,  868
 831,  876,  874,   88,   89
 832,  712,  876,   89, 1292
 833,  876,   89, 1292,  874
 834, 1020, 1025, 1024, 1074
 835, 1270,  784, 1248, 1269
 836, 1020, 1268, 1270, 1070
 837, 1270, 1269,  783,  784
 838, 1074, 1075, 1270, 1269
 839, 1270, 1268,  784,  779
 840, 1270, 1070, 1268,  779
 841, 1038, 1077, 1081, 1093
 842, 1104, 1030, 1192, 1264
 843, 1104, 1030, 1264, 1037
 844, 1038, 1029, 1028, 1032
 845, 1028, 1036, 1038, 1033
 846,  947, 1256,  948,  113
 847, 1256,  414, 1247,  440
 848, 1264, 1191, 1030, 1192
 849, 1302,  945, 1256,  997
 850, 1256, 1247,  945,  948
 851, 1256,  997, 1247,  414
 852,  997,  996,  888,  945
 853,  944,  947,  948,  678
 854,  947, 1257,  439,  438
 855,  944,  847,  945, 1124
 856, 1215,  951,  957, 1161
 857,  950,  959, 1215, 1235
 858,  950,  953, 1215, 1154
 859,  569,  951,  574,  570
 860,  570, 1161,  569,  951
 861,   74,  952,   75,  573
 862,  952,  951, 1107,  574
 863, 1179, 1076, 1187, 1188
 864, 1186, 1079,  286, 1237
 865, 1237, 1187, 1185, 1186
 866, 1186, 1187, 1181, 1193
 867,  880,  505,  504,  500
 868, 1192,  465,  461,  466
 869, 1186, 1079, 1193,  312
 870,  628,  616,  971,  629
 871, 1142,  402,  428, 1016
 872, 1016, 1012,  427,  428
 873, 1016, 1314,  375, 1017
 874, 1011, 1314, 1016, 1017
 875, 1016, 1142, 1012,  428
 876, 1014,  427, 1016, 1012
 877, 1162, 1170, 1148, 1171
 878, 1162,  369, 1163, 1157
 879, 1162, 1171, 1158, 1163
 880, 1162, 1166,  317, 1315
 881, 1150, 1162, 1171, 1158
 882, 1162, 1315, 1157, 1166
 883,  867,  495, 1027,  496
 884,  978,  492,  897, 1027
 885,  867,  494, 1027,  495
 886,  494, 1027,  490,  999
 887,  467, 1242,  471, 1197
 888,  999, 1027,  490, 1054
 889,  979,  962, 1027,  896
 890,   17,  934,  290,  264
 891,  934,   16,  264,   17
 892,  910,  908,  875,  721
 893,   16,   15,  184,  934
 894,  934,  958,  264,  265
 895,  934,  290,  958,  955
 896,  950,  954,  934,  955
 897,  934,  264,  958,  290
 898, 1001, 1019, 1015, 1003
 899,  641,  882,  981,  628
 900, 1007,  322, 1267, 1017
 901, 1007, 1001, 1011, 1009
 902, 1007, 1008, 1009,  746
 903,  747,  746, 1005, 1007
 904,  990, 1007, 1019, 1286
 905,  990,  744, 1000, 1006
 906, 1007, 1019, 1286, 1017
 907, 1001, 1007, 1006, 1009
 908, 1301, 1160,  960, 1316
 909, 1301, 1317, 1098, 1128
 910, 1301, 1126, 1127, 1300
 911, 1301, 1126, 1316, 1130
 912, 1214, 1318,  225, 1319
 913, 1214, 1320, 1319, 1278
 914, 1214, 1320, 1321, 1240
 915, 1214, 1321, 1322, 1323
 916, 1216,   13,  582,  183
 917, 1107, 1216, 1108,  580
 918, 1216,  182,   12,   13
 919, 1216, 1108,  580,  182
 920, 1216,  582,   12,  581
 921, 1109, 1240, 1239, 1298
 922,  879, 1109,  878,  967
 923, 1109, 1240, 1323,  858
 924, 1109, 1318, 1287, 1110
 925, 1109,  967, 1287,  878
 926, 1320, 1240,   61, 1321
 927, 1277, 1278, 1319, 1320
 928, 1320, 1324, 1325, 1298
 929, 1320,  508, 1240, 1298
 930, 1320, 1326, 1279, 1321
 931, 1320,   62, 1326, 1321
 932, 1326, 1325,  513, 1320
 933,  518, 1326, 1325,  513
 934, 1216,  183, 1108,  182
 935, 1216,  952, 1108,  954
 936, 1212,  184,   14,  186
 937, 1212,    2,  186,   14
 938, 1212,  954,  184,  212
 939, 1212,   19,  186,    2
 940,  187,   20, 1212, 1154
 941, 1212,  954,  212, 1154
 942, 1212,  187, 1154,  186
 943, 1324, 1298, 1327, 1239
 944, 1324, 1327,  517,  512
 945,  511, 1324,  512, 1239
 946, 1324, 1328,  517, 1327
 947, 1324,  512, 1239, 1327
 948, 1320, 1324, 1328, 1325
 949, 1324, 1298,  515, 1325
 950, 1318, 1213,  200, 1287
 951, 1214, 1318, 1213,  226
 952, 1109, 1287, 1318, 1327
 953, 1214, 1110, 1109, 1323
 954, 1318, 1110, 1213, 1287
 955,  952,  949, 1107,  951
 956,  949,  953, 1215,  950
 957,  958,  957,   74,  291
 958,  956,  265,  958,  959
 959,  956,  959,  266,  265
 960,  934,  959,  265,  239
 961,  934,  954,  212,  184
 962,  956,  957,  291,  292
 963, 1280,  198,  943, 1277
 964,  224,  943,  942, 1280
 965,  983,  807,  902,  973
 966, 1280,  942,  224,  250
 967, 1280, 1278, 1319, 1277
 968, 1279,  942,  941, 1280
 969,  922, 1279,  940,  941
 970, 1280, 1279,  250, 1278
 971,  366,  393, 1143, 1144
 972, 1133, 1329, 1134, 1136
 973, 1145, 1146,  101,  936
 974, 1145,  447,  341, 1146
 975,  340,  100, 1159, 1145
 976, 1146, 1143, 1145,  447
 977, 1027,  911,  496,  497
 978, 1027,  492,  896,  911
 979,  867, 1027,  999,  962
 980,  867, 1027,  911,  496
 981, 1311, 1297, 1307, 1330
 982, 1311,  382, 1176, 1293
 983, 1293, 1311, 1294, 1330
 984, 1311, 1307, 1331,  409
 985, 1307, 1297, 1331, 1330
 986, 1307, 1331,  409,  410
 987, 1311,  382, 1293, 1294
 988, 1297,  409,  435, 1311
 989, 1053,  483, 1054, 1332
 990,  484,  483, 1054, 1053
 991, 1210, 1332, 1053, 1230
 992,  983,  802,  156,  807
 993, 1210, 1180, 1230, 1052
 994, 1182, 1210, 1052, 1180
 995, 1210,  479, 1180, 1182
 996,  227, 1287,  201,  200
 997, 1224,  980, 1052, 1053
 998, 1250,  632,  631,  619
 999, 1053,  481,  485,  480
1000, 1224,  980,   39, 1184
1001, 1182, 1225, 1184, 1224
1002,  481, 1224, 1225, 1182
1003,  486,  481,  485, 1053
1004, 1266,  622,  609,  610
1005, 1224,  978,  980, 1053
1006, 1224,  978,  486,  487
1007, 1249,  984,  986,  985
1008, 1249, 1251, 1276, 1250
1009, 1249, 1285, 1250, 1276
1010, 1272, 1171, 1274, 1273
1011, 1249,  982, 1276, 1066
1012, 1279, 1321,  303,  277
1013, 1100, 1300,  533,  538
1014, 1300, 1102,  299,  298
1015, 1126, 1300,  299,   66
1016, 1300,  921, 1102,  298
1017, 1300, 1127,  533,   66
1018, 1058, 1258, 1305, 1201
1019,  190, 1258, 1200, 1201
1020, 1200,  871, 1056, 1258
1021, 1259, 1057, 1333, 1056
1022, 1258, 1201,  190,   23
1023, 1258, 1200,  871,  189
1024,  873, 1333, 1258,  567
1025,  873, 1153,  871, 1258
1026, 1179, 1181, 1180,  938
1027, 1179, 1180, 1052,  938
1028, 1210, 1053, 1052, 1230
1029, 1180,  474, 1182,  479
1030, 1180, 1182,  474, 1181
1031, 1180,  478, 1230,   55
1032,  893, 1123,  684,  685
1033, 1124, 1123,  685,  881
1034,  971,  616,  615,  603
1035,  675,  674, 1124,  847
1036,  895, 1124, 1310,  881
1037,  893,  947,  683,  894
1038,  863,  859,  860,  869
1039,  866,  908,  865,  868
1040,  910,  914,  875,  866
1041,  909, 1136,  866,  908
1042,  862,  861,  859, 1175
1043,  864, 1329,  866, 1175
1044,  922,  301,  300,  274
1045, 1132,  922,   64,  300
1046, 1280,  943,  941, 1277
1047, 1075,  162,  163,  646
1048, 1320, 1326, 1325,  941
1049, 1326,  518, 1132,   63
1050, 1140,  931, 1211, 1334
1051, 1189,  933, 1211,  931
1052, 1209, 1189,  931, 1335
1053,  927, 1091,  935, 1119
1054,  932,  933,  931, 1138
1055,  928,  937,  931, 1335
1056,  927,  933,  928,  931
1057,   31, 1277,   30,  198
1058, 1214, 1109, 1298, 1240
1059, 1223,   93,   94,  334
1060, 1214,  226, 1213,  252
1061, 1318, 1327,   33,   32
1062, 1318, 1287,   33, 1327
1063, 1214, 1109, 1327, 1298
1064, 1214, 1318, 1319, 1327
1065, 1328, 1320,  941, 1277
1066, 1277, 1336,  522,  527
1067,  961,  979,  965,  966
1068, 1179, 1052, 1231,  938
1069, 1053, 1230, 1332, 1232
1070, 1179, 1184, 1052, 1182
1071, 1231, 1052, 1230,  938
1072, 1232, 1052, 1231, 1051
1073,  980, 1183, 1052, 1051
1074, 1224, 1053, 1052, 1182
1075,  935, 1144, 1120, 1091
1076,  928, 1189,  665, 1335
1077, 1143, 1120,  935, 1144
1078, 1146,  341,  101,  102
1079, 1143, 1146, 1120,  447
1080, 1146,  446,  102,  101
1081, 1146, 1120,  447,  452
1082,  573,  957,   74,  952
1083,  934,  959,  239, 1154
1084,  950, 1215,  959, 1154
1085,  955,  185,  954,  180
1086,  955,  181, 1108,  185
1087,  958,   75,  955,  290
1088, 1086,  837, 1094,  841
1089, 1044, 1086, 1042, 1050
1090, 1092, 1040, 1202, 1088
1091, 1085,  149, 1092, 1089
1092, 1044,  831, 1086,  836
1093,  837, 1089, 1085, 1086
1094,  445, 1120,  419, 1091
1095, 1121, 1120, 1122,  450
1096,  448,  652,  446, 1146
1097,  935, 1146, 1295, 1122
1098, 1144, 1120,  419,  393
1099, 1144,  366, 1145, 1143
1100, 1120,  452, 1122,  450
1101, 1337, 1004, 1308,   80
1102, 1221,  895,  881, 1123
1103, 1123, 1221,  685,  881
1104,  891, 1123,  690,  689
1105,  881, 1124,  680,  685
1106,  895,  891, 1221, 1223
1107, 1164, 1071, 1022, 1150
1108, 1150, 1171, 1245, 1158
1109,  371, 1274, 1272,  370
1110, 1274, 1171, 1169, 1273
1111, 1241, 1049, 1056, 1057
1112, 1273, 1169,  993, 1171
1113,  993,  991,  992,  988
1114, 1128,  536,  532,  537
1115, 1274, 1171, 1245, 1169
1116, 1162, 1163,  369,  370
1117,  319, 1170,  345, 1271
1118, 1178,    4,  838,  143
1119, 1271, 1286,  321, 1308
1120,  989, 1272,  372, 1273
1121, 1170,  345, 1271, 1272
1122, 1271, 1286, 1228,  347
1123, 1271,  998, 1286, 1308
1124, 1271,  998,  989, 1228
1125, 1003,  425,  126,  127
1126, 1252,  620,  633,  632
1127, 1059,  916,  918, 1055
1128,  925, 1203, 1199,  918
1129,  973,  155,  812,  807
1130,  918,  925, 1304, 1199
1131,  915,  918, 1338,  916
1132, 1059,  918, 1338, 1304
1133,  982,  643, 1276,  644
1134,  906,  982,  981, 1276
1135,  972,  849,  883,  976
1136, 1275,  164,  982,  644
1137,  164,  165,  793, 1066
1138,  982,  981,  643, 1064
1139,  950,  956,  959, 1235
1140,  934,  955,  180,  290
1141,  953,  582, 1216,  949
1142,  952,  957,   74,  958
1143,  924,  923,  925,  219
1144,  954,  949, 1216,  952
1145,  955,  954,  185, 1108
1146, 1227, 1062, 1061,  918
1147, 1259, 1061,  555, 1057
1148, 1227, 1062, 1226,  552
1149,  889,  851,  814,  815
1150,  850,  816,  851,  815
1151,  983,  975, 1039,  973
1152,  873, 1333,  571,  951
1153,  856,  962,  963,  857
1154,  857,  962,  963,  879
1155,  962,  856,  965,  999
1156,  963,  857,  969,  856
1157,  963,  970,  911,  961
1158,  969,  964,  307,  281
1159,  969,  964,  965,  307
1160,  886, 1041,  638,  170
1161,  878,  505,  500,  501
1162,  626, 1096,  627, 1095
1163, 1250,  618,  619,  631
1164,  579, 1106,   10,  580
1165, 1096,  884,  886,  639
1166,  882, 1096,  639,  884
1167, 1330, 1297, 1296, 1293
1168, 1217, 1309, 1330, 1220
1169,  994,  129,  423,  128
1170, 1331, 1309, 1330, 1261
1171, 1219, 1220, 1330, 1288
1172, 1339, 1330, 1309, 1220
1173,  896,   37,  205,  204
1174,  927,  928,  930,  937
1175,  928,  659,  929,  654
1176,  933,  108,  443, 1091
1177,  927, 1119,  935,  930
1178,  928,  930,  655,  654
1179,  927, 1119,  929, 1091
1180,  659,  933,  658, 1189
1181, 1218,  895, 1257, 1222
1182,   92, 1223,  697, 1220
1183, 1223, 1217,  891, 1220
1184, 1024,  163,  645,  646
1185, 1223, 1220, 1221,  697
1186, 1223,  333, 1283,  359
1187, 1223, 1283,  333,  334
1188, 1223, 1283,  334,   94
1189,  895, 1222, 1223, 1283
1190, 1098, 1229,   28,   27
1191,  968,  229,  255,  228
1192, 1223,  359, 1222, 1309
1193,  881, 1223,   94, 1283
1194, 1326,  303, 1321,   62
1195,  482, 1184, 1225, 1224
1196, 1258, 1333,  873, 1153
1197, 1224, 1052, 1184, 1182
1198, 1179, 1185, 1184, 1187
1199,  907,  616,  603,  604
1200,  206, 1184,  980, 1183
1201, 1200,  241, 1235,  215
1202, 1185, 1233, 1179, 1183
1203,  632, 1024, 1252, 1251
1204,  959,  266,  239,  240
1205, 1296,  704, 1289, 1313
1206, 1296, 1289,  699, 1290
1207, 1023,  368, 1157,  394
1208, 1023,  342, 1255, 1157
1209, 1255,  137,  136, 1023
1210, 1023,  977,  634,  134
1211, 1068,  394, 1023, 1157
1212, 1025,  621, 1023,  634
1213, 1025, 1023, 1020,  977
1214, 1066,  164,  163,  788
1215,  903,  972,  906,  902
1216,  854,  850,  845,  817
1217,  976,  883,  808,  889
1218,  804,  809,  805, 1039
1219,  975, 1065,  800,  799
1220, 1033,   48,  289,  263
1221,  983, 1065,  801,  800
1222, 1064,  974,  803,  982
1223,  803,  883,  808,  976
1224,  849,  889,  976,  850
1225,  984, 1065,  795,  800
1226,  984,  801, 1065,  800
1227,  983,  984,  797,  801
1228,  797,  983,  802,  900
1229,  984,  985,  901,  797
1230,  985,  791, 1205,  792
1231,  984,  985,  797,  792
1232,  942,  276,  250, 1279
1233, 1214, 1318, 1110, 1213
1234, 1214, 1240, 1321, 1323
1235, 1321, 1323,   61,  304
1236, 1214, 1322, 1321, 1278
1237,  620,  633,  621, 1025
1238, 1320, 1324, 1327, 1328
1239, 1071, 1244,  768, 1072
1240, 1150, 1022, 1164, 1255
1241, 1168, 1244,  764, 1149
1242, 1071,  769, 1244, 1167
1243, 1020, 1070, 1270, 1069
1244, 1069, 1020, 1022,  977
1245, 1025, 1073, 1021,  608
1246, 1067,  178, 1069,    8
1247,  133, 1069, 1068,  977
1248, 1270, 1069, 1070,  778
1249, 1069,  178, 1070,  778
1250,  977, 1069, 1075,  647
1251, 1069,  977,  133,  647
1252, 1125,  523, 1131,  524
1253, 1103,  545,  541,  546
1254,  540, 1099,  536, 1129
1255, 1129,  530,  529, 1128
1256, 1100, 1127, 1301, 1129
1257, 1301, 1129, 1128, 1099
1258, 1100, 1129, 1301, 1099
1259, 1125, 1126, 1127, 1129
1260, 1129,  531,  535,  530
1261, 1129, 1128, 1099,  536
1262, 1095,  601,  614,  613
1263, 1193, 1187, 1181, 1194
1264, 1197, 1236,   42, 1191
1265, 1175,  861,  859,  864
1266,  914,  866, 1175,  862
1267,  860,  862,  381,  380
1268,  914,  353,  862, 1175
1269, 1056, 1058, 1259, 1057
1270, 1057, 1333, 1056, 1153
1271, 1259,  555, 1061,  556
1272,  565, 1057, 1333,  560
1273, 1057, 1333,  560, 1259
1274, 1062,  556, 1061,  555
1275, 1199, 1058, 1203, 1201
1276, 1259, 1258,  562, 1305
1277, 1259, 1061, 1305,  557
1278, 1044,  829, 1045,  830
1279, 1044,  830, 1045,  831
1280, 1089, 1040, 1042, 1086
1281, 1092, 1040, 1042, 1089
1282, 1042, 1089, 1085, 1092
1283, 1251,  644,  631,  632
1284,  904,  589,  155,  590
1285,  993,  995, 1169,  994
1286, 1274, 1245,  422, 1169
1287, 1168,  763, 1245, 1169
1288, 1168,  768, 1245,  763
1289, 1245,  421, 1072, 1158
1290, 1302, 1256,  413,  997
1291, 1222,  360, 1283, 1284
1292, 1222,  385, 1218, 1309
1293,  877,  586,  598,  585
1294, 1222,  359, 1283,  360
1295, 1222, 1218,  412, 1257
1296, 1104,  143,  144,  453
1297,  898,  966,  896,  231
1298,  385, 1218,  412, 1222
1299,  909, 1114, 1136, 1116
1300,   81,   80,  321, 1308
1301,  568, 1048,  957, 1161
1302, 1048, 1161,  568,  563
1303,  956,  293,  292,  266
1304, 1224,   39,  980,   38
1305,  957, 1235, 1215, 1048
1306, 1234, 1048,  293, 1049
1307, 1241, 1048, 1049,  563
1308,  997,  415,  388,  389
1309, 1283,  335,   94, 1303
1310, 1217, 1222, 1218, 1309
1311,  334, 1283,  335,   94
1312, 1302, 1283, 1303, 1284
1313, 1217, 1290, 1330, 1261
1314,  985,  901,  797,  157
1315,  985,  158,  901,  157
1316, 1252,  632,  619,  620
1317,  792,  984,  985,  791
1318,  985,  158, 1206,  901
1319,  985, 1073,  158,  159
1320, 1206, 1252,  606,  607
1321, 1206, 1252,  607, 1073
1322,  977,  647,  134,  133
1323, 1207, 1205,  986, 1074
1324, 1248, 1205, 1246, 1074
1325, 1199, 1304, 1204,  243
1326, 1204,   70,  294,  295
1327, 1234, 1204,  241, 1200
1328, 1199, 1200, 1056, 1201
1329, 1199, 1204, 1200,  242
1330, 1234, 1204, 1049,  294
1331, 1209,  670, 1208,  665
1332, 1140,  946,  847,  996
1333, 1287,  200,   33,  201
1334, 1208,  669,  847,  946
1335,  670,  847,  848, 1208
1336,  668, 1208, 1189,  946
1337, 1282,  597,  610,  609
1338, 1208,  946,  668,  669
1339, 1209, 1189,  665, 1208
1340,  988,  992,  754,  987
1341, 1004,  991,  757,  762
1342,  987,  757,  991,  756
1343,  993, 1151,  991,  989
1344,  989,  987, 1004,  991
1345,  987,  756,  991,  755
1346,  633,  621, 1025,  634
1347, 1040, 1094, 1086, 1089
1348, 1081, 1038, 1094, 1265
1349, 1101,  148, 1094, 1265
1350, 1094, 1265,  148, 1089
1351, 1086, 1094,  837, 1089
1352, 1094,  149,  842,  837
1353,  992,  991, 1243,  760
1354, 1168,  764,  995, 1243
1355,  988, 1018,  905,  994
1356,  758,  988,  753,  994
1357,  758,  995,  992,  988
1358,  992, 1243,  759,  760
1359, 1255, 1026,    5,  137
1360, 1022,  137, 1021, 1026
1361, 1166, 1165, 1255, 1164
1362, 1022, 1255,  137, 1026
1363, 1255, 1157,  342, 1315
1364, 1255, 1157, 1315, 1166
1365, 1063,   71,   70,  553
1366, 1067, 1069,  178, 1070
1367, 1070, 1020, 1022, 1069
1368, 1020, 1268, 1070, 1253
1369,  910,  722,  726,  721
1370, 1340,   41,  208,   40
1371, 1270, 1070,  779,  778
1372, 1070,  779,  176, 1268
1373, 1070, 1268,  176, 1253
1374, 1308, 1337,  320, 1271
1375,  890,  894,  683,  688
1376,  890,  893,  684,  683
1377, 1217, 1330, 1309, 1261
1378,  890, 1123,  891,  689
1379,  894, 1217, 1261,  892
1380,  115, 1261,  688,  894
1381, 1261,  688,  894,  892
1382,  869, 1296, 1312, 1293
1383, 1296,  699, 1289,  704
1384, 1289, 1290,  700,  699
1385, 1289, 1313,  706, 1292
1386,  706, 1288,  702, 1289
1387,  869, 1292, 1289, 1293
1388, 1217, 1290, 1219, 1330
1389, 1219, 1289, 1330, 1290
1390,  971,  882, 1262,  628
1391, 1262,  844,  602,  601
1392, 1262,  601, 1095,  844
1393, 1262,  882,  627,  628
1394, 1262, 1095,  627,  882
1395,  571,  873,  572,  567
1396,  993, 1168,  995, 1243
1397,  988,  905,  987,  754
1398,  993, 1169, 1168, 1245
1399, 1285, 1250,  605,  901
1400,  899,  604, 1285,  907
1401, 1285,  630, 1276,  907
1402,  877,  599,  598,  586
1403, 1024, 1207, 1075, 1074
1404, 1276, 1251, 1249, 1275
1405,  647,  977, 1024, 1075
1406, 1025, 1074, 1252, 1024
1407, 1205, 1206, 1073, 1074
1408, 1025, 1021,  621,  608
1409, 1025,  633, 1024, 1252
1410, 1024, 1075,  646,  647
1411, 1250,  619, 1252,  632
1412, 1250,  606, 1252,  619
1413, 1285,  604,  901,  605
1414, 1285, 1250, 1276,  631
1415, 1206, 1073, 1074, 1252
1416, 1251, 1276,  631,  644
1417, 1207,  985, 1249,  986
1418, 1275,  163, 1269, 1066
1419, 1206,  901,  605, 1250
1420, 1249, 1250, 1285,  901
1421, 1142, 1173,  402,  403
1422, 1314, 1142, 1341, 1011
1423, 1142,  350, 1314, 1341
1424, 1142,  376, 1314,  350
1425, 1342, 1173, 1142,  403
1426, 1114, 1011, 1117, 1341
1427, 1342, 1155, 1142, 1173
1428, 1329, 1342, 1173, 1155
1429,  911,  867,  879,  962
1430,  867,  880,  499,  500
1431,  880,  503,  858,  498
1432,  880,  878, 1239,  505
1433,  878, 1239,  505,  506
1434,  878, 1239,  506,  507
1435,  867,  878,  501,  911
1436, 1117, 1341,  324,  325
1437, 1114, 1173, 1172, 1012
1438, 1111,  737, 1010,  736
1439, 1117, 1341,  325,   85
1440, 1011, 1117, 1314, 1010
1441, 1117, 1314, 1010,  324
1442, 1114, 1142, 1155, 1173
1443, 1131, 1130, 1128, 1343
1444, 1343, 1317, 1130, 1128
1445, 1116, 1136,  908,  724
1446, 1128, 1317,  532, 1343
1447,  536,  531,  535, 1129
1448, 1129,  534, 1127,  529
1449, 1131, 1343,  530,  525
1450,  920, 1103, 1100, 1099
1451, 1068,  134, 1023,  394
1452,    8,  133, 1069, 1068
1453, 1068, 1158,  394, 1157
1454, 1245,  131, 1072,  421
1455, 1072,  420, 1158,  421
1456,  977, 1069, 1068, 1022
1457, 1067,  178, 1071, 1070
1458,  879,  968, 1110,  967
1459,  867,  911,  501,  496
1460,   59,  306,  858,  856
1461, 1109, 1110, 1287,  967
1462,  879,  967,  878,  911
1463,  962,  867, 1027,  911
1464,  857,  999,  493,  856
1465,  856,  858,  857,  969
1466,  858,   59,  856,  498
1467,  857,  493,  999,  494
1468,  867,  857,  999,  494
1469,  815,  816,  851,  855
1470,  305,  858,  306,  969
1471,  969,  964,  281,  255
1472, 1213,  968,  967, 1110
1473,  968,  254, 1110,  253
1474,  969, 1110,  279,  305
1475,  879, 1109,  967, 1110
1476, 1173,  402,  403,  429
1477, 1049,   70,  294, 1204
1478, 1038, 1101, 1094, 1265
1479, 1316,  274, 1344,  248
1480, 1046, 1093, 1050, 1094
1481, 1266, 1260, 1033, 1081
1482, 1328,  516,  517,  521
1483, 1104, 1038, 1101, 1093
1484, 1101,    3, 1036, 1037
1485, 1104,  457, 1101, 1037
1486, 1075,  162,  161,  778
1487,  231,  980,  966, 1051
1488, 1179, 1231, 1052, 1233
1489, 1183, 1233, 1051,  258
1490,  963,  961,  962,  965
1491,  844,  845,  588,  587
1492, 1179, 1052, 1183, 1233
1493,  979, 1052, 1232, 1051
1494,  122, 1329,  430, 1134
1495,  908,  725, 1116,  724
1496, 1202, 1088,  624,  611
1497,  611, 1088, 1092, 1202
1498, 1342, 1156,  352, 1155
1499, 1088, 1041, 1042, 1040
1500,  637, 1047, 1041, 1088
1501, 1040, 1266, 1202, 1047
1502, 1202,  610, 1281, 1092
1503, 1331, 1261,  436,  437
1504, 1050,  835,  839,  834
1505, 1331, 1218,  385, 1309
1506, 1218,  438, 1257,  894
1507, 1218, 1257,  438,  412
1508, 1307,  358, 1339, 1309
1509,  892,  895,  894, 1217
1510, 1331, 1309,  385,  384
1511, 1134, 1172, 1135, 1136
1512, 1112,  729, 1113,  728
1513, 1112,  729, 1135, 1116
1514, 1134, 1329, 1173, 1136
1515, 1172, 1113,  733,  728
1516, 1013,  124, 1172,  733
1517, 1020, 1026, 1254, 1253
1518, 1108,  185,  181,  182
1519, 1020, 1074, 1075, 1270
1520, 1345,  197,  196,   29
1521, 1205, 1207,  986,  985
1522, 1268,  784,  780, 1248
1523, 1270, 1268, 1248,  784
1524, 1270, 1075,  778,  783
1525, 1268, 1248,  780,  781
1526, 1268,  175,  780,  176
1527, 1238, 1195, 1030, 1196
1528, 1131, 1132,  518,  523
1529,   52,   51, 1078, 1195
1530, 1035, 1082, 1031, 1030
1531, 1162,  343, 1315,  317
1532, 1080, 1078, 1079, 1190
1533, 1195, 1194,  464,  465
1534, 1192, 1194, 1195,  465
1535, 1194, 1191, 1242, 1192
1536, 1238,  459, 1195,  458
1537, 1004,  991,  762, 1151
1538,   63,  922, 1132, 1326
1539, 1168,  995,  763, 1169
1540,  905,  753,  994,  128
1541,  993,  989,  994, 1273
1542,  988,  905, 1018,  998
1543, 1273,  989, 1228,  372
1544,  993, 1170, 1151,  989
1545, 1075,  162,  646,  647
1546, 1170,   78,  319,  318
1547, 1272,  370, 1171,  344
1548, 1282, 1266,  609,  610
1549,  149, 1089,  584, 1092
1550, 1032,   49,  622,  635
1551, 1260, 1036,   45,   46
1552, 1260, 1036,   46,   47
1553, 1282, 1281, 1202,  610
1554, 1040, 1202, 1281, 1092
1555, 1087,  877, 1090,  843
1556, 1100,  539,  919,  538
1557, 1125,  529, 1127,  528
1558,  919, 1300,   67,  921
1559,  919,   67, 1300,  538
1560,  919,  921,   68, 1338
1561,  919,  921,   67,   68
1562, 1126, 1344,  300,  299
1563,  540,  539, 1103, 1129
1564, 1328,  521, 1336,  520
1565,  529, 1128, 1125, 1129
1566, 1336,  521,  526,  525
1567, 1336, 1343,  526,  527
1568, 1047,  636,  173,  635
1569, 1179, 1184, 1188, 1187
1570, 1180, 1052,  938, 1230
1571, 1182,  480,  479,  475
1572, 1188, 1182,  476, 1225
1573, 1076, 1188,  476,  471
1574,  853,  813,  885,  818
1575, 1202, 1047,  636,  637
1576,  877, 1092, 1087, 1090
1577, 1087, 1088,  886, 1041
1578,  612, 1088, 1087,  611
1579, 1088, 1041,  637,  638
1580, 1087,  852, 1096, 1095
1581,  937,  661,  660,  656
1582,  954,  180,  185,  184
1583,  979,  980, 1051,  966
1584,  964,  963,  255,  969
1585, 1260,   46,  596,   47
1586,  978,  897,  492,  487
1587,  979,  978, 1027, 1054
1588, 1212,  183,   14,  184
1589, 1331,  384,  385,  411
1590,  832,  151, 1090,  150
1591,  276,  940,  942,  249
1592, 1027,  490,  978,  491
1593, 1224,  897,  487,   38
1594, 1224,  487,  486,  482
1595, 1097, 1227,  552,   26
1596, 1053,  485, 1054,  484
1597,  979,  962,  965,  999
1598, 1277,  198,  943, 1345
1599, 1188,  476,  477, 1225
1600,  880,  504,  499,  500
1601, 1145,  341,  367,  340
1602,  979,  999, 1027,  962
1603, 1238,  458,  453,  454
1604, 1017,  322,  349,  348
1605, 1010,  737,   84,  742
1606, 1186,  285, 1233,  286
1607,  480,  479, 1053, 1182
1608, 1190, 1197, 1194, 1191
1609, 1192,  466, 1194,  465
1610,  966,  230,  257,  256
1611, 1194, 1181,  469,  470
1612, 1080, 1193,   53,  468
1613, 1190, 1082, 1198, 1236
1614, 1228,  424,  398,  425
1615, 1000,  748,  743,  744
1616, 1216,  954, 1108,  183
1617, 1107,  949, 1216,  581
1618,  182,  580,  181, 1108
1619, 1096,  639,  638,  626
1620, 1278,  224,  251,  250
1621, 1106,   75,  952,  578
1622,  905,  994, 1018,  128
1623, 1106,  580, 1107, 1108
1624, 1212,   19,   20,  187
1625,  940, 1279,  942,  941
1626, 1198, 1237,  235,  261
1627, 1160,  960,  222,  221
1628, 1215,  950,  951,  949
1629,  950,  952,  958,  957
1630,  189,  873,   21,  871
1631, 1258, 1201,   23, 1305
1632, 1212,  186, 1154,  212
1633,  934,  954, 1154,  212
1634,  997,  389,  388,  362
1635,  952,  955, 1108,  954
1636, 1338,  270,  271,  297
1637, 1140, 1247,  111,  946
1638, 1062, 1227, 1226,  918
1639, 1049, 1055, 1204, 1056
1640, 1338,  916,   69,   68
1641, 1059, 1304,  296,  295
1642, 1338,  926,  271,  925
1643,  958,  290,  264,  291
1644,  980,   38,   39,  206
1645,  915,  921,  919, 1338
1646, 1035,   43,  211,  210
1647,  956, 1048, 1234, 1235
1648,  915, 1338,  925,  926
1649,  915,  921, 1338,  926
1650,  969,  280,  254,  281
1651, 1338,  925,  270, 1304
1652, 1131, 1336,  520, 1325
1653, 1214, 1323, 1322,  252
1654,  918, 1338, 1304,  925
1655, 1025,  608,  620,  607
1656, 1073,  595,  594,  160
1657, 1059,  553, 1063,   70
1658, 1133,  724, 1135,  723
1659, 1170,  345,  318,  319
1660,  149, 1089, 1094,  148
1661, 1274,  370,  371,  397
1662, 1332,   57,  483,  488
1663,  917, 1062,  551, 1226
1664,  864, 1329,  430,  122
1665, 1062, 1060,  550,  555
1666, 1060, 1063,  554, 1057
1667, 1114, 1136, 1173, 1155
1668, 1188,  472,  477,  476
1669, 1017, 1001, 1011, 1007
1670, 1117,  324, 1010,   84
1671, 1192,  465, 1195,  460
1672, 1314,  323, 1010,  324
1673, 1011, 1114, 1012, 1142
1674,  994, 1169,  423,  129
1675, 1313, 1292,  711,  706
1676, 1314, 1017, 1010,  323
1677, 1016, 1017,  375, 1015
1678, 1011, 1114, 1141, 1113
1679,  860, 1176,  869, 1177
1680, 1296, 1313, 1299,  704
1681, 1313,  709, 1299,  704
1682, 1313,  709,  868, 1299
1683,  876,  868, 1313,  711
1684, 1289, 1292,  706, 1288
1685, 1109, 1327, 1298, 1239
1686, 1109,  858, 1323, 1110
1687,  963,  962,  856,  965
1688, 1162,  370,  369,  343
1689, 1240,  858,  503,   60
1690, 1240, 1323,  858,   60
1691, 1189,  933,  658, 1211
1692,  442, 1334,  441,  110
1693, 1335,  665,  660,  661
1694, 1334,  441,  110, 1211
1695,  883,  641,  167,  168
1696, 1277, 1328,  522, 1336
1697, 1211,  668,  111,  663
1698,  253, 1110,  252,  279
1699, 1140,  111, 1247,  441
1700, 1189,  946, 1211,  668
1701, 1107,  575,  576,  580
1702,  934,  180,  184,   16
1703, 1280, 1278,  250,  224
1704, 1140, 1211,  441, 1334
1705,  928,  930,  937,  655
1706,  290,  179,   18,   75
1707,  959, 1154,  213,  239
1708, 1295,  139,  651,  650
1709, 1295, 1122,  449,  649
1710, 1295,  936,  930,  651
1711, 1324, 1298,  510,  515
1712,  937,  930,  936,  656
1713,  935, 1119, 1122, 1295
1714, 1239,  511,  507,  512
1715,  937,  930,  656,  655
1716,  883, 1064,  803,  167
1717, 1302, 1284,  387,  386
1718,  845,  849,  903,  973
1719, 1302,  412,  386,  413
1720,  200, 1213,  227, 1287
1721,  903,  602,  904,  603
1722,  899,  907,  903,  603
1723,  904,  973,  155,  154
1724,  902,  904,  155,  590
1725, 1224,  481, 1053, 1182
1726,  904,  899,  590,  902
1727,  904,  845,  973,  154
1728,  107, 1091, 1119, 1121
1729, 1051,  257,  258,  284
1730, 1038, 1265, 1260, 1036
1731,  233, 1185,  260,  234
1732, 1121, 1091,  445,  107
1733,  927,  939,  937,  936
1734,  371, 1273, 1274,  397
1735, 1121, 1119, 1122, 1120
1736,  967,   34,   35,  202
1737,  142,  648,  449,  450
1738, 1209,  666,  671,  670
1739,  967,  228,  201,  202
1740, 1295,  448,  139,  140
1741,  648,  449,  450, 1122
1742, 1119,  929,  108,  653
1743,  935, 1120, 1146, 1122
1744,  880, 1109, 1239,  878
1745, 1295, 1146,  936,  448
1746,  652,  138,  446,    6
1747, 1295,  452, 1146,  448
1748, 1247,  389, 1137,  415
1749,  943,  941, 1130,  940
1750, 1208,  665,  670,  669
1751,  969, 1110,  305,  858
1752, 1224,   39,  482, 1184
1753,  897,  980, 1224,  978
1754, 1053,  978, 1054,  485
1755,  225, 1319,  224, 1278
1756, 1214, 1318,  226,  225
1757, 1182,  476,  481,  480
1758,  196, 1345,  960,  943
1759, 1185, 1186, 1233, 1237
1760,  697,  701, 1219,  696
1761, 1345,  960,  943, 1316
1762, 1280,  943,  198,  224
1763, 1319,  224, 1278, 1280
1764, 1008,  745,  750,  749
1765, 1028, 1034,  237,  263
1766,  933, 1334, 1138,  417
1767, 1138,  364, 1083,  365
1768,  931, 1137, 1138, 1334
1769, 1140, 1137,  931, 1334
1770, 1126,  299, 1300, 1344
1771,  938,   53,  311,  312
1772, 1080,  468,  463,  464
1773,  932, 1138, 1139,  365
1774,  871, 1263,  188, 1200
1775, 1209,  931, 1139, 1335
1776, 1209, 1139,  667, 1335
1777,  338,  365, 1139, 1083
1778,  672, 1209,  887,  667
1779,  848,  888,   96,   97
1780, 1209,  848,  671,  672
1781,  670,  671,  848,  847
1782, 1235,  214,  959, 1263
1783,  578,   75,    1,  179
1784,  848,  888,  887,  996
1785,  943,  223,  197,  224
1786,  848,  887,   97,  672
1787, 1088,  612,  625,  624
1788,  493,  498,  857,  856
1789, 1051, 1231,  284, 1233
1790, 1230, 1232, 1052, 1231
1791, 1277, 1319,  198,   31
1792,  181,  580,   11,   10
1793, 1305,   24,   23,  562
1794, 1186, 1079,  312,  286
1795,  980, 1183,  232,  206
1796, 1233, 1231,  284,  285
1797,   18,   75,  179,    1
1798,  290,  180,   18,  179
1799, 1179, 1186, 1187, 1181
1800, 1179, 1181, 1076, 1182
1801, 1183,  232,  259,  258
1802, 1200, 1201,  216,  190
1803,  944,  948,  945,  946
1804, 1106,    9,  181,  179
1805, 1302,  945,  997,  912
1806, 1284, 1283, 1303,  335
1807,  881,  895, 1303, 1310
1808, 1204,  295,  268,  269
1809, 1256,  997,  945, 1247
1810,  945,  912, 1303, 1310
1811, 1048,  292,   72,   73
1812, 1303,  912,  335,   95
1813,  881, 1303,   95, 1310
1814, 1132,   65,  523,  528
1815,  905, 1000,  127, 1003
1816,   11,  182,  580,  181
1817,  578,    9,  179,    1
1818, 1000, 1003, 1002,  126
1819, 1006, 1000, 1002,  744
1820,  998, 1003,  990,  905
1821, 1248,  789, 1269,  784
1822, 1066,  799,  798,  794
1823, 1246, 1248,  781,  786
1824, 1212,  184,  954,  183
1825, 1270, 1269, 1075,  783
1826,  986, 1074, 1269, 1207
1827, 1248, 1074, 1269,  986
1828,  952,  578,   75,  573
1829, 1083,  363, 1137,  996
1830,  957,  568,   74,   73
1831,  931, 1083,  887, 1139
1832, 1216,  183,  182,   13
1833, 1140,  415, 1247, 1137
1834,  212,   14,  184,  186
1835, 1137, 1334,  416, 1138
1836, 1154,  187,  213,  186
1837, 1202,  624,  637,  636
1838,  949,  582,  581,  577
1839,   44,   43, 1035, 1264
1840, 1030, 1264, 1037, 1035
1841,  933,  109,  658,  110
1842,  455,  460,  456,  457
1843,   19,  183,   13,    2
1844, 1104, 1264,  457, 1037
1845, 1264, 1035,   44, 1037
1846, 1082, 1264, 1191, 1030
1847, 1108,  183,  185,  182
1848, 1085,  150,  149,  837
1849, 1190, 1198, 1078, 1079
1850, 1080, 1193,   52,   53
1851,  457,  460,  456,  461
1852, 1191,  462,  461, 1192
1853,  143,  453, 1104, 1077
1854, 1279, 1277,  941, 1320
1855, 1190, 1192, 1191, 1194
1856, 1104, 1038, 1093, 1077
1857, 1238, 1030, 1195, 1192
1858, 1238,  453, 1104,  454
1859, 1104,  143, 1093,  144
1860,  955,  180,  179,  185
1861, 1154,  213,  212,  186
1862, 1238, 1192,  459,  454
1863, 1312,  435, 1297,  117
1864,  433, 1177,  434, 1176
1865, 1177,  434, 1176, 1312
1866, 1296, 1177,  118,  703
1867,   15,  238,  934,   16
1868, 1296,  118, 1312,  117
1869, 1263,  214,  187,  188
1870,  869, 1177, 1296, 1299
1871, 1154,  212,  213,  239
1872, 1311, 1293, 1312, 1297
1873, 1212,  212,  184,  186
1874, 1311, 1176, 1312, 1293
1875, 1204, 1304,  269,  243
1876,  958,   74,   75,  290
1877, 1056, 1234, 1204, 1049
1878, 1263, 1200,  871, 1235
1879, 1056, 1258, 1153, 1333
1880,   22, 1258,  873,  189
1881,  188, 1200,  189,  871
1882, 1199,  242, 1200,  216
1883, 1055, 1199, 1058,  918
1884,  886,  823,  170,  818
1885, 1234, 1200,  241, 1235
1886, 1216,  582,   13,   12
1887,  182,  581,   12,   11
1888, 1212,    2,   14,  183
1889,  872,  188, 1263,  187
1890,  953,  582,  949,  577
1891, 1004, 1271, 1308,  989
1892, 1286,  348, 1017, 1019
1893, 1286, 1017,  348,  322
1894, 1286, 1308,   81,  321
1895, 1271, 1308,  321,  320
1896, 1212,   19,    2,  183
1897, 1272,  371, 1273, 1274
1898, 1272, 1170,  344, 1171
1899, 1204,  269, 1304,  295
1900, 1214, 1319,  225, 1278
1901, 1299,  708,  703,  704
1902, 1272,  344, 1170,  345
1903, 1274, 1171,  370, 1163
1904, 1274,  395,  422, 1158
1905, 1158, 1163, 1274,  395
1906, 1338,  926,  297,  271
1907,  981, 1276,  630,  907
1908, 1056, 1234, 1049, 1048
1909,  957,   73,  291,  292
1910,  850,  975,  849,  973
1911,  905,  749,  754,  753
1912,  903,  904,  602,  844
1913,  853,  884,  852,  882
1914,  981,  641, 1064,  882
1915, 1024,  647,  646,  634
1916,  981, 1064,  641,  642
1917,  872,   20,  953,  577
1918, 1048,   73,  563,  568
1919,  981,  629,  907,  630
1920,  971,  616,  907,  629
1921, 1259, 1061,  557,  556
1922, 1096,  613,  626,  625
1923, 1298, 1325,  513,  514
1924, 1320, 1324, 1298, 1327
1925, 1320, 1298,  513,  508
1926,  292,  957, 1048,  956
1927, 1203,  191,  218,  217
1928, 1201, 1203,  217,  190
1929, 1240,  504, 1239,  509
1930, 1203,  190,  191,  217
1931, 1240,  504,  880, 1239
1932, 1235, 1200,  871, 1056
1933, 1320, 1321, 1279, 1278
1934, 1240, 1321, 1323,   61
1935, 1258,  190,  189,   22
1936,  979,  962,  896,  961
1937, 1203,   23,   24,  191
1938,  867,  962,  999,  857
1939,  954,  183,  184,  185
1940,  924, 1203,  192,  218
1941,  212,   15,  184,   14
1942,  965,  961,  962,  979
1943, 1088,  638,  637,  625
1944, 1200,  215,  242,  241
1945,  963,  911,  970,  967
1946, 1027,  978,  490, 1054
1947,  963,  965,  969,  964
1948, 1115,  740,  735,  736
1949,  880,  498,  857,  499
1950, 1009,  747,  746,  742
1951, 1083,  996, 1140,  887
1952, 1224,  980, 1184, 1052
1953,  950, 1235, 1215,  957
1954, 1140, 1334,  441,  415
1955,  550,  917,  546,  545
1956,  933, 1334,  417,  443
1957, 1231,  284,  285,  311
1958, 1235,  215,  241,  214
1959, 1334, 1138,  417,  416
1960,   38,  980, 1224,  897
1961, 1209, 1189, 1140,  931
1962, 1182,  480,  475,  476
1963, 1200,  215,  189,  216
1964, 1203,  218,  191,  192
1965,  482, 1184,   40,  477
1966,  978,  897,  487, 1224
1967, 1154,  239,  934,  212
1968,  927,  939,  932,  931
1969,  938,  310, 1230, 1231
1970, 1320,   61, 1240,  508
1971, 1224,  486,  481,  482
1972,  932,  417,  933, 1138
1973,  794,  799,  795, 1065
1974,  927,  936,  937,  930
1975, 1183,  233,  206,  207
1976,  936,  939,  657,  100
1977,  100,  936, 1145,  101
1978,  896,   37,  897,   38
1979, 1099, 1229,  542,  541
1980,  193,  920,  194, 1097
1981, 1008,  746,  751,  750
1982, 1210, 1230,  478,  483
1983,  930,  651,  936,  656
1984,  923,  193,  194,  220
1985, 1119, 1122,  649,  648
1986,  937,  936,  657,  656
1987, 1286,  998, 1228, 1019
1988, 1007, 1286,   81,   82
1989, 1053, 1232, 1052, 1230
1990, 1129,  540,  535,  536
1991,   39,  206, 1184,  980
1992,  979,  898,  897,  980
1993, 1053,  480,  484,  479
1994, 1271,  319,  320,  346
1995,   27,   28,  542, 1229
1996, 1224,  487,  482,   39
1997, 1142, 1341,  351,  350
1998, 1272, 1170,  989, 1271
1999, 1188, 1340,   40,   41
2000, 1017,  374, 1015, 1019
2001, 1007,   81, 1308,  752
2002, 1117,  732,   85,  737
2003, 1325,  514,  518,  513
2004, 1112,  735, 1115,  734
2005, 1116,  729,  724,  725
2006, 1017, 1010,  323, 1267
2007, 1073,  593,  158,  159
2008,  386, 1284, 1222, 1302
2009, 1338,  296,  297,   68
2010, 1102,  273,  299,  272
2011, 1307, 1339, 1330, 1309
2012,  944,  948,  673,  678
2013,  389, 1247,  996,  997
2014, 1317,  196,  960,  195
2015,  196,  195,  222,  960
2016, 1131, 1325, 1326,  941
2017,  997,  912,  362,  361
2018, 1109, 1239, 1287, 1327
2019, 1048,   73,   72,  563
2020, 1284,  997,  361,  912
2021,  945,  996,  847,  946
2022, 1073,  159,  594,  593
2023, 1317,  960, 1345, 1316
2024, 1134, 1133,  122, 1329
2025, 1119,  929,  654,  930
2026,  927,  931,  937,  939
2027,  939,  100,  936, 1145
2028, 1119,  930,  654,  649
2029, 1320, 1321,   61,   62
2030, 1120, 1091, 1144,  419
2031, 1091, 1144,  419,  418
2032, 1232, 1332,   57,   56
2033,  932, 1144, 1091,  417
2034,  940,  222,  249,  248
2035, 1091, 1144,  418,  417
2036,  932,  391, 1144,  417
2037,  935,  939, 1145, 1144
2038, 1051,  283,  257,  284
2039, 1316, 1344, 1160,  248
2040,  928,  937, 1335,  660
2041, 1320,  508,   62,   61
2042, 1030, 1190, 1031, 1029
2043, 1028,  263, 1031, 1034
2044, 1082, 1031, 1030, 1190
2045, 1028, 1035,  211,  237
2046,  878,  967,  507,  502
2047, 1278,  251, 1322,  277
2048,   43, 1035, 1264, 1082
2049, 1339,  332,  331,   91
2050,  858,   60,  498,  503
2051, 1034, 1082,  210,  236
2052, 1240,  509,  508,  504
2053, 1035,  210, 1082,   43
2054, 1223,  333,   92,   93
2055,  964,  965,  308, 1232
2056,  964,  961,  256,  255
2057,  963,  961,  964,  255
2058,  969,  306,  307,  856
2059,  969,  306,  279,  280
2060,  964,  965,  307,  308
2061,  959,  240,  213,  214
2062, 1215,  959, 1263, 1235
2063,  950,  959,  934, 1154
2064,  934,  180,  955,  954
2065,  950,  956, 1235,  957
2066, 1110,  279,  253,  280
2067,  968,  227,  967,  228
2068,  869, 1296, 1293, 1289
2069, 1235,  956,  266, 1234
2070,  239,  934,  212,  238
2071, 1100, 1300,  919,  921
2072,  999, 1054,  489,  488
2073, 1097,  193,  924,   26
2074, 1298,  509,  514,  513
2075, 1102, 1160,  247,  246
2076,  481, 1224, 1053,  486
2077,  920, 1098, 1097, 1099
2078,  923, 1102,  926,  246
2079, 1102, 1344,  299,  273
2080, 1278,  251,  224,  225
2081, 1102,  247, 1344,  273
2082,  867,  496,  500,  495
2083, 1277, 1328, 1319,   32
2084, 1027,  978,  492,  491
2085, 1228, 1003, 1019,  998
2086, 1271, 1228, 1286,  998
2087,  989, 1273, 1228,  998
2088, 1280, 1277,  941, 1279
2089, 1321,  278,  304,  277
2090,  225, 1214, 1322,  252
2091, 1189,  669,  668,  664
2092, 1228, 1019,  399,  373
2093, 1140,  996, 1247,  946
2094, 1189, 1211,  663,  668
2095,  964,  282,  281,  255
2096,   64,   65, 1132,  300
2097,  970,  203,  202,   35
2098, 1228, 1019,  373,  347
2099, 1280, 1319,  224,  198
2100, 1001, 1013, 1011, 1141
2101, 1014,  126, 1003,  426
2102,  990, 1003,  998, 1019
2103, 1015,  425, 1003, 1019
2104,  970,   36,  203,   35
2105, 1014,  125, 1002,  126
2106,  922,  301,  274,  275
2107, 1277,   30,  527,   31
2108,  943,  942,  940,  223
2109, 1015, 1019,  400,  399
2110, 1283,  334, 1284,  360
2111, 1017,  375, 1015,  374
2112, 1015, 1019,  374,  400
2113, 1003,  990, 1000, 1001
2114,  197,   30, 1345,  198
2115, 1010, 1115,  741, 1009
2116,  844,  600,  588,  601
2117, 1014,  400, 1015,  401
2118,  963,  911,  879,  962
2119,  217, 1201,  216, 1199
2120, 1203, 1201,   23,  190
2121, 1203, 1305,   24,   23
2122,  250,  942, 1279, 1280
2123, 1055, 1063, 1060, 1057
2124, 1227,  556,  552,  557
2125,  942,  223,  224,  250
2126, 1224, 1053,  486,  978
2127,  924, 1203,  218,  925
2128, 1055, 1058, 1057, 1061
2129, 1259, 1057,  555,  560
2130, 1203, 1199,  217,  925
2131, 1315,  316,  317,  343
2132,  868,  709,  865, 1299
2133, 1296, 1290,  699,  698
2134,  869, 1313,  868, 1299
2135,  868,  714,  908,  865
2136,  207, 1185,  234,  208
2137, 1157, 1315,  343,  342
2138,  875,  866,  868,  908
2139,  859,  868,  865,  870
2140,  876,  717,  875,  716
2141,  859,  875,  876,  874
2142, 1020, 1074, 1254, 1021
2143, 1164, 1167,  776, 1253
2144,   76, 1166, 1315,  317
2145, 1020, 1022,  977, 1023
2146, 1246, 1073,  159,  160
2147, 1246, 1205,  787,  159
2148, 1254,  595, 1021, 1073
2149, 1254,  595, 1073,  160
2150, 1255,  316, 1315,  342
2151,  342,  343,  316, 1315
2152, 1246, 1254,  160,  782
2153,  947,  113,  948,  678
2154,  946, 1208, 1189, 1140
2155, 1217,  895,  891,  892
2156,  946,  112,  111,  668
2157,  669,  847,  946,  674
2158, 1218,  411,  412,  438
2159,  899,  902,  906,  900
2160, 1328,  517,   32,  522
2161,   31,  522, 1277,   32
2162, 1280, 1277, 1319,  198
2163,  966,  283, 1051, 1232
2164,  901, 1249,  906, 1285
2165,  522, 1277,   32, 1328
2166,  899,  901, 1285,  604
2167,  900,  901,  591,  157
2168, 1328, 1319,   32, 1327
2169,  906,  907, 1285, 1276
2170, 1043, 1042, 1040, 1050
2171,  906, 1276,  981,  907
2172,  899, 1285,  906,  907
2173,  457, 1192, 1104,  455
2174,  536, 1099, 1229, 1128
2175, 1131,  520, 1336,  525
2176, 1301, 1316, 1344, 1160
2177, 1301, 1128, 1130, 1317
2178, 1301, 1128, 1129, 1126
2179, 1317, 1128,  537, 1229
2180, 1080,   53,   52,  463
2181, 1098, 1229, 1317,   28
2182, 1242,  471,  466,  467
2183, 1262,  614, 1095,  601
2184,  877, 1087,  612,  613
2185, 1096,  612, 1088, 1087
2186,  846, 1095,  843,  844
2187, 1040, 1042, 1088, 1092
2188, 1034,  236,  237,  263
2189, 1085, 1092,  150, 1090
2190, 1262,  627, 1095,  614
2191,  886,  170,  638,  639
2192, 1095,  600,  877,  843
2193,  889,  815,  814,  810
2194,  940,  249,  276,  275
2195, 1093, 1178,  838,  143
2196, 1101, 1094,  148,  842
2197,  211, 1037, 1036,   44
2198,  942,  940,  223,  249
2199, 1252,  620,  619,  607
2200,  907,  629,  616,  617
2201, 1104, 1077, 1030, 1038
2202, 1101, 1093, 1094,  841
2203, 1089,  148,  149,  583
2204, 1104, 1192,  454,  455
2205, 1038, 1101, 1265, 1036
2206, 1312,  117,  118,  434
2207,  842,  841,  146, 1101
2208,  941,  942,  943, 1280
2209,  180,   17,  934,  290
2210,  901,  592,  591,  157
2211,  249,  276,  250,  942
2212,  934,  954,  184,  180
2213, 1028, 1038, 1030, 1029
2214, 1056, 1234, 1048, 1235
2215, 1093,  143, 1077, 1178
2216, 1104, 1093,  145,  144
2217, 1038, 1101, 1093, 1094
2218, 1126,  922,  300,  274
2219,  985, 1073,  159, 1205
2220,  940,  275,  274,  248
2221, 1249, 1251, 1206, 1207
2222, 1206, 1074, 1251, 1252
2223, 1207, 1269,  986, 1066
2224, 1205, 1248, 1246,  786
2225,  162, 1075,  163,  783
2226, 1075,  163,  783, 1269
2227,  215, 1200,  189,  188
2228, 1275, 1075, 1269,  163
2229,  212,  238,  934,   15
2230, 1216,  582, 1212,  183
2231, 1248,  986, 1269,  789
2232, 1249,  900,  984,  901
2233, 1204,  241, 1200,  242
2234, 1200,  216,  242,  215
2235, 1216,  183, 1212,  954
2236, 1190, 1198, 1237, 1236
2237,  383,  382, 1294,  356
2238, 1190, 1197, 1236, 1187
2239, 1236, 1237,  234,  235
2240,   65, 1132,  300, 1126
2241, 1345,   29,  532,   30
2242, 1316, 1317, 1130, 1345
2243, 1301, 1316, 1126, 1344
2244,   64,   63,  922, 1132
2245, 1340,  208, 1236, 1185
2246,  922,  301,   63,   64
2247, 1236,  208,  234, 1185
2248,  940,  275,  248,  249
2249,  940,  249,  222,  223
2250, 1034,  236, 1031, 1082
2251, 1235,  240,  241,  267
2252, 1160,  248,  247,  221
2253, 1317,  537,  532,   29
2254,  209, 1082,  210,   42
2255, 1300,  921,  298,   67
2256,  923, 1098,  194,  920
2257, 1326,  941,  922, 1132
2258, 1336,  525,  520,  521
2259,  868,  711,  716,  715
2260, 1049,  293,  294,   71
2261, 1059, 1338,  916,   69
2262, 1325, 1328, 1320,  941
2263, 1079, 1198, 1237, 1190
2264,  867,  879,  962,  857
2265,  896,   37,  911,  492
2266,  896,  961,  962,  911
2267, 1324,  517, 1328,  516
2268, 1320,  513, 1326,   62
2269, 1000, 1003,  126,  127
2270, 1304,  243,  270,  269
2271,  941, 1343, 1131, 1336
2272, 1214, 1109, 1318, 1327
2273,  941, 1130, 1343, 1345
2274, 1002, 1001, 1014, 1003
2275, 1189,  669, 1208,  668
2276,  884,  640,  169,  639
2277,  887,  672,   98,   97
2278, 1014, 1002, 1003,  126
2279, 1003,  990,  905, 1000
2280,  887,  672,  667,   98
2281, 1298, 1239,  510,  509
2282,  967,   34,  202,  201
2283, 1277, 1319,   31,   32
2284,  608, 1073, 1021,  595
2285, 1228, 1003,  998, 1018
2286, 1140,  946, 1211, 1189
2287,  928,  655,  937,  660
2288, 1319,   32,  199,   31
2289, 1209,  666, 1335,  667
2290, 1321,  277, 1322,  278
2291, 1060, 1057,  554,  555
2292,  968,  253,  227,  254
2293,  925,  218,  219,  245
2294, 1110,  253,  254,  280
2295, 1063, 1049,   71,  558
2296,  223,  222,  940,  943
2297,  969,  254, 1110,  968
2298,  968,  254,  227,  228
2299, 1241, 1063, 1049, 1057
2300, 1241, 1049,  558,  563
2301,  926,  297,  271,  298
2302,   70, 1049,   71, 1063
2303,  987, 1008, 1005,  751
2304,  387,  997,  361, 1284
2305, 1284,  334,  361,  360
2306,  725,  908,  909,  721
2307, 1326, 1279, 1321,  303
2308,  335,  334,  361, 1284
2309,  270, 1338, 1304,  296
2310, 1300,   66,  533,   67
2311, 1055, 1049, 1059, 1063
2312, 1100, 1102, 1301, 1300
2313, 1049, 1057, 1055, 1056
2314,  639,  882,  640,  627
2315, 1222,  386,  385,  359
2316, 1284,  387,  360,  361
2317,  204, 1174,   37,   36
2318, 1278,  277,  250,  251
2319, 1055, 1204, 1056, 1199
2320,  943, 1316,  940, 1130
2321, 1247,  112,  946,  948
2322, 1124, 1310,  680,  675
2323,  895,  881, 1123, 1124
2324, 1342, 1341,  351, 1142
2325,  909, 1155, 1114,  913
2326, 1328,  522,  521,  517
2327,  944, 1124,  679,  674
2328, 1214,  225,  226,  252
2329, 1310,   96,  848,  888
2330,  943,  223,  196,  197
2331, 1135,  723,  728,  123
2332,  983,  975,  906, 1065
2333,  848, 1208, 1209,  670
2334, 1342,  404,  377,  378
2335, 1188, 1340, 1184,   40
2336, 1184,   39,   40,  207
2337, 1140, 1247,  415,  441
2338,  945, 1124,  847, 1310
2339, 1340,  208,  207,   40
2340, 1209,  671,  848,  670
2341,  987, 1004, 1005, 1308
2342, 1184, 1225,  477,  482
2343,  847,  669, 1208,  670
2344, 1111,  735,  730,  731
2345,  734, 1115, 1113,  739
2346, 1342,  403, 1142,  377
2347,  980,   38,  206,  205
2348, 1079,   52,   53,  312
2349,  980,  231,  205,  232
2350,  379, 1156, 1175,  353
2351,  741,  736,  740, 1115
2352, 1115,  735,  740,  739
2353, 1183,  232,  206,  233
2354, 1042, 1087, 1088, 1092
2355, 1035,   43,   44,  211
2356,  859,  860,  869,  861
2357,  860, 1177,  869,  861
2358,  869, 1176,  863, 1293
2359,  900,  157,  802,  797
2360, 1176,  381,  863,  382
2361,  739, 1006,  740, 1115
2362, 1046, 1081, 1094, 1040
2363, 1047, 1032, 1266,  635
2364, 1113,  734,  733,  729
2365, 1341, 1011, 1117, 1314
2366, 1047, 1202, 1088,  637
2367, 1114,  913, 1341, 1118
2368, 1135,  122,  723,  123
2369, 1043, 1047,  828,  833
2370,  921,  297, 1338,  926
2371, 1111,  732,  736,  731
2372, 1007, 1286, 1308,   81
2373,  915,  919,  916, 1338
2374,  921,  926, 1102,  298
2375, 1112,  729,  730,  734
2376,  915,  923,  920,  926
2377, 1198,  262,  261,  235
2378,  192, 1227,   24, 1203
2379,  917,  924, 1226,  920
2380,   42, 1236,  209, 1082
2381,  542,   28,  537, 1229
2382, 1100, 1099, 1103, 1129
2383, 1317,  537,   28, 1229
2384,  541, 1229,  537,  536
2385, 1342,  404, 1173,  403
2386,  924,  918,  917, 1226
2387,  542, 1229,  537,  541
2388,  917,  550, 1062, 1060
2389, 1022, 1071, 1164, 1070
2390, 1071, 1022, 1150, 1072
2391, 1255, 1026, 1165,    5
2392,  583,  148,   45, 1265
2393, 1150, 1072, 1022, 1157
2394, 1156, 1329,  866, 1155
2395,  919,  539,  544,  543
2396, 1150, 1164, 1071, 1167
2397, 1241, 1056, 1153, 1057
2398, 1217,  892,  891, 1290
2399, 1259, 1305,  562,  557
2400,  215, 1263, 1235, 1200
2401, 1331, 1218,  437,  411
2402,  955,  290,  179,  180
2403,  959,  239,  266,  265
2404,  934,  958,  265,  959
2405,  895,  881, 1283, 1223
2406, 1309,  385,  384,  358
2407,  359, 1309,  332,  358
2408,  872,   20,   21,  188
2409, 1220, 1339,  332, 1309
2410,  924,  219,  925,  218
2411,  890,  892,  895,  894
2412,  934,  264,   16,  238
2413, 1262,  628,  627,  615
2414, 1063, 1049, 1057, 1055
2415, 1330, 1261, 1290, 1297
2416,  934,  238,  265,  264
2417, 1339, 1330, 1220, 1288
2418,  904,  844,  845,  589
2419,  926,  272,  245,  246
2420,  333,  359, 1223,  332
2421, 1100, 1103,  919,  539
2422, 1100, 1129,  534, 1127
2423, 1301, 1316, 1317, 1130
2424,  920,  915,  917,  924
2425,   58,  856,  307,  306
2426, 1100,  534, 1129,  539
2427, 1329, 1342, 1156,  378
2428,   59,   58,  306,  856
2429, 1128, 1317,  537,  532
2430,  968,  255,  254,  228
2431,  498,   59,  856,  493
2432, 1301, 1128, 1126, 1130
2433, 1010,  323,   83,  324
2434, 1156, 1175,  378,  379
2435, 1103, 1129, 1099,  540
2436,  920,  923, 1102,  926
2437,  979, 1054, 1027,  999
2438, 1129, 1126, 1127, 1301
2439, 1329,  405, 1175,  431
2440, 1156,  352,  379,  378
2441,  864, 1175,  861,  431
2442, 1175,  406,  861,  405
2443,  380,  860,  862,  406
2444,  862, 1175,  379,  380
2445, 1320, 1277, 1328, 1319
2446,  965,  856,  307,   58
2447,  858,   59,  498,   60
2448,  859,  862,  875,  874
2449, 1102,  273,  272,  246
2450, 1344,  300,  299,  273
2451,  969,  307,  306,  280
2452,  922,  302,  301,  275
2453,  914,  875,  866,  862
2454, 1174,  203,  204,  230
2455,  961,  256,  229,  230
2456, 1053, 1182, 1210, 1052
2457,   37,  911, 1174,  896
2458, 1174,  204,  203,   36
2459, 1076,  470, 1194,  471
2460, 1180,  473, 1181,  474
2461, 1210, 1180,  478, 1230
2462, 1065,  986,  795,  794
2463, 1214, 1320, 1278, 1321
2464, 1230,   56,  309,   55
2465,  970,  203, 1174,  229
2466, 1180,   55,  473,  478
2467,  899,  907,  603,  604
2468,  229,  230,  203, 1174
2469,  938,  473,   54,  468
2470,  983,  906,  902,  900
2471,  883,  641, 1064,  167
2472, 1188,  476,  471,  472
2473,  906,  903,  981,  972
2474, 1190, 1236, 1191, 1082
2475, 1096,  626,  627,  639
2476,  425,  424,  127, 1018
2477, 1007, 1010, 1267,  742
2478,  994, 1018,  128,  424
2479,  903,  849, 1262,  882
2480,  853,  885,  889,  851
2481,  981,  643, 1064,  642
2482,  987, 1005,  756,  751
2483,  127,  424,  128, 1018
2484,  998,  990, 1308,  989
2485,  990, 1308,  987, 1005
2486,  605, 1206,  606,  593
2487, 1005, 1308,  757,  752
2488,  988,  993,  995,  992
2489, 1307, 1331,  410,  384
2490, 1042, 1085, 1090, 1092
2491,  872,  187,   20,  188
2492,  365, 1159, 1139,  932
2493, 1215, 1153, 1235,  871
2494, 1138,  417,  390,  391
2495,  493,  965,  856,  999
2496,  872, 1215,  951,  949
2497,  872, 1263,  188,  871
2498,  872, 1215, 1154, 1263
2499,  366,  365, 1144, 1159
2500, 1159,  339,  366,  365
2501,  919,   68,   67,  538
2502,  903,  981, 1064,  882
2503,  353, 1156, 1175,  914
2504,  903,  971, 1262,  602
2505, 1125, 1130, 1131, 1132
2506,  844,  845,  589,  588
2507,  964,  308,  281,  282
2508, 1339, 1220,  332,   91
2509,  849,  846,  844,  882
2510, 1323,  278,  305,  304
2511, 1316, 1301, 1317,  960
2512, 1317,  196,   28,   29
2513,  205,  898,  231,  980
2514, 1306,  195, 1098,  960
2515,  850,  846,  854,  845
2516, 1321,   61,   62,  303
2517,  903,  971,  907,  981
2518, 1287,  512,  507,   34
2519, 1306,  221,  195,  960
2520, 1226,  552, 1062,  551
2521,  221,  222,  195,  960
2522,  915,  918,  925, 1338
2523, 1340, 1184,   40,  207
2524, 1097,  924,  193,  920
2525,  541, 1103,  546,  542
2526, 1103,  541, 1099,  542
2527, 1323,  279,  278,  252
2528, 1175, 1156, 1329,  866
2529, 1250, 1206,  606,  605
2530, 1206,  594, 1073,  607
2531,  937,  661,  656,  657
2532, 1340, 1185,  207,  208
2533, 1231,  938,  310,  311
2534,  969,  280,  281,  307
2535, 1207, 1249, 1275, 1066
2536,  904,  590,  602,  589
2537, 1285, 1250,  631,  618
2538, 1015,  399,  400,  426
2539, 1251,  631, 1250,  632
2540, 1275, 1207, 1075, 1024
2541, 1073,  607,  608, 1025
2542, 1150, 1072, 1157, 1158
2543, 1155,  914,  913,  866
2544,  158, 1206,  901,  593
2545, 1195,  458,   52,   51
2546, 1031,  288,  262,  289
2547, 1035, 1031, 1082, 1034
2548, 1184,   39,  207,  206
2549, 1074, 1205,  986, 1248
2550, 1162, 1148,  318,  317
2551, 1251, 1250, 1252,  632
2552, 1275, 1251,  644, 1276
2553, 1251,  632, 1024,  645
2554,  966,  256,  283,  282
2555, 1285, 1276,  630,  631
2556,   24, 1227,  557, 1305
2557, 1206,  985, 1073,  158
2558, 1029,  288,  289,  315
2559, 1262,  615,  627,  614
2560, 1259,  561,  557,  562
2561, 1206,  901, 1249,  985
2562, 1236, 1187, 1185, 1237
2563,  562, 1305,   24,  557
2564, 1242, 1197,  467, 1191
2565, 1187, 1181, 1194, 1076
2566, 1238,  458,   51,  453
2567, 1028,  211,   46,  237
2568, 1032,   48,  622,   49
2569, 1197,   42,   41,  472
2570, 1044,  831,  835,  830
2571, 1190, 1195, 1030, 1192
2572, 1093,  839,  143,  838
2573, 1232,  309,  308,  282
2574,  938, 1181,  468, 1193
2575,  984, 1065,  986,  795
2576, 1190, 1194, 1187, 1193
2577,  904,  603,  602,  590
2578, 1186, 1193, 1181,  938
2579, 1086, 1050, 1094, 1040
2580,  799,  974, 1065,  798
2581, 1028, 1033,   47, 1036
2582, 1033, 1032,   48,  622
2583, 1032, 1266, 1033, 1081
2584, 1036, 1033,   47, 1260
2585,  956,  292,  265,  266
2586, 1258,   23,  190,   22
2587, 1131, 1130,  941, 1132
2588,  925,  244,  245,  271
2589,  677,   96,  848, 1310
2590, 1186,  311,  285,  312
2591, 1334,  441,  415,  442
2592, 1303,   95, 1310,  912
2593, 1107,  581,  580,  576
2594, 1068,  394, 1158,  420
2595, 1204,  269,  268,  242
2596, 1039,  850,  810,  811
2597,  843,  151,  152,  586
2598,  887,  931, 1209, 1140
2599,  952,  949, 1216, 1107
2600,  871,   21,  189,  188
2601,  336,  362,  363,  888
2602,  243,  925,  270,  244
2603,  994, 1273, 1169,  993
2604, 1150, 1245, 1072, 1158
2605, 1244, 1072, 1245,  768
2606, 1245, 1072,  131,  768
2607, 1158,  394, 1157,  395
2608, 1245, 1169,  130,  422
2609, 1150, 1166, 1255, 1164
2610, 1313,  710,  868,  709
2611, 1299,  865,  713,  709
2612,  870,  865,  713, 1299
2613, 1304,  243,  925,  270
2614,  843,  586,  152,  587
2615,  120,  864,  713,  870
2616,  939,  100, 1159,   99
2617, 1133,  864,  865,  718
2618, 1133,  865,  719,  718
2619, 1095,  613,  877,  600
2620, 1139,  339,  338,   98
2621,  877,  843,  600,  587
2622,  877, 1092, 1090,  585
2623, 1321, 1323,  304,  278
2624,  877,  611, 1092,  598
2625,  943,  196,  223,  222
2626,  933,  931, 1138, 1334
2627,  611, 1088, 1087, 1092
2628,  933,  109,  929,  658
2629, 1125, 1132,  523,  528
2630, 1139,  339,   99, 1159
2631,  928, 1189,  664,  665
2632,  939,  662,  657,  100
2633, 1130,  941, 1343, 1131
2634,  929,  654,  659,  658
2635,  969,  306,  305,  279
2636, 1311,  408, 1176,  382
2637,  926,  272,  271,  245
2638, 1228,  372,  399,  398
2639, 1131, 1325,  520,  519
2640, 1132,  518,  523,   64
2641, 1131,  941, 1336, 1325
2642, 1143,  447,  451,  104
2643, 1143,  367,  104,  393
2644, 1209, 1139,  887,  667
2645, 1091,  108,  443,  444
2646, 1107,  951,  576,  575
2647,  937,  662,  661,  657
2648,  326,  914,  913, 1155
2649, 1326, 1279,  303,  302
2650, 1047,  636,  637,  172
2651,  951,  576,  572,  949
2652,  874,  875,   88,  862
2653,  939,  662,  100,   99
2654,   60,  305,  858,   59
2655, 1016,  402,  401,  375
2656, 1146,  452,  447,  446
2657, 1139,  887,  667,   98
2658,  869, 1177,  870,  861
2659, 1213,  967, 1287, 1110
2660,  100,  340, 1159,   99
2661, 1296, 1177,  703, 1299
2662, 1139,  662,   99,  667
2663, 1177,  433,  870,  861
2664,  936,  657,  652,  101
2665,  922,  275,  276,  302
2666, 1177,  434,  118,  433
2667,  965,  307,   57,   58
2668, 1082, 1236,  209,  236
2669, 1079, 1080, 1193,   52
2670, 1168,  763,  995,  764
2671, 1181,  938,  468,  473
2672, 1078,  314, 1196,   51
2673, 1131, 1326,  518, 1132
2674, 1079, 1078,  313,  287
2675, 1236, 1198,  236, 1082
2676, 1078, 1029, 1196,  314
2677, 1029, 1190, 1031, 1078
2678,  898,  205,  896,   38
2679, 1320, 1328, 1327, 1319
2680,  978, 1054,  485,  490
2681, 1068,  420,  132,  133
2682,  966, 1232,  964,  282
2683,  898,  231,  980,  966
2684,  175, 1253, 1268,  781
2685,  979,  896,  966,  961
2686, 1076,  475,  471,  476
2687, 1231,  310, 1232,  284
2688,  615,  628,  616,  971
2689, 1179, 1186, 1181,  938
2690,  966,  256,  961,  230
2691, 1032, 1029, 1028,  289
2692, 1001, 1017, 1015, 1019
2693,   18,  290,   17,  180
2694,  966,  964,  256,  282
2695, 1078, 1029,  314,  288
2696, 1029, 1196,  314,  315
2697,  516, 1325,  520, 1328
2698,  477, 1184,   40, 1188
2699,  966,  257, 1051,  283
2700, 1233, 1185,  259,  233
2701,  889,  813,  809,  814
2702, 1028, 1031, 1030, 1035
2703,   51, 1078, 1195, 1196
2704, 1328,  520, 1336, 1325
2705, 1188, 1340,   41, 1197
2706, 1076, 1197, 1194, 1187
2707, 1029,  288, 1031,  289
2708, 1092,  585,  598,  597
2709,  289, 1028,  263, 1031
2710,  315, 1196, 1077, 1029
2711,  481,  477, 1225,  482
2712, 1228,  998, 1273, 1018
2713, 1188, 1225,  477, 1184
2714, 1238, 1192, 1195,  459
2715, 1181,  473,  468,  469
2716,  233, 1185,  259,  260
2717, 1043, 1044, 1045, 1042
2718, 1079,  313,  312,  286
2719, 1186, 1079, 1187, 1193
2720, 1186,  312,  938,  311
2721, 1245, 1169,  763,  130
2722,  983, 1065,  984,  801
2723, 1196,  314,  315,   50
2724, 1078,  287,  288,  314
2725, 1166,   77,  317,   76
2726, 1150, 1071, 1244, 1167
2727, 1282,  596,  597,  609
2728, 1150, 1245, 1244, 1072
2729, 1077,  315,   49,    4
2730,  995, 1169,  758,  763
2731, 1190, 1080, 1078, 1195
2732, 1244, 1149,  769,  764
2733,  958,  291,  264,  265
2734, 1071,  773, 1072,  768
2735,  995,  994,  758, 1169
2736, 1147, 1149,  993, 1243
2737,  993, 1273, 1171,  989
2738,  972, 1064,  976,  883
2739,  899,  901,  604,  591
2740, 1285,  605, 1250,  618
2741, 1204,  268, 1234,  241
2742,  971,  628, 1262,  615
2743,  956,  265,  292,  291
2744,  803,  982,  166, 1064
2745,  849,  850,  973,  845
2746,  938,  312, 1193,   53
2747,  845,  588,  153,  154
2748, 1285,  617,  907,  604
2749,  934,  239,  265,  238
2750, 1081, 1038, 1265, 1260
2751, 1322,  225,  251, 1278
2752,  951,  873,  572,  571
2753, 1081, 1038, 1093, 1094
2754, 1194,  465,  470,  469
2755, 1028, 1032, 1033, 1038
2756, 1328, 1336,  521,  522
2757, 1060,  549,  550,  554
2758, 1037, 1028,  211, 1036
2759, 1033, 1028,  263,  289
2760, 1029,  289, 1032,  315
2761,  958,  290,  291,   74
2762, 1028, 1031, 1035, 1034
2763,  190, 1201,  216,  217
2764, 1030, 1264, 1035, 1082
2765, 1307, 1294, 1339,  357
2766, 1078, 1031, 1029,  288
2767, 1204,  295,  294,  268
2768, 1060,  916,  549,  548
2769, 1338, 1304,  296, 1059
2770,  970,  228,  202,  229
2771, 1070, 1167,  775,  774
2772,  924, 1227,  192, 1203
2773, 1274, 1171, 1163, 1158
2774, 1304,  295,  269,  296
2775,  137, 1022, 1023, 1255
2776, 1022, 1164, 1026, 1253
2777,  957,   73,   74,  291
2778, 1333,  561, 1259,  562
2779,  924,  192,  193,  219
2780, 1227,  557,   25,   24
2781,   26, 1097,  547,  552
2782, 1071, 1167,  774,  769
2783, 1059,  295,  296,   69
2784,  860,  863, 1176,  381
2785, 1244, 1167,  769, 1149
2786, 1127,   65,  528,   66
2787,  192,  924,  193,   25
2788, 1067,  132, 1072,  773
2789,  919,  544,  917,  916
2790, 1067, 1070, 1068, 1069
2791,  658, 1211,  663, 1189
2792, 1059,  295,   69,   70
2793, 1139,   99,  339,   98
2794, 1067, 1068,  132,    8
2795,  878,  506,  501,  502
2796,  899,  591,  590,  156
2797, 1177,  708,  870,  119
2798,  859, 1175,  866,  862
2799,  715,  868,  714,  908
2800,  869, 1296, 1177, 1312
2801, 1330, 1296, 1289, 1293
2802, 1188, 1182, 1225, 1184
2803, 1057,  559,  554,  555
2804,  713, 1299,  708,  870
2805,  859,  875,  866,  868
2806,  868,  714,  865,  709
2807,  864,  861,  870,  120
2808, 1195,  463,  458,  459
2809, 1080,  469,  468,  464
2810, 1328,  941, 1325, 1336
2811, 1231, 1230, 1232,  310
2812,  958,  952,   75,   74
2813, 1344,  300,  273,  274
2814, 1215, 1048, 1161,  957
2815, 1191,   42,  467,   43
2816,  872,  953, 1215,  949
2817,  277,  278,  251, 1322
2818, 1323,  278, 1322,  252
2819, 1128,  532,  536,  531
2820,  864,  865,  718,  713
2821, 1040, 1265, 1094, 1089
2822, 1079,   52,  312,  313
2823, 1159,  366,  339,  340
2824, 1101,  148, 1265,    3
2825,  550, 1062,  551,  917
2826, 1277,  941, 1328, 1336
2827, 1038, 1029, 1032, 1077
2828, 1233,  285,  259,  286
2829, 1259,  560,  555,  556
2830,  609, 1266, 1260, 1033
2831, 1101, 1265, 1036,    3
2832, 1302, 1222,  412, 1257
2833, 1098,  195,   27,   28
2834, 1158,  395,  421,  394
2835, 1265,   45, 1036,    3
2836,   45, 1260,  583, 1265
2837,  970,  961,  255,  229
2838, 1265, 1036,   45, 1260
2839,  490,  999,  489,  494
2840,  845,  812,  973,  154
2841,  966,  961,  896,  230
2842, 1019,  399,  373,  400
2843, 1320,  508,  513,   62
2844, 1132,  518,   64,   63
2845,  850,  812,  845,  817
2846,  903,  845,  904,  844
2847, 1010,  323, 1267,   83
2848,  854,  851,  850,  816
2849, 1003,  126,  425,  426
2850,  846,  854,  845,  843
2851, 1323,  278,  279,  305
2852,  970,  229,  202,  203
2853,  904,  845,  154,  589
2854,  895,  881, 1303, 1283
2855,  903,  981,  972, 1064
2856, 1027,  492,  497,  496
2857,  850,  845,  812,  973
2858,  820, 1105,  855,  819
2859,  964,  282,  255,  256
2860, 1318,   32,   33,  200
2861,  855,  815,  819,  851
2862,  816,  851,  855,  854
2863,  844,  849,  903,  845
2864,  853,  849,  889,  883
2865, 1012,  124,  427,  428
2866,  851,  885,  814,  819
2867, 1022, 1255, 1026, 1164
2868, 1075,  977, 1024, 1020
2869, 1078,  287,  314,  313
2870, 1256, 1257,  413,  439
2871, 1069, 1075,  647,  161
2872, 1010,  737,  741,  736
2873, 1150, 1022, 1255, 1157
2874, 1150, 1162, 1158, 1157
2875, 1175,  405, 1329,  378
2876,  862,  328,  329,  355
2877, 1021, 1074, 1254, 1073
2878, 1020, 1022, 1253, 1070
2879,  972,  903, 1064,  883
2880,  886, 1088,  638, 1041
2881, 1088,  637,  624,  625
2882, 1210, 1230,  483, 1332
2883, 1321,  303,  304,   61
2884,  846,  852, 1095,  882
2885, 1318,  199,   32,  200
2886, 1191,   43, 1264, 1082
2887,  981,  629,  642,  641
2888,  902,  155,  973,  807
2889,  882,  981,  628,  971
2890,  948,  946,  673,  112
2891,  903,  971,  882, 1262
2892, 1325,  518, 1131, 1326
2893,  846,  852,  855,  843
2894,  971,  615, 1262,  602
2895, 1255,    5, 1165,   76
2896,  883,  903, 1064,  882
2897,   45,   46, 1036,  211
2898, 1032,  315,  289,   49
2899, 1087, 1095,  613,  877
2900,  947,  439, 1256,  113
2901, 1247,  945,  946,  996
2902,  613, 1087,  612, 1096
2903,  879,  969,  857,  858
2904, 1027,  911,  497,  492
2905, 1332, 1054,  965,  488
2906,   58,  493,  965,  856
2907, 1057,  560,  565,  564
2908, 1106,  578,  179,   75
2909, 1302,  413, 1256, 1257
2910,  965,   57, 1332,  488
2911, 1232,  965,   57, 1332
2912, 1102,  273,  246,  247
2913,  912,  335,  361, 1284
2914, 1222,  360,  386,  359
2915, 1054,  965,  488,  999
2916,  294, 1049,   71,   70
2917,  969,  307,  965,  856
2918, 1060,  549,  554,  553
2919, 1226,  917,  546,  551
2920, 1129,  529,  530,  534
2921, 1063,  553,  554,  558
2922,  924, 1227,   25,  192
2923, 1087,  855, 1084, 1045
2924, 1084, 1045,  825,  826
2925,  819, 1105,  855,  885
2926,  853,  883,  889,  813
2927,  854,  816,  850,  817
2928,  846,  855,  854,  843
2929, 1103,  540,  544,  539
2930, 1300,  298,  299,   66
2931, 1086,  841, 1050,  836
2932, 1044, 1085, 1086,  831
2933,  853,  882,  883,  884
2934, 1044, 1050,  834,  835
2935, 1343,  526,  530,  525
2936, 1085,  150, 1092,  149
2937, 1300,   67,  298,   66
2938, 1126,   65,   66,  299
2939, 1125,  528,  523,  524
2940, 1281,  584, 1092,  597
2941,  886,  884,  853,  169
2942, 1277, 1336,  527, 1343
2943,  877,  585, 1090,  586
2944, 1325,  515,  520,  519
2945,  276,  250, 1279,  277
2946, 1213,  227,  226,  200
2947,  982,  981, 1276,  643
2948, 1281,  584,  597,  596
2949, 1162, 1148,  317, 1166
2950, 1147, 1151,  766, 1243
2951, 1147,  993, 1151, 1243
2952,  850,  815,  811,  816
2953, 1131,  524,  519,  520
2954, 1162, 1170,  318, 1148
2955, 1163, 1158, 1157,  395
2956, 1147, 1149,  766,  771
2957, 1134,  429,  430,  122
2958,  548, 1060, 1055,  553
2959, 1056, 1200, 1258, 1201
2960, 1328,  516,  521,  520
2961,  268, 1234,  241,  267
2962, 1234, 1204,  294,  268
2963, 1234,  294, 1049,  293
2964, 1240,   61,  503,  508
2965, 1309,  332,  358, 1339
2966, 1063, 1057,  559,  554
2967, 1338, 1059,  916,  918
2968, 1095,  614,  627,  626
2969, 1271, 1286,  347,  321
2970,  991, 1151,  761,  762
2971, 1325,  515,  519,  514
2972, 1170, 1004,   79, 1151
2973, 1004, 1151,  762,   79
2974,  461, 1192,  466, 1242
2975, 1319,  198,  199,  225
2976, 1179, 1187, 1076, 1181
2977, 1191,   43, 1082,   42
2978,  878,  506,  505,  501
2979, 1080, 1181,  468,  469
2980, 1192, 1195,  459,  460
2981,  981,  641,  628,  629
2982, 1076,  476, 1182,  475
2983,  635, 1178, 1047, 1032
2984, 1031, 1029,  289, 1028
2985, 1033,  609, 1266,  622
2986, 1131, 1336, 1343,  525
2987, 1028, 1033,  263,   47
2988, 1006, 1001, 1002, 1000
2989,   48,  289, 1032, 1033
2990,  266, 1234,  267, 1235
2991, 1240,   61,   60,  503
2992,  890,  689,  688,  684
2993,   54,  473,  938,   55
2994,  933,  929,  108, 1091
2995, 1104,  454,  453,  144
2996, 1180,  479,  478,  474
2997, 1215, 1263,  871, 1235
2998, 1326,   62,  302,  303
2999, 1340, 1197, 1187, 1236
3000, 1092,  598,  610,  597
3001, 1318,  200,  226,  199
3002, 1316, 1160,  960,  222
3003,  943,  197,  198,  224
3004, 1345,  198,  943,  197
3005, 1283,  333,  360,  359
3006, 1170, 1337, 1271,  319
3007,  990, 1005,  987, 1008
3008, 1261, 1297,  436,  116
3009, 1211,  933,  658,  110
3010, 1223,  333,  332,   92
3011, 1308,  987, 1004,  989
3012, 1284,  360,  387,  386
3013,  989,  988,  993,  994
3014, 1317, 1345,  532, 1343
3015, 1277,  941, 1336, 1343
3016, 1126,  922,  940, 1130
3017, 1277, 1345,  941, 1343
3018, 1230,  478,  483,   56
3019, 1196,   51,  314,   50
3020, 1077,    4,  143,   50
3021,  905,  749,  753,  748
3022,  943, 1316, 1130, 1345
3023, 1301, 1098, 1099, 1128
3024, 1192,  462,  461,  457
3025, 1283,  334,  360,  333
3026, 1089,  584, 1092, 1281
3027, 1010,  324,   83,   84
3028, 1281,  583, 1265, 1089
3029,  460, 1192,  457,  455
3030, 1281, 1089,  584,  583
3031, 1202, 1266,  623,  636
3032, 1043, 1042, 1045, 1041
3033, 1317,  195,   28,  196
3034, 1230,  309,  310,   55
3035, 1126, 1344, 1316,  274
3036, 1345,  527,   30,  532
3037, 1040, 1265, 1281, 1260
3038, 1029,  315, 1032, 1077
3039,  633,  632, 1024, 1252
3040, 1281, 1092,  610,  597
3041, 1032,  635, 1178,   49
3042, 1038, 1036, 1260, 1033
3043, 1047,  635, 1266,  636
3044, 1150, 1162, 1157, 1166
3045, 1315,   76,  316, 1255
3046, 1157,  369,  342,  343
3047,  966,  231, 1051,  257
3048, 1150, 1157, 1255, 1166
3049, 1023,  136, 1255,  342
3050, 1168, 1244, 1245,  768
3051, 1238,  453,   51,   50
3052,  111, 1247,  112,  946
3053, 1170, 1148, 1151,   78
3054, 1266,  636,  635,  623
3055, 1126,  300, 1344,  274
3056, 1272, 1171, 1273,  989
3057, 1195,  465,  464,  460
3058, 1151, 1243,  761,  766
3059, 1148,  317, 1166,   77
3060, 1147, 1243,  766, 1149
3061, 1183, 1185, 1233,  233
3062,  919,  543,  916,   68
3063,  928,  660,  664,  659
3064, 1255,  136,  137,  342
3065, 1131, 1128, 1125,  529
3066, 1209,  665, 1335,  666
3067, 1006,  746,  745,  741
3068,  937,  657,  939,  662
3069, 1126, 1300,   66, 1127
3070, 1295,  650,  140,  139
3071,  994, 1169,  129,  758
3072,  993, 1171, 1170,  989
3073,  929,  933,  658,  659
3074, 1150, 1244, 1168, 1149
3075,  933,  417, 1091,  443
3076,  896,  911, 1174,  961
3077,  928, 1335,  665,  660
3078,  878,  911,  967,  502
3079,  896,  230,  204,  231
3080,  848,  677,   97,   96
3081, 1255,  316,  137,    5
3082,  864,  430, 1329,  431
3083, 1027,  962,  911,  896
3084,  991,  756,  761,  760
3085, 1270, 1069,  778, 1075
3086, 1064,  167,  642,  166
3087, 1072,  773,  132,  768
3088, 1218, 1217, 1261,  894
3089, 1148,   77,  318,  317
3090, 1162, 1170, 1171,  344
3091, 1152, 1167,  771,  776
3092,  396,  395,  422, 1274
3093, 1331, 1261, 1297,  436
3094, 1218, 1261,  437,  894
3095,  335, 1284,  912, 1303
3096, 1302, 1303,  895,  945
3097, 1286,  322,  348,  321
3098, 1324, 1298, 1239,  510
3099, 1279,  303,  302,  276
3100, 1325,  514,  519,  518
3101,  922,  300, 1132, 1126
3102, 1326,  302,   62,   63
3103,  405, 1329,  378,  404
3104, 1148,   78,  318,   77
3105, 1007, 1308, 1005,  752
3106, 1162, 1157,  343,  369
3107, 1017, 1286, 1007,  322
3108, 1271,  346,  320,  347
3109, 1004, 1271, 1170, 1337
3110, 1015, 1019,  399,  425
3111, 1000,  126, 1002,  743
3112, 1000,  749,  748,  744
3113,  862,  354,  328,  355
3114, 1271, 1228,  372,  346
3115, 1228,  425, 1003, 1018
3116, 1021,  137,  136,  608
3117,  870,  433,  119,  432
3118, 1337,  320, 1271,  319
3119, 1000, 1002,  744,  743
3120,  782, 1246, 1254,  781
3121, 1065,  799, 1066,  794
3122,  905,  128,  748,  753
3123, 1337,  319,   79,  320
3124, 1065,  794, 1066,  986
3125, 1065,  986, 1249,  984
3126, 1206, 1252, 1251, 1250
3127,  791,  986,  795,  984
3128,  900,  797,  901,  157
3129,  983,  973,  806,  807
3130,  983,  973, 1039,  806
3131, 1178,  635,    4,   49
3132, 1220,  332,   91,   92
3133, 1307, 1330, 1331, 1309
3134, 1220,   91, 1288,  702
3135, 1339, 1288, 1220,   91
3136, 1303, 1284,  912, 1302
3137,   95,  912,   96, 1310
3138, 1286,  321,   81,  322
3139,  690, 1123, 1221,  685
3140,  891,  690, 1123, 1221
3141, 1223,  895,  881, 1221
3142,  890, 1123,  689,  684
3143,  881,   95, 1303,   94
3144,  322,   82, 1267,  323
3145, 1198, 1236,  236,  235
3146, 1321,  277,  304,  303
3147, 1117,  325,  324,   84
3148, 1169, 1273,  423, 1274
3149, 1179, 1231, 1186,  938
3150, 1237,  234,  260, 1185
3151, 1236,  234, 1237, 1185
3152, 1233, 1237,  260, 1185
3153, 1240,  509, 1298,  508
3154, 1131,  525,  524,  520
3155, 1076, 1197,  472,  471
3156,  875,  721,  868,  716
3157, 1330, 1290, 1296, 1297
3158, 1314,  324,  350,  323
3159,  859,  870,  864,  861
3160,  252,  225,  251, 1322
3161,  859,  865,  864,  870
3162,  870,  861,  432,  120
3163,  933, 1211, 1334,  110
3164,  870,  868,  865, 1299
3165, 1017,  322,  323,  349
3166, 1213,  967,  968,  227
3167, 1219, 1289,  701,  702
3168,  967,  502,   35,  507
3169,  869, 1296, 1313, 1299
3170, 1177,  870,  708, 1299
3171,  827,  151, 1090,  832
3172, 1314,  375,  349,  376
3173, 1313,  869,  876, 1292
3174, 1294, 1288, 1291, 1293
3175, 1286,   82,  322,   81
3176, 1183, 1184,  207,  206
3177,  876,  717,  716,  712
3178, 1291, 1292,   89,  874
3179, 1289, 1293, 1292, 1288
3180, 1313,  868,  710,  711
3181,  876,  711, 1292,  712
3182,  860, 1177,  861,  433
3183, 1006, 1008,  744,  745
3184, 1011, 1012, 1114, 1113
3185, 1006,  744, 1002,  739
3186, 1001, 1006, 1141, 1009
3187, 1010, 1141, 1115, 1009
3188,   80, 1337,  320, 1308
3189, 1286,  321,  348,  347
3190, 1137,  416, 1334,  415
3191,  996,  389,  363, 1137
3192,  709, 1299,  708,  713
3193, 1137,  390,  416,  389
3194,  417, 1138,  932,  391
3195, 1339, 1288,  331, 1294
3196, 1228, 1018,  424,  425
3197,  876,  875,   88,  874
3198,  876,  716,  868,  711
3199,  914,  327,  354,  353
3200,  859,  874,  876,  869
3201,  859,  869,  870,  861
3202,  876,   88,  875,  717
3203,  908,  720,  868,  721
3204,  862,  875,   88,  914
3205,  862,   88,  329,  328
3206,  868,  716,  721,  720
3207, 1151,  762,  766,  761
3208,  909, 1116,  725,  726
3209, 1286, 1019,  347,  348
3210, 1256,  997,  414,  413
3211, 1256,  948,  113,  112
3212, 1011, 1009, 1141, 1010
3213, 1314, 1017,  349,  375
3214, 1023,  634,  621,  135
3215, 1012, 1013, 1113, 1011
3216, 1222,  386,  412,  385
3217,  736, 1010, 1115,  741
3218, 1173,  402,  428, 1142
3219,  876,  711,  712,  716
3220,  868,  711,  715,  710
3221, 1139,  931, 1209,  887
3222, 1147, 1152, 1150, 1149
3223, 1010, 1009,  741,  742
3224, 1007,  747, 1009,  742
3225,  870,  432,  861,  433
3226,   82,  322, 1267, 1007
3227, 1068, 1022, 1071, 1072
3228,  980, 1183, 1184, 1052
3229, 1070,  775, 1253,  176
3230, 1167, 1149,  771,  770
3231, 1152, 1164, 1167,  776
3232, 1073,  159,  160,  594
3233, 1152,  771, 1167, 1149
3234, 1020, 1254, 1026, 1021
3235,  177, 1070,  774,  178
3236, 1168,  764, 1244,  768
3237, 1167, 1149,  770,  769
3238,  114,  947,  438,  894
3239,  986,  795,  794,  790
3240, 1218,  894,  437,  438
3241, 1223,  881,  687, 1221
3242,  891,  890,  895, 1123
3243,  947,  895, 1257,  894
3244,  881, 1303, 1283,   94
3245, 1296,  117,  698,  118
3246, 1310,  895, 1303,  945
3247, 1222, 1309,  359,  385
3248, 1302,  412, 1222,  386
3249,  360,  386, 1284, 1222
3250,  945,  997,  996, 1247
3251,  915,  924,  925,  918
3252, 1098,  923, 1160, 1102
3253,  923,  926,  925,  245
3254,  920, 1100,  921, 1102
3255,  915,  923,  926,  925
3256,  872, 1154,   20,  187
3257,  214,  215, 1263, 1235
3258, 1289,  704,  699,  700
3259, 1288,  331,   90,   91
3260, 1234,  267, 1235,  241
3261, 1289,  705,  700,  701
3262,  956, 1048,  292,  293
3263,  696,  701, 1219,  700
3264,  897,  898,   38,  980
3265,  874,  862,   88,  329
3266,  861,  405,  432,  431
3267, 1307, 1339,  358,  357
3268,  896,  966,  898,  979
3269,  966,  964,  961,  256
3270,  284, 1233,  258, 1051
3271, 1232,  283,  284,  310
3272,  961,  896,  230, 1174
3273,  966, 1232,  282,  283
3274, 1310,  682,  681,  677
3275, 1024,  646,  645,  633
3276, 1269,  788,  789,  793
3277, 1341, 1155, 1342,  352
3278, 1296,  703,  699,  704
3279, 1342, 1142,  351,  377
3280, 1142, 1155, 1342, 1341
3281, 1341,  326,   85,  913
3282, 1183, 1233,  259,  233
3283, 1155, 1156,  352,  326
3284, 1117, 1118,   85,  732
3285, 1341,   85, 1118,  913
3286, 1221, 1223,  692,  687
3287, 1017,  348,  349,  375
3288, 1117, 1341,   85, 1118
3289, 1261,  116,  436,  115
3290,  737,  732, 1111, 1117
3291,  922,  940,  276,  275
3292, 1277, 1345, 1343,  527
3293, 1233, 1237,  286,  260
3294, 1345,  532, 1343,  527
3295,  894,  114,  115,  437
3296,  948,  678,  113,  673
3297,  943, 1277, 1345,  941
3298,  827,  826, 1085, 1090
3299, 1131,  529,  525,  530
3300,  950, 1154,  934,  954
3301, 1002,  743,  738,  739
3302, 1013,  733,  738,  125
3303,  222,  940,  943, 1316
3304,   95, 1310,  682,  881
3305,   95,   96,  682, 1310
3306, 1113,  734,  739,  738
3307, 1002,  126,  738,  743
3308,  223,  224,  943,  942
3309, 1059,   70,   69,  548
3310, 1083, 1140,  996, 1137
3311, 1257,  439,  438,  412
3312, 1140, 1137, 1247,  996
3313,  931, 1139, 1335,  939
3314, 1139,  939,   99,  662
3315, 1183, 1233,  258,  259
3316,  984,  796,  791,  792
3317, 1103,  544,  540,  545
3318, 1083, 1137,  363,  364
3319, 1160,  220,  247,  246
3320,  363,  337,  888, 1083
3321, 1139,  667, 1335,  662
3322,  848, 1209, 1140,  887
3323,  339,  365, 1159, 1139
3324, 1209,  670,  665,  666
3325, 1275,  164,  644,  645
3326, 1137, 1138,  390,  364
3327, 1321, 1278, 1322,  277
3328, 1026,  595,    5,  137
3329, 1214, 1318, 1109, 1110
3330, 1110, 1214,  252, 1323
3331, 1209,  671,  667,  672
3332, 1214, 1320, 1240, 1298
3333, 1320, 1298, 1325,  513
3334,  944,  679,  893,  678
3335, 1183, 1233, 1052, 1051
3336, 1323,  305,  858,   60
3337, 1240, 1323,   60,   61
3338,  250, 1279,  277, 1278
3339, 1058, 1305, 1203, 1201
3340,  455, 1101,  145, 1104
3341,  916, 1060, 1055,  548
3342, 1241, 1056, 1048, 1153
3343, 1153, 1057, 1333,  565
3344,  892,  891,  890,  895
3345, 1241, 1063,  558, 1049
3346, 1241,  564, 1057,  565
3347, 1190, 1031, 1198, 1082
3348, 1198, 1237, 1236,  235
3349, 1335,  662,  666,  661
3350, 1079, 1193,   53,   52
3351,  933,  931, 1334, 1211
3352, 1079, 1193,  312,   53
3353, 1164, 1152, 1166, 1165
3354, 1037,   44,  457,    3
3355, 1190, 1191, 1030, 1082
3356,  147,  455,  146,  456
3357,  912,  362,  335,  336
3358, 1237, 1186, 1079, 1187
3359, 1186,  938,  312, 1193
3360, 1023,  342,  368,  136
3361, 1211,  111,  441,  110
3362,  236, 1031, 1082, 1198
3363,  677,  676, 1310,  848
3364, 1051,  232,  980, 1183
3365,  994,  995,  758,  988
3366, 1001, 1006, 1002, 1141
3367,  997,  387,  414,  413
3368,  929,  653,  109,  108
3369, 1083,   97,   98,  338
3370,  990,  998, 1286, 1019
3371, 1279, 1321,  277, 1278
3372,  102,  447,  341,  103
3373,  987,  749, 1008,  750
3374,  988,  758,  754,  992
3375,  994,  424, 1273, 1018
3376, 1015,  426, 1003,  425
3377,  905,  749,  987,  754
3378, 1000,  749,  990,  905
3379,  988,  994,  998, 1018
3380,  994, 1169, 1273,  423
3381,  887, 1083,  996,  888
3382, 1217, 1218, 1261, 1309
3383, 1145,  366, 1159,  340
3384, 1174,  230,  204,  896
3385, 1214, 1320, 1327, 1319
3386, 1091,  444,  445,  107
3387,  848,  676,  671,  672
3388,  947, 1256,  439, 1257
3389, 1159,  932, 1144,  939
3390,  996,  847,  848,  945
3391, 1310,  945,  888,  848
3392, 1123,  684,  685,  689
3393,  652,  101,    6,  446
3394,  978,  490,  485,  486
3395,  881,  682,  681, 1310
3396, 1271,  347, 1228,  346
3397,  362,  996,  363,  888
3398,  937, 1335,  661,  662
3399, 1144,  418,  391,  392
3400,  912,   96, 1310,  888
3401,  189,  190, 1258, 1200
3402, 1241,  558, 1063,  559
3403, 1048,   72, 1049,  563
3404, 1235,  240,  214,  241
3405,  237,  210, 1035,  211
3406, 1258,  562, 1305,   23
3407, 1069,  161,  647,  133
3408,  911,   36,  497,   37
3409,  556, 1061, 1227, 1062
3410, 1255,  316,    5,   76
3411,  966,  230,  231,  257
3412, 1055, 1049, 1204, 1059
3413, 1199, 1203,  217, 1201
3414, 1285,  605,  617,  604
3415,  892, 1290, 1261,  693
3416,  900,  156,  802,  157
3417, 1068,  977,  134,  133
3418, 1268,  176,  780,  779
3419, 1147,   77, 1148, 1166
3420, 1271,  319,  346,  345
3421, 1058, 1061, 1259, 1057
3422, 1162,  343,  344,  370
3423, 1199,  217,  925,  243
3424, 1203,  191,  190,   23
3425, 1199,  925, 1304,  243
3426, 1203,   24,  192,  191
3427, 1172, 1173,  428, 1012
3428, 1172, 1012,  428,  124
3429, 1111, 1141, 1115, 1010
3430, 1016, 1142,  402,  376
3431, 1302,  387,  997,  413
3432,  428, 1142, 1012, 1173
3433, 1233,  259, 1185,  260
3434, 1170,  318,  345,  344
3435, 1329, 1133,  122,  864
3436, 1005,  752,  757,  756
3437, 1134, 1329,  430, 1173
3438, 1329, 1173, 1342,  404
3439, 1170,   79, 1337,  319
3440, 1019,  374,  347,  348
3441, 1117,   85,   84,  737
3442, 1001,  990, 1007, 1019
3443, 1173,  430,  403,  404
3444, 1271,  320,  321,  347
3445, 1228,  399, 1019,  425
3446, 1272,  372,  371,  345
3447, 1342,  377,  351,  378
3448,  917, 1060,  549,  550
3449,  888,  336,  912,   96
3450,  948, 1247,  945,  946
3451, 1274, 1163,  370,  396
3452, 1287, 1239,  878,  507
3453, 1016,  428,  401,  402
3454, 1236,  209,  236,  235
3455,  966,  979,  965, 1232
3456, 1331,  384,  411,  410
3457, 1341,  351,  325,  352
3458, 1311,  409,  435,  408
3459,  910,  875,   87,  722
3460,  867, 1027,  494,  999
3461, 1062,  555, 1061, 1060
3462, 1016,  375,  376,  402
3463,  916, 1060,  917,  918
3464,  969, 1110,  280,  279
3465, 1287,  507,  967,   34
3466, 1287,  967,  201,   34
3467,  970,  967,  202,  228
3468,  754,  988,  753,  758
3469,  969,  254,  968,  255
3470,  330,  357, 1294,  356
3471,  913,   85,   86,  326
3472,  970,   35,  911,   36
3473,  951,  575,  570,  571
3474,  994, 1273,  998, 1018
3475, 1163,  370,  396,  369
3476,  336,   96,  888,  337
3477,  944,  946,  847,  674
3478,  997,  387,  388,  414
3479,  912,  336,  335,   95
3480, 1291,  356,  355,  329
3481,  564, 1153, 1161,  565
3482,  912,  335,  362,  361
3483, 1292,  706,  707,  711
3484,  947,  438,  894, 1257
3485,  979,  999,  965, 1054
3486,  909,  908,  725, 1116
3487,  411,  385, 1218,  412
3488,  987,  750,  751,  755
3489,  330,  331, 1294,  357
3490,  427, 1012, 1013,  124
3491, 1337,   79, 1004,   80
3492,  512, 1287, 1239, 1327
3493, 1154,  954,  950,  953
3494,   99,  340, 1159,  339
3495, 1287, 1327,  512,   33
3496, 1144,  935,  932, 1091
3497, 1048,   72,  292,  293
3498, 1144,  392,  365,  366
3499, 1122,  449,  649,  648
3500,  914,   87,   88,  328
3501, 1318,   33, 1287,  200
3502, 1279,  940,  942,  276
3503, 1127, 1129,  529, 1125
3504,  956,  291,  958,  265
3505, 1279,  277,  303,  276
3506, 1278, 1214, 1322,  225
3507, 1309, 1220, 1223,  332
3508, 1318,   32, 1319, 1327
3509, 1139,  365,  338,  339
3510, 1261,  116,  115,  688
3511, 1214, 1109, 1240, 1323
3512, 1188,  472,   41,  477
3513, 1102,  926,  246,  272
3514,  473,  938,   55, 1180
3515, 1306,  194,  195,  221
3516, 1330, 1293, 1288, 1294
3517, 1217, 1261,  892, 1290
3518, 1188, 1340, 1187, 1184
3519,  551, 1062,  556,  552
3520, 1145,  101,  341,  100
3521,  367,  393, 1143,  366
3522,  872,   21,   20,  577
3523, 1184,   39,  482,   40
3524, 1118,   86,  732,  727
3525,  997,  388,  361,  362
3526, 1134, 1172,  429,  123
3527, 1329, 1133,  866, 1136
3528, 1011, 1314, 1017, 1010
3529, 1237,  260,  234,  261
3530,  991,  761, 1151, 1243
3531, 1340, 1197,   42,   41
3532, 1264,  462,  457,   44
3533,  341,  447,  367,  103
3534, 1231,  311,  310,  284
3535, 1114, 1341, 1155, 1142
3536, 1256,  112,  113,  439
3537, 1111, 1011, 1114, 1141
3538, 1307,  357,  383, 1294
3539, 1010,  742,   84,   83
3540,  928,  931, 1189, 1335
3541,   85,   86,  732, 1118
3542,  947,  945, 1256, 1257
3543, 1186, 1233, 1237,  286
3544,  469, 1181,  474,  470
3545, 1180, 1230,  938,   55
3546, 1045, 1087, 1090, 1084
3547, 1087,  855,  852,  843
3548, 1183,  258, 1051,  232
3549, 1145,  340,  100,  341
3550, 1202,  636, 1047, 1266
3551, 1087,  852,  855,  886
3552,  100, 1159, 1145,  939
3553,  821,  855,  825, 1084
3554, 1095,  844,  601,  600
3555, 1209,  671,  666,  667
3556,  843, 1090,  827,  151
3557,  447, 1143, 1145,  367
3558,  259,  285, 1233,  258
3559,  843,  586, 1090,  151
3560,  446,  102,  101,    6
3561,  877,  843,  586, 1090
3562,  967,  201,  228,  227
3563,   36,  970, 1174,  911
3564, 1213, 1110,  252,  253
3565, 1213,  968,  253,  227
3566, 1146,  447,  102,  446
3567, 1146, 1122, 1120,  452
3568, 1025, 1252,  620,  633
3569, 1074, 1025, 1021, 1020
3570, 1272,  344,  371,  370
3571, 1023,  135,  134,  634
3572, 1062,  556,  552, 1227
3573,  595,  607,  608, 1073
3574, 1157,  369,  368,  342
3575,  992,  759,  754,  755
3576, 1329,  431,  430,  404
3577, 1250,  618,  605,  606
3578, 1068,  977, 1023,  134
3579, 1023,  394,  134,  135
3580, 1023,  136,  368,  135
3581, 1149,  770,  766,  771
3582, 1021,  595, 1026,  137
3583, 1025, 1252,  607,  620
3584, 1252,  619,  606,  607
3585, 1021, 1022, 1023,  137
3586, 1105, 1045,  823,  824
3587, 1162, 1171,  370,  344
3588, 1162,  317,  318,  344
3589, 1039,  973,  811,  806
3590,  853,  884,  168,  169
3591, 1046, 1093,  838,  839
3592, 1041, 1047, 1040, 1088
3593, 1101,  457,  455,  147
3594, 1147,  772,  771,  767
3595, 1138, 1139, 1083,  931
3596, 1007, 1010, 1017, 1267
3597, 1265, 1089,  583,  148
3598, 1253,  782,  781,  174
3599, 1259,  556,  557,  561
3600, 1035, 1037, 1028,  211
3601, 1260, 1265, 1281,  583
3602, 1036,   44,   45,  211
3603, 1142,  350,  377,  376
3604, 1162,  318, 1170,  344
3605,  869, 1292,  863,  874
3606,  862,  863, 1291,  874
3607,  869, 1177, 1299,  870
3608,  925,  243,  217,  244
3609,  862,  863,  381,  355
3610,  356, 1291,  863, 1294
3611, 1294, 1291,  863, 1293
3612, 1217, 1219, 1290,  891
3613, 1339, 1330, 1288, 1294
3614, 1330, 1293, 1289, 1288
3615,  987, 1008,  751,  750
3616, 1228,  373,  399,  372
3617, 1291,  874,   89,  329
3618, 1274,  397,  396,  370
3619,  781, 1246, 1254, 1268
3620, 1254, 1026, 1021,  595
3621, 1254,  782, 1026,  160
3622, 1206,  158, 1073,  593
3623, 1254,  160, 1026,  595
3624,  919,  916,  543,  544
3625, 1320, 1278, 1279, 1277
3626, 1056, 1058, 1201, 1258
3627,  676,  675,  847,  671
3628, 1059,  295, 1204, 1304
3629,  919,  916, 1338,   68
3630, 1246,  160,  159,  787
3631,  985,  158,  797,  792
3632, 1059,  916,  548,   69
3633, 1314,  323,  350,  349
3634, 1026,  595,  160,    5
3635, 1276,  631,  643,  630
3636, 1075,  647,  161,  162
3637, 1170,   78, 1151,   79
3638, 1228,  398, 1273,  372
3639, 1341,  324,  351,  350
3640, 1285,  631,  630,  618
3641, 1170, 1148,   78,  318
3642, 1329, 1342,  378,  404
3643, 1333, 1258,  567,  562
3644, 1026,  782, 1253,  174
3645, 1019,  373,  374,  400
3646, 1026, 1253, 1165,  174
3647, 1286, 1228,  347, 1019
3648, 1165, 1152, 1166,   76
3649, 1140, 1208, 1209,  848
3650, 1118, 1116,  726,  731
3651, 1023, 1157,  368,  342
3652,  946,  669,  673,  668
3653, 1189,  668,  663,  664
3654, 1255, 1166, 1315,   76
3655,  870,  119,  120,  432
3656, 1071, 1070,  774, 1167
3657, 1074, 1246, 1254, 1073
3658,  451, 1120,  419,  445
3659,  749,  744, 1000,  990
3660, 1020, 1246, 1268, 1254
3661, 1143,  366, 1145,  367
3662, 1246, 1020, 1268, 1248
3663,  981,  630,  642,  629
3664, 1091,  418,  419,  445
3665, 1177,  119,  118,  703
3666, 1011, 1142, 1341, 1114
3667, 1314, 1017,  323,  349
3668, 1156,  353,  379,  352
3669, 1016, 1314,  376,  375
3670, 1007,  752, 1005,  747
3671,  862,  353,  354,  380
3672, 1001, 1141, 1011, 1009
3673, 1342,  377,  404,  403
3674,  356, 1294,  383,  357
3675, 1113, 1012, 1114, 1172
3676, 1114, 1117, 1118, 1341
3677, 1111, 1118,  731, 1116
3678, 1175,  380,  406,  379
3679, 1176,  408,  407,  381
3680,  927,  932, 1091,  933
3681, 1013,  738, 1002,  125
3682,  124,  427,  125, 1013
3683, 1333, 1259,  561,  560
3684, 1144,  419,  392,  393
3685,  951, 1161,  569,  573
3686, 1153, 1048, 1161, 1215
3687, 1048, 1235, 1215, 1153
3688, 1055, 1199, 1056, 1058
3689,  957,  568, 1161,  573
3690,  433,  860,  406,  861
3691,  233, 1185,  234,  207
3692, 1234,  956,  266,  293
3693, 1340, 1236,  208,  209
3694,  901,  158,  593,  592
3695, 1340, 1184, 1185, 1187
3696,   73,  568, 1048,  957
3697, 1076, 1197, 1188,  472
3698, 1340, 1236,  209,   42
3699, 1198,  262,  235,  236
3700, 1197,  472,  467,   42
3701,  954,  185, 1108,  183
3702, 1059, 1338,   69,  296
3703, 1126, 1132,  922, 1130
3704,   25,  192, 1227,   24
3705, 1061, 1057, 1060,  555
3706,  926,  271,  925,  245
3707, 1302, 1222, 1283, 1284
3708,  924,  918, 1203,  925
3709,  921,   68, 1338,  297
3710, 1301, 1098, 1160, 1102
3711, 1103,  919,  539,  544
3712, 1049,   72,  293,   71
3713, 1234,  294,  267,  268
3714, 1144,  417,  391,  418
3715,  923,  245,  925,  219
3716,  924,  915,  917,  918
3717, 1103,  546,  542, 1226
3718,  920,  921,  926, 1102
3719, 1059, 1055, 1304, 1204
3720, 1083,   98, 1139,  338
3721, 1211,  663,  111,  110
3722, 1338,  925,  271,  270
3723, 1137,  364,  390,  363
3724, 1220,  702,  697,   92
3725,  918, 1227, 1226,  924
3726, 1259,  561,  560,  556
3727,  336,  337,  888,  363
3728, 1079,  286, 1237,  287
3729, 1228, 1018, 1273,  424
3730, 1334,  443,  416,  417
3731, 1317, 1345,   29,  532
3732, 1117, 1341, 1314,  324
3733,  994,  423,  424,  128
3734, 1001, 1003,  990, 1019
3735, 1062,  555,  551,  556
3736, 1317, 1128, 1229, 1098
3737,  786, 1205,  790,  791
3738, 1345, 1343, 1317, 1130
3739,  196, 1317,  960, 1345
3740,  935,  936, 1145,  939
3741, 1093,  144,  143,  839
3742, 1195,   52,  458,  463
3743, 1116,  725,  730,  729
3744, 1004,  991, 1151,  989
3745,  863,  382,  355,  356
3746, 1137,  389,  363,  390
3747,  874,  862,  329, 1291
3748,  854,  817,  153,  822
3749,  910,  726,  722,  727
3750,  991, 1243,  760,  761
3751, 1004, 1308,   80,  757
3752, 1147,  766, 1151,  767
3753, 1138,  364,  391,  390
3754,  894, 1218,  895, 1257
3755, 1168,  764, 1243, 1149
3756, 1004,  757, 1005, 1308
3757, 1243,  991,  992,  993
3758, 1145,  101, 1146,  341
3759, 1243,  766, 1149,  765
3760, 1243,  765, 1149,  764
3761,  922,  302,   63,  301
3762,  528, 1132, 1126, 1125
3763,   94,  881,  687, 1223
3764, 1083,  364,  363,  337
3765, 1326,  922,  302,   63
3766,  844,  588,  600,  587
3767, 1345,   30,  197,   29
3768, 1137, 1247,  996,  389
3769,  908,  715,  719,  714
3770, 1289,  706, 1313,  705
3771, 1138,  364,  365,  391
3772, 1312,  118, 1177,  434
3773,  900,  156,  157,  591
3774, 1240, 1298,  509, 1239
3775, 1298, 1325,  514,  515
3776, 1091,  444,  107,  108
3777, 1248,  986,  789,  790
3778,  985,  159,  158,  792
3779,  593,  901,  605, 1206
3780,  880,  505, 1239,  504
3781,  503,  504,  880, 1240
3782, 1109, 1239, 1240,  858
3783, 1285,  630,  617,  618
3784,  994, 1273,  424,  423
3785, 1245,  422,  130,  421
3786, 1013,  125,  124,  733
3787,  507,  512, 1287, 1239
3788, 1068,  420,  134,  394
3789, 1109,  878, 1287, 1239
3790, 1014,  401,  427,  400
3791, 1142,  403,  376,  377
3792, 1044,  830,  834,  829
3793, 1324, 1239,  511,  510
3794,  878,  911,  502,  501
3795,  880,  500,  878,  505
3796,  991,  755,  756,  760
3797,  864,  121,  713,  718
3798, 1287,  878,  967,  507
3799,  833, 1178,  838, 1046
3800, 1142,  376,  403,  402
3801,  849,  889,  850,  851
3802, 1043,  828, 1047, 1041
3803, 1043,  828, 1045,  829
3804, 1086, 1050,  841, 1094
3805, 1044, 1042, 1085, 1045
3806, 1307, 1339, 1294, 1330
3807, 1281, 1092, 1089, 1040
3808,  443,  933, 1334,  109
3809, 1085, 1045,  826,  831
3810, 1000,  743,  127,  126
3811,  997,  388,  387,  361
3812,  149,  584,  150, 1092
3813,  882,  628,  641,  640
3814, 1290, 1297,  116,  117
3815, 1097,  924, 1227,   26
3816, 1142,  350,  351,  377
3817,  738, 1141, 1113, 1013
3818,  914, 1156, 1155,  326
3819,  910,   86,  914,  913
3820, 1219,  695,  891, 1221
3821,  909, 1114, 1118,  913
3822, 1114, 1173, 1136, 1172
3823,   86,  914,  913,  326
3824,  325, 1341,  326,   85
3825, 1214, 1320, 1298, 1327
3826, 1307,  357,  384,  383
3827, 1323, 1110,  858,  305
3828,  879,  969,  858, 1110
3829,  942,  249,  223,  250
3830, 1318, 1319,   32,  199
3831, 1319,  198,   31,  199
3832, 1324,  516, 1325,  515
3833, 1328,  517, 1327,   32
3834, 1228,  425,  398,  399
3835, 1327,   33,  517,  512
3836, 1219, 1290,  891,  695
3837, 1126,  940,  274, 1316
3838, 1261,  116, 1290, 1297
3839,  914,  327,  328,  354
3840,  698, 1290,  117, 1296
3841, 1289, 1313,  704,  705
3842, 1296,  704, 1299,  703
3843, 1219, 1288, 1330, 1289
3844, 1217, 1330, 1219, 1220
3845,  891,  695, 1290,  694
3846,  890,  893, 1123,  684
3847, 1008,  744,  745,  749
3848, 1217, 1223, 1309, 1220
3849,  332, 1220, 1223,   92
3850, 1245,  131,  421,  130
3851,  893,  895, 1124,  945
3852, 1015,  426,  425,  399
3853, 1172,  123,  428,  429
3854, 1329, 1173,  404,  430
3855, 1223, 1221,  692,  697
3856,  987, 1005,  757,  756
3857,  744, 1008,  990,  749
3858, 1015,  374,  375,  401
3859, 1307, 1331,  384, 1309
3860,  891,  694,  892,  689
3861,  462, 1264, 1192, 1191
3862, 1242, 1192,  466, 1194
3863,  892,  689,  694,  693
3864,  483, 1053,  479, 1210
3865,  481, 1053, 1182,  480
3866,  860,  407,  406,  380
3867,  979, 1053, 1232, 1052
3868,  902,  904,  973,  155
3869, 1332, 1054,  488,  483
3870, 1060,  917,  918, 1062
3871, 1055,  916,  918, 1060
3872,  969,  255,  281,  254
3873, 1230, 1332,   56,  483
3874,  964,  282, 1232,  308
3875, 1188,  472, 1197,   41
3876,  869, 1176, 1293, 1312
3877, 1172, 1013, 1113, 1012
3878, 1188,   41,   40,  477
3879, 1136,  866,  908, 1133
3880, 1198,  262, 1031,  288
3881, 1065,  798, 1066,  799
3882,  904,  844,  589,  602
3883,  974,  976, 1064,  803
3884,  894,  688,  115,  683
3885,  912,  336,   95,   96
3886,  974,  799,  804,  803
3887,  922, 1126,  940,  274
3888, 1066, 1065,  986, 1249
3889, 1285,  901,  899,  906
3890, 1275, 1066,  982,  164
3891,  945,  847,  848, 1310
3892,  981,  643,  642,  630
3893, 1323,   60,  304,  305
3894, 1056, 1333, 1259, 1258
3895, 1058, 1259, 1061, 1305
3896, 1241, 1161, 1048,  563
3897, 1230, 1232,  309,   56
3898, 1139,  939, 1159,   99
3899,  932, 1091,  933,  417
3900, 1120,  450,  451,  452
3901,  484,  483, 1053,  479
3902, 1097,   27, 1098,  194
3903, 1256,  440,  439,  413
3904, 1091,  445,  444,  418
3905, 1100, 1300, 1127,  533
3906,  888, 1083,  996,  363
3907, 1120,  447,  452,  451
3908, 1334,  442,  415,  416
3909, 1200,  189,  190,  216
3910,  432,  861,  431,  120
3911, 1256,  112, 1247,  948
3912,  365,  391, 1144,  932
3913, 1145,  366, 1144, 1159
3914,  440, 1256,  112, 1247
3915,  932, 1139,  939, 1159
3916,  391, 1138,  932,  365
3917, 1111, 1011, 1010, 1117
3918, 1112, 1114, 1135, 1172
3919, 1111, 1118, 1114, 1117
3920, 1256,  440,  413,  414
3921,   65,  528, 1132, 1126
3922, 1333,  565,  560,  561
3923, 1091,  417,  418,  444
3924, 1019,  347,  374,  373
3925, 1117, 1010,  737,   84
3926, 1101,  457,    3, 1037
3927,  938,   54,   55,  310
3928,  451,  104,  105,  393
3929, 1111,  736,  735,  731
3930, 1299,  704,  709,  708
3931, 1113, 1111, 1141, 1115
3932, 1111, 1114, 1118, 1116
3933,  865,  709,  714,  713
3934, 1112, 1116,  730,  729
3935,  739,  738, 1141, 1113
3936,  862,  406, 1175,  380
3937, 1289,  701,  706,  705
3938, 1134, 1173,  430,  429
3939, 1172, 1173,  429,  428
3940, 1114, 1012, 1142, 1173
3941,  932,  931, 1139, 1138
3942,  905,  127, 1000,  748
3943,   50,  315, 1196, 1077
3944,  854,  821,  817,  822
3945, 1091,  417,  444,  443
3946, 1080,  463, 1195,  464
3947, 1104, 1038, 1037, 1101
3948,  652,  936, 1146,  448
3949, 1238,   50, 1077,  453
3950, 1078, 1080,   52, 1195
3951, 1079,  313, 1078,   52
3952,  308, 1232,  965,   57
3953, 1121,  648,  107,  450
3954,  231,  232,  980, 1051
3955, 1051,  257,  231,  258
3956,  979,  965, 1232, 1332
3957, 1047,  833,  172,  828
3958, 1054,  999,  489,  490
3959, 1332, 1210, 1053,  483
3960,  896,  231,  205,  898
3961,  105,  451,  419,  106
3962, 1169,  129,  758,  130
3963, 1329, 1155, 1136,  866
3964, 1068,  133,  134,  420
3965,  908,  724,  720,  725
3966, 1068, 1022, 1072, 1157
3967, 1112,  734,  730,  735
3968,  727,  913, 1118,   86
3969, 1147, 1152, 1166, 1150
3970, 1041, 1045, 1087, 1042
3971, 1047, 1041,  171,  637
3972,  886, 1045, 1041,  823
3973,  993, 1245, 1171, 1169
3974, 1287, 1213,  227,  967
3975,  868,  710,  715,  714
3976,  149,  837, 1089, 1085
3977, 1228, 1019, 1003,  425
3978, 1049,   72,   71,  558
3979, 1030, 1196, 1029, 1077
3980, 1319,  198,  225,  224
3981, 1228, 1273,  398,  424
3982, 1318,  225,  199,  226
3983, 1006,  745,  744,  740
3984,  853,  886,  885,  852
3985, 1087, 1096,  886, 1088
3986,  852,  884,  853,  886
3987, 1202, 1092,  611,  610
3988, 1202, 1088,  637,  624
3989,  886,  852,  855,  885
3990, 1088, 1040, 1202, 1047
3991, 1015,  400,  374,  401
3992, 1172,  728,  733,  124
3993,  877, 1092,  585,  598
3994, 1016,  428,  427,  401
3995, 1081, 1032, 1266, 1047
3996,  625, 1096,  612, 1088
3997,  905, 1018, 1003,  127
3998,  905,  998, 1003, 1018
3999,  987,  754,  750,  755
4000,  905, 1000,  749,  748
4001, 1170,  989, 1004, 1151
4002,  970,  967,   35,  202
4003, 1247,  440,  111,  112
4004, 1098, 1160,  960, 1301
4005,  945, 1310,  888,  912
4006, 1016, 1314, 1142,  376
4007, 1017,  374, 1019,  348
4008, 1014, 1015, 1016,  401
4009, 1139,  662, 1335,  939
4010, 1128, 1229, 1098, 1099
4011, 1296,  117, 1312, 1297
4012, 1231,  311, 1186,  938
4013,  864,  121,  120,  713
4014, 1016,  401, 1015,  375
4015, 1071, 1070, 1167, 1164
4016,  781,  175,  780, 1268
4017,  779, 1268,  784,  780
4018, 1068, 1072,  420, 1158
4019, 1206, 1073,  594,  593
4020,  864,  122,  430,  121
4021, 1336,  526, 1343,  525
4022,  862,  380,  354,  381
4023, 1343,  531,  526,  527
4024,  946,  673,  669,  674
4025, 1025,  634, 1024,  633
4026,  922, 1130,  941,  940
4027, 1270,  779,  784,  783
4028, 1177,  118,  119,  433
4029, 1022, 1069, 1068, 1070
4030,  914,   87,  875,   88
4031, 1070, 1167, 1253,  775
4032, 1254, 1026,  782, 1253
4033, 1275,  163,  645, 1024
4034, 1269, 1066,  793,  794
4035, 1157,  394,  368,  395
4036, 1269, 1066,  163,  788
4037, 1205,  986,  790,  791
4038,  163, 1075, 1024, 1275
4039,  979,  965, 1332, 1054
4040, 1213,  968, 1110,  253
4041,  963,  967,  970,  968
4042,  231,  966,  896,  230
4043, 1230, 1232,   56, 1332
4044,  966,  898,  979,  980
4045, 1253, 1165,  174,  175
4046,  961,  229,  256,  255
4047,  961, 1174,  230,  229
4048,  925,  218,  245,  244
4049, 1069, 1075,  161,  778
4050,  991,  762,  761,  757
4051, 1150, 1148, 1162, 1166
4052, 1163,  395, 1157,  369
4053, 1152,  777,   77,   76
4054, 1271, 1308,  989,  998
4055,  860,  380,  381,  407
4056, 1274,  423,  396,  397
4057, 1138,  417,  416,  390
4058,  674, 1124,  847,  944
4059,  994,  129,  128,  753
4060, 1162, 1171, 1163,  370
4061,  989, 1004, 1271, 1170
4062, 1169,  129,  422,  423
4063, 1128,  531, 1343,  532
4064, 1316,  248, 1160,  222
4065, 1344, 1160,  248,  247
4066, 1339,  331,  358,  357
4067,  920,  919, 1100, 1103
4068, 1102, 1160, 1344,  247
4069,  947,  113,  438,  439
4070,  848,  672, 1209,  887
4071, 1102,  926,  272,  298
4072,  587,  843,  600,  844
4073, 1300, 1102, 1344,  299
4074, 1208,  669, 1189,  665
4075,  891,  690,  695,  694
4076, 1288,   90,  331,  330
4077, 1339,  331, 1288,   91
4078, 1292,  712,  711,  707
4079, 1169,  422,  129,  130
4080,  881, 1124, 1310,  680
4081,  901,  604,  592,  605
4082,  886,  170,  639,  169
4083, 1245,  130,  763,  131
4084, 1261,  437,  115,  436
4085, 1331, 1218,  411,  385
4086, 1307,  383,  384,  410
4087, 1331,  410,  436,  409
4088,  869, 1176, 1312, 1177
4089,  434,  408, 1312,  435
4090, 1295,  930,  650,  651
4091,   76, 1165, 1255, 1166
4092, 1163,  369,  396,  395
4093, 1083,   97,  338,  337
4094, 1223,  334,  333,   93
4095, 1261,  693,  116,  688
4096, 1158,  422,  421,  395
4097, 1190, 1195, 1078, 1196
4098, 1188, 1340, 1197, 1187
4099, 1243,  764,  759,  760
4100, 1233,  260,  286,  259
4101, 1069,  778,  161,  178
4102, 1085, 1086,  832,  837
4103, 1077, 1178,    4,   49
4104, 1031,  289,  262,  263
4105, 1198,  287, 1079, 1237
4106, 1104, 1077, 1093,  143
4107, 1077, 1178,  143,    4
4108,  145, 1101,  841, 1093
4109, 1032, 1266,  635,  622
4110,  147, 1101,  457,    3
4111, 1170, 1004, 1337,   79
4112,  669, 1189,  665,  664
4113,  984,  791,  796,  795
4114, 1032,   49, 1077,  315
4115,  393,  451,  419,  105
4116, 1236, 1190, 1187, 1237
4117,  845,  154,  817,  812
4118, 1083,  338,  364,  337
4119,  515,  516, 1325,  520
4120,  622, 1032, 1266, 1033
4121, 1238, 1104, 1192,  454
4122, 1035,   44, 1037,  211
4123, 1245,  421, 1158,  422
4124, 1264,  457, 1037,   44
4125,  950,  952,  957,  951
4126,  914,  326,  327,  353
4127,  950, 1215,  951,  957
4128, 1095, 1096,  882,  852
4129, 1158,  420,  394,  421
4130, 1161,  564,  569,  568
4131, 1306,  960, 1160,  221
4132, 1072,  131,  132,  420
4133, 1160,  220,  923, 1306
4134, 1306, 1098,  195,  194
4135, 1344,  247,  274,  273
4136, 1021,  136,  621,  608
4137, 1070, 1167, 1164, 1253
4138, 1152,  776,  777, 1165
4139, 1098,   28, 1317,  195
4140,   87,   86,  327,  914
4141,  943,  960,  222, 1316
4142,  994,  758,  129,  753
4143,  993, 1151, 1170, 1148
4144, 1160,  248,  221,  222
4145, 1301, 1126, 1300, 1344
4146,  943, 1345,  197,  196
4147, 1317, 1345,  196,   29
4148, 1341,  351,  324,  325
4149, 1344,  274,  247,  248
4150, 1028, 1035, 1030, 1037
4151,  840, 1093,  841, 1050
4152, 1271,  345,  372, 1272
4153, 1047, 1178,  635,  173
4154, 1135,  724,  728,  723
4155, 1007,  746, 1009,  747
4156,   46, 1036,  211, 1028
4157, 1192, 1191, 1242,  461
4158, 1303,   95,  335,   94
4159, 1238, 1030, 1077, 1196
4160, 1047, 1041,  828,  171
4161, 1006,  739,  740,  744
4162,  385,  358, 1309,  359
4163, 1117,   84,   85,  325
4164, 1178, 1047,  833,  173
4165, 1081, 1077, 1032, 1178
4166,   97,  888,   96,  337
4167, 1333, 1259, 1258,  562
4168,  901,  604,  591,  592
4169,  874,   89,  329,   88
4170,  870,  119,  708,  120
4171, 1126, 1127,   66,   65
4172, 1053,  480,  485,  484
4173, 1126,  528, 1127,   65
4174,  529, 1125, 1131,  524
4175, 1277, 1345,  527,   30
4176,  859,  862,  874,  863
4177,  864,  713,  870,  865
4178, 1147,  772, 1152,  771
4179, 1164, 1026, 1253, 1165
4180,  925,  217,  218,  244
4181, 1167,  776, 1253,  775
4182, 1255,  342,  137,  316
4183,  352,  353,  326, 1156
4184, 1162,  343, 1157, 1315
4185, 1177,  119,  703,  708
4186,  317,   76,  316, 1315
4187, 1243,  761,  765,  760
4188,  860, 1176,  407,  381
4189, 1183,  233,  259,  232
4190, 1209, 1189, 1335,  665
4191, 1312,  117,  434,  435
4192,  848,  677,  672,   97
4193, 1311,  409,  408,  382
4194, 1086,  841,  836,  837
4195,  869, 1289, 1292, 1313
4196, 1033,   47,  609,   48
4197,  862,  354,  355,  381
4198, 1176,  407,  408,  434
4199,  697, 1219,  701,  702
4200,  943, 1130,  941, 1345
4201,  848,  676,  672,  677
4202,  359, 1223,  332, 1309
4203,  285, 1233,  258,  284
4204, 1261,  894,  115,  437
4205, 1089,  584,  583,  149
4206, 1290,  693,  117,  116
4207, 1050,  836,  841,  840
4208, 1140, 1211,  946,  111
4209, 1247,  441,  440,  414
4210, 1211,  668,  946,  111
4211,  914,  354,  862,  353
4212,  685,  681,  881,  686
4213, 1034,  237,  210, 1035
4214,  914,   87,  328,  327
4215,  236,  263, 1031,  262
4216, 1045, 1041,  823,  828
4217, 1047,  173,  636,  172
4218, 1202,  623, 1266,  610
4219, 1131, 1128,  530, 1343
4220,  891,  690,  694,  689
4221,  353,  326, 1156,  914
4222, 1041,  828,  171,  823
4223,  676, 1310,  848,  847
4224, 1050,  835,  840,  839
4225,  893,  683,  678,  679
4226,  237,  236, 1034,  210
4227, 1050,  840,  835,  836
4228, 1086,  836,  831,  832
4229, 1206,  607,  606,  594
4230, 1043, 1047, 1040, 1041
4231, 1034,  236,  263, 1031
4232,  982,  165,  644,  164
4233,  947,  113,  114,  438
4234, 1046,  838,  833,  834
4235,  922, 1279,  276,  940
4236, 1326,  922, 1279,  302
4237,  928,  659,  654,  655
4238,  280,  969,  254, 1110
4239, 1208,  847,  848, 1140
4240, 1088,  624,  611,  612
4241, 1335,  666,  662,  667
4242, 1097,   26,   27,  194
4243,  929,  658,  109,  653
4244, 1085,  832, 1086,  831
4245,  110,  109,  442, 1334
4246, 1119,  653,  108,  648
4247, 1178,  173,  838,    4
4248, 1044,  835,  834,  830
4249, 1143, 1120,  451,  447
4250,  922,  941, 1130, 1132
4251,  923,  220,  219,  193
4252, 1046, 1047,  833, 1178
4253, 1213,  253,  226,  227
4254, 1160,  221,  247,  220
4255, 1189,  659,  663,  658
4256, 1226,  547,  551,  546
4257, 1042, 1085, 1045, 1090
4258, 1119,  653,  648,  649
4259, 1046,  834,  839,  838
4260,  557, 1061, 1227,  556
4261, 1122,  452,  449,  450
4262,  150,  832, 1085, 1090
4263,  922,  274,  940,  275
4264,  949,  577,  576,  572
4265,  933,  929,  109,  108
4266, 1103,  917,  544,  545
4267, 1047,  173,  172,  833
4268, 1045,  831,  830,  826
4269, 1305, 1203, 1227, 1058
4270, 1183, 1184, 1185,  207
4271, 1227,  552,   26,   25
4272, 1047,  637,  171,  172
4273,  853,  168,  883,  813
4274,  922, 1279,  302,  276
4275, 1043,  833,  828,  829
4276, 1340,   41,  209,  208
4277, 1085,  827,  831,  826
4278, 1047,  171,  828,  172
4279,  106,  451,  419,  445
4280, 1121,  107,  445,    7
4281,  993, 1245, 1150, 1171
4282, 1239,  504,  505,  509
4283,  843,  152,  827,  822
4284, 1302,  413, 1257,  412
4285, 1227,   25,  557,  552
4286,  651,  138,  139,  448
4287,  686,  681,  881,  682
4288, 1221,  881,  687,  686
4289, 1121,    7,  445,  106
4290,  652,  138,  651,  448
4291, 1063, 1059,   70, 1049
4292, 1334,  109,  442,  443
4293,  935,  936, 1295, 1146
4294, 1119,  648,  108,  107
4295, 1045,  829,  828,  824
4296, 1041,  171,  638,  170
4297, 1311, 1294, 1330, 1307
4298, 1146,  341,  102,  447
4299, 1146,  652,  446,  101
4300, 1145,  366,  340,  367
4301,  930,  650,  651,  655
4302,  928, 1189,  659,  664
4303,  929,  658,  653,  654
4304,  824,  823, 1105,  819
4305,   24, 1305, 1203, 1227
4306,  652,  651,  936,  448
4307, 1045,  828,  823,  824
4308, 1041,  171,  170,  823
4309, 1334,  442,  416,  443
4310, 1091, 1121,  445, 1120
4311, 1316,  248,  940,  274
4312, 1298,  508,  509,  513
4313,  862,  380,  379,  353
4314,  881,  687,  686,  682
4315, 1055, 1060, 1063,  553
4316, 1084,  843, 1090,  827
4317, 1295,  449,  448,  140
4318, 1038, 1101, 1036, 1037
4319,  884,  168,  169,  640
4320,  687, 1223,  692,   94
4321,  649,  648,  449,  141
4322,  853,  818,  169,  813
4323, 1175,  353,  862,  379
4324,  820,  821,  855,  825
4325, 1295,  448,  449,  452
4326, 1043,  829,  834,  833
4327,  648,  450,  142,  107
4328, 1146,  448,  452,  446
4329,  142,  107,  450,    7
4330,  649,  141,  449,  140
4331,  861,  406,  432,  405
4332,  843,  151,  827,  152
4333,  914,  862,  354,  328
4334,  888,  887,   97,  848
4335,  855,  886, 1045, 1087
4336, 1121,  445,  451,  106
4337, 1133, 1135,  122,  723
4338,  462, 1191,   43, 1264
4339, 1121,  451, 1120,  450
4340,  886,  169,  818,  170
4341, 1084,  826,  822,  827
4342,  101,  936, 1146,  652
4343,  930,  655,  651,  656
4344,  885,  823,  818,  819
4345, 1269,  789,  986,  794
4346, 1133,  121,  718,  122
4347, 1295,  448,  651,  139
4348,  652,  448,  446,  138
4349,  875,  910,  866,  908
4350, 1329, 1136, 1155, 1173
4351, 1084,  821,  826,  825
4352, 1090,  150,  151,  585
4353, 1175,  379,  405,  378
4354, 1045,  830,  829,  825
4355, 1119,  654,  929,  653
4356, 1105,  820,  824,  819
4357, 1105,  820,  825,  824
4358, 1032, 1178, 1047, 1081
4359, 1096,  638,  625,  626
4360,  648,  141,  142,  449
4361,  937,  939,  931, 1335
4362, 1202,  610,  611,  623
4363,  850,  973,  812,  811
4364,  854,  152,  822,  153
4365, 1104,  454,  144,  145
4366,  910,  909,  727,  913
4367, 1181,  469,  474,  473
4368,  908,  715,  868,  720
4369,   90, 1291, 1288, 1292
4370, 1079,  313,  286,  287
4371, 1143, 1145,  935, 1146
4372, 1033,  263,   47,   48
4373, 1230,   56,   55,  478
4374, 1111,  735,  736, 1115
4375,  853,  169,  168,  813
4376,  914,  862,  328,   88
4377,  570,  571, 1333,  951
4378,  885,  818,  813,  814
4379, 1329, 1156, 1342, 1155
4380, 1180,  474,  478,  473
4381,  979,  966, 1051, 1232
4382,  854,  817,  845,  153
4383, 1194,  466,  470,  465
4384, 1077,  453,   50,  143
4385, 1244,  764,  769,  768
4386,  889,  809,  813,  808
4387, 1316,  222,  940,  248
4388,  979, 1232, 1053, 1332
4389,  909, 1114, 1116, 1118
4390, 1140,  441, 1211,  111
4391,  850,  816,  811,  812
4392,  973,  154,  812,  155
4393, 1273,  423,  397,  424
4394,  855,  815,  816,  820
4395, 1318, 1319,  199,  225
4396,  973,  811,  807,  812
4397, 1323, 1110,  305,  279
4398,  854,  817,  821,  816
4399,  804, 1039,  976,  809
4400,   26, 1227,   25,  924
4401, 1032, 1077,   49, 1178
4402,  809,  805, 1039,  810
4403,  889,  810,  814,  809
4404,  864, 1329, 1175,  431
4405, 1101, 1094,  842,  841
4406,  883,  808,  813,  168
4407,   94,   95,  687,  881
4408, 1195,  460,  464,  459
4409, 1039,  805,  806,  810
4410,  455, 1101,  147,  146
4411, 1028,   47,  237,   46
4412, 1266,  635,  622,  623
4413,  147,  457,  455,  456
4414,  881,  686, 1221,  685
4415,  850,  812,  817,  816
4416, 1337,   80,  320,   79
4417, 1310,  681,  676,  677
4418,  677,   96, 1310,  682
4419,  153,  843,  587,  845
4420, 1226,  542,  547,  546
4421, 1306,  221,  220,  194
4422, 1329,  404,  405,  431
4423, 1262,  601,  602,  614
4424,  976,  804,  809,  808
4425,  320, 1308,  321,   80
4426, 1084,  843,  827,  822
4427,  145,  146, 1101,  455
4428,  982,  166,  165,  798
4429,  921,   67,  297,  298
4430, 1329, 1156, 1175,  378
4431,  975,  804,  800,  805
4432,  804,  975, 1039,  805
4433,  981,  630, 1276,  643
4434,  983,  802,  806,  801
4435,  236, 1082,  210,  209
4436, 1192,  460,  461,  465
4437,   86,  910,  914,   87
4438,  917,  549,  544,  545
4439, 1311, 1312,  435, 1297
4440, 1304,  296,  269,  270
4441, 1064,  166,  642,  643
4442,  899,  591,  604,  603
4443,  863,  355,  382,  381
4444,  882,  640,  627,  628
4445,  167,  883,  808,  803
4446, 1064,  166,  803,  167
4447,  798,  982,  166,  803
4448, 1100, 1301, 1098, 1099
4449,  971,  603,  615,  602
4450,  991,  756,  757,  761
4451,  407,  433,  860,  406
4452, 1204,  242,  268,  241
4453, 1238,  454,  459,  458
4454,   70, 1059, 1204, 1049
4455, 1055,  918, 1058, 1061
4456, 1192,  460,  459,  455
4457,  983,  805,  801,  806
4458,  906, 1285, 1249, 1276
4459, 1176,  863, 1293,  382
4460, 1274, 1169,  422,  423
4461, 1331, 1261, 1330, 1297
4462, 1264,   43,  462,   44
4463,  461, 1192,  457,  460
4464, 1170,   78,   79,  319
4465, 1175,  861,  431,  405
4466,  983,  802,  807,  806
4467, 1262,  614,  602,  615
4468, 1269,  793, 1066,  788
4469, 1221, 1219,  695,  696
4470,  976,  804,  808,  803
4471,  984,  800,  795,  796
4472, 1296,  118,  698,  703
4473,  983,  800,  801,  805
4474, 1314,  376,  349,  350
4475, 1311, 1330, 1293, 1297
4476,  798,  982, 1066,  165
4477,  975,  804,  799,  800
4478, 1339,  331,  332,  358
4479, 1261,  693, 1290,  116
4480,  950,  956,  958,  959
4481,  883,  808,  168,  167
4482,  894,  438,  114,  437
4483, 1066,  794,  798,  793
4484,  993, 1243,  991, 1151
4485, 1273,  397,  398,  424
4486, 1257,  439,  412,  413
4487,  938,  468,   54,   53
4488,  477,  476,  481, 1225
4489,  109,  933, 1334,  110
4490,  885,  819,  818,  814
4491,  984,  797,  801,  796
4492,  468, 1193,   53,  938
4493, 1224,   38,  487,   39
4494,  799,  795, 1065,  800
4495, 1232,  310,  309,  283
4496,  979, 1332, 1053, 1054
4497,  904,  154,  155,  589
4498, 1054,  484,  488,  483
4499,  980,  232,  205,  206
4500,  155,  807,  902,  156
4501, 1269, 1066,  794,  986
4502, 1285,  907,  617,  630
4503, 1070,  778,  178,  177
4504,  899,  603,  590,  591
4505, 1066,  793,  164,  788
4506,  174,   76, 1165,    5
4507, 1195,  459,  464,  463
4508, 1276,  643,  631,  644
4509, 1269,  783,  788,  163
4510, 1024,  633,  634,  646
4511,  436,  409,  435, 1297
4512,  792,  159, 1205,  985
4513, 1182,  470,  475,  474
4514,  414,  415,  388,  997
4515,  888,  997,  362,  996
4516, 1194,  470,  466,  471
4517,  979,  980,  978, 1053
4518, 1181,  474,  470, 1182
4519,  984,  792,  797,  796
4520, 1324,  516,  515,  511
4521,  974,  803,  798,  799
4522, 1311, 1331, 1297,  409
4523, 1253, 1165,  175,  776
4524, 1248,  790,  789,  785
4525,  890,  893,  895, 1123
4526,  175,  777,  776, 1165
4527, 1248,  786, 1205,  790
4528, 1331,  437, 1218, 1261
4529,  909, 1136,  908, 1116
4530,  471, 1197,  472,  467
4531, 1126, 1316, 1130,  940
4532, 1313,  704,  705,  709
4533, 1313,  705,  706,  710
4534,  146, 1101,  147,  842
4535, 1289,  705,  704,  700
4536, 1114, 1155, 1341,  913
4537, 1269,  789,  788,  784
4538,  844,  601,  589,  602
4539, 1191,  462,   43,  467
4540, 1155, 1341,  326,  352
4541, 1232,  308,   56,   57
4542, 1313,  705,  710,  709
4543, 1269,  788,  783,  784
4544,  777,  174,   76, 1165
4545, 1096, 1088,  625,  638
4546, 1182,  475,  479,  474
4547,  984,  800,  796,  801
4548, 1133,  723,  718,  719
4549,  987, 1004,  991,  757
4550,  883,  168,  640,  641
4551, 1246,  160,  787,  782
4552, 1206, 1249,  901, 1250
4553,  986,  794,  789,  790
4554, 1005,  751,  746,  747
4555, 1248,  785,  780,  781
4556, 1248,  786,  785,  781
4557,  911,  501,  496,  497
4558, 1023,  137,  136, 1021
4559,  999,  965,  488,  493
4560, 1270,  783,  778,  779
4561, 1075,  783,  162,  778
4562, 1121, 1122, 1119,  648
4563, 1340, 1197, 1236,   42
4564, 1155,  326, 1341,  913
4565, 1007,  752,   82,   81
4566, 1111, 1117, 1010,  737
4567, 1021,  137,  608,  595
4568, 1026,    5,  160,  782
4569, 1340, 1184,  207, 1185
4570, 1008,  745,  746,  750
4571, 1248,  790,  785,  786
4572,  697, 1223,   93,  692
4573, 1314, 1011, 1016, 1142
4574, 1248,  780,  785,  784
4575, 1275,  645,  163,  164
4576, 1231,  285, 1186,  311
4577, 1206,  606,  593,  594
4578, 1107,  575,  579,  574
4579, 1218,  438,  437,  411
4580, 1023,  394,  135,  368
4581, 1307,  410,  409,  383
4582, 1269,  794,  793,  789
4583,  646, 1075, 1024,  163
4584, 1064,  167,  641,  642
4585, 1248,  784,  785,  789
4586,  176, 1253, 1268,  175
4587, 1053,  486,  978,  485
4588, 1287,   34,   33,  512
4589,  204,  231,  205,  896
4590, 1253,  175,  174,  781
4591, 1246,  782,  786,  781
4592, 1113,  738,  733,  734
4593,  980,   38,  205,  898
4594, 1226,  547,  552,  551
4595, 1097, 1099, 1098, 1229
4596,  175, 1165,  174,  777
4597, 1014,  427,  426,  400
4598,  907,  630,  629,  617
4599, 1302,  386,  387,  413
4600,  978,  486,  487,  491
4601,  691, 1221,  695,  696
4602,  914, 1156, 1175,  866
4603, 1111,  737,  736,  732
4604, 1173,  402,  429,  428
4605, 1070,  778,  177,  779
4606,  594,  595, 1073,  607
4607, 1067,  178,    8,  773
4608, 1205,  786,  787,  791
4609, 1290,  699,  695,  700
4610,   93,   92, 1223,  697
4611, 1152,   76, 1165,  777
4612,  949,  872,  572,  951
4613, 1070,  774,  775,  177
4614, 1219,  700, 1290,  695
4615, 1199,  216,  217,  243
4616, 1203, 1201, 1305,   23
4617, 1152,  776,  771,  772
4618, 1167,  775,  771,  776
4619, 1296,  703,  698,  699
4620, 1232,  282,  283,  309
4621, 1321, 1323,  278, 1322
4622,  993, 1171, 1150, 1148
4623, 1253,  176,  775,  776
4624, 1221,  690,  691,  695
4625, 1071,  178,  773,  774
4626, 1067,  773,    8,  132
4627, 1167,  774,  770,  775
4628, 1152,  777,  776,  772
4629, 1007,  742, 1267,  747
4630,  747, 1267,   83,  742
4631,  177, 1070,  779,  176
4632, 1313,  706,  711,  710
4633, 1070,  176,  177,  775
4634, 1054,  488,  484,  489
4635, 1054,  485,  490,  489
4636, 1066,  165,  793,  798
4637,  995,  759,  763,  758
4638, 1010,   83, 1267,  742
4639, 1027,  495,  490,  491
4640,  965,  493,   58,  488
4641, 1072,  421,  131,  420
4642, 1068,  132,    8,  133
4643,  457, 1264, 1192,  462
4644,  999,  493,  488,  489
4645,  999,  489,  494,  493
4646, 1149,  770,  769,  765
4647,  395, 1163, 1274,  396
4648, 1147,   78,   77,  772
4649, 1017,  322, 1267,  323
4650, 1027,  490,  495,  494
4651, 1147,  771,  766,  767
4652,  967,   34,  507,   35
4653, 1070,  774,  178, 1071
4654,  925,  271,  270,  244
4655, 1027,  492,  496,  491
4656, 1007,  747,   82,  752
4657,  346, 1271,  345,  372
4658, 1071,  773,  769,  774
4659, 1157,  369,  395,  368
4660, 1149,  764,  765,  769
4661, 1071,  769,  773,  768
4662, 1167,  775,  770,  771
4663, 1126,   65,  299,  300
4664,  493,  856,   58,   59
4665,  920, 1097,  924, 1226
4666, 1027,  496,  495,  491
4667,   82,  747, 1267,   83
4668, 1273,  989,  994,  998
4669,  965,  856,  963,  969
4670, 1245,  131,  763,  768
4671,  870,  708,  713,  120
4672,  911,   35,  502,   36
4673,  857,  494,  499,  498
4674, 1051,  284, 1232,  283
4675,  857,  494,  498,  493
4676,  409, 1331, 1297,  436
4677, 1324,  515,  510,  511
4678, 1151,   79,   78,  767
4679, 1152,  772,   77,  777
4680, 1004,   80,   79,  762
4681,  911,  497,  502,  501
4682,  880,  498,  499,  503
4683, 1239,  510,  506,  511
4684,  992,  754,  987,  755
4685, 1267,   82,   83,  323
4686, 1243,  764,  760,  765
4687, 1168,  768,  763,  764
4688,  330,   90, 1291, 1288
4689, 1072,  131,  768,  132
4690, 1025, 1074, 1073, 1252
4691,  621, 1023,  136, 1021
4692, 1162,  343,  317,  344
4693, 1147,  767,   78,  772
4694, 1275, 1066,  164,  163
4695,  850,  810,  811,  815
4696, 1213,  252,  226,  253
4697,  995, 1243,  764,  759
4698,  995,  759,  764,  763
4699,  759,  995,  992,  758
4700, 1298,  514,  509,  510
4701, 1152, 1150, 1164, 1166
4702,  992,  760,  759,  755
4703,  880,  503,  499,  504
4704, 1246, 1268,  781, 1248
4705, 1274,  396,  423,  422
4706,  992,  755,  991,  760
4707,  879,  857,  880,  858
4708, 1331,  437,  436,  410
4709, 1308,  757,  752,   81
4710,  166,  982,  643, 1064
4711,  987,  750,  754,  749
4712, 1239,  509,  505,  510
4713, 1249,  984,  985,  901
4714, 1151,  762,   79,  767
4715, 1005,  752,  756,  751
4716, 1318,  200, 1213,  226
4717, 1151,  767,  766,  762
4718, 1014, 1012, 1013,  427
4719,  920,  924,  193,  923
4720, 1032,   48,   49,  289
4721, 1274,  397, 1273,  423
4722, 1221,  691,  687,  692
4723,  746, 1005, 1007, 1008
4724, 1026,  174,    5,  782
4725, 1253,  176,  776,  175
4726,  878,  502,  507,  506
4727, 1029,  288,  315,  314
4728,  686, 1221,  690,  691
4729,  923,  246,  245,  219
4730, 1149,  770,  765,  766
4731,  960, 1301, 1317, 1098
4732, 1093,  144,  839,  840
4733, 1255, 1164, 1165, 1026
4734, 1239,  511,  506,  507
4735, 1308,  757,   81,   80
4736, 1007, 1010,  742, 1009
4737,  967, 1287,  201,  227
4738, 1004,  757,   80,  762
4739, 1006, 1009, 1008,  746
4740, 1009,  746,  741,  742
4741,  686,  691,  687, 1221
4742, 1131,  519,  523,  518
4743, 1087,  843, 1095,  877
4744,  692, 1223,   93,   94
4745,  886,  818,  885,  823
4746, 1002,  739,  744,  743
4747,  993, 1150, 1245, 1168
4748, 1010,  742,  741,  737
4749, 1167,  774,  769,  770
4750, 1132,   65,   64,  523
4751,  198,   30, 1345, 1277
4752, 1098, 1317,  960,  195
4753,  685,  681,  680,  881
4754,  987,  751,  756,  755
4755, 1003,  425,  127, 1018
4756, 1324,  512,  517,  516
4757,  990, 1005, 1007, 1308
4758, 1327,   33,   32,  517
4759,  908,  725,  720,  721
4760, 1337, 1004, 1271, 1308
4761, 1000,  748,  127,  743
4762, 1169,  130,  758,  763
4763, 1323,   61,  304,   60
4764, 1338,  296,  270,  297
4765, 1243,  765,  761,  766
4766, 1105,  886,  855,  885
4767,  861,  433,  432,  406
4768, 1006,  740,  741,  745
4769, 1175,  405,  379,  406
4770, 1005,  751,  747,  752
4771,  570,  565,  569, 1161
4772,  587,  845,  588,  153
4773, 1306,  220,  923,  194
4774,  293, 1234,  267,  266
4775,  734,  735, 1115,  739
4776,  240, 1235,  214,  959
4777, 1263,  187,  214,  213
4778, 1235,  266,  240,  267
4779, 1324, 1328, 1325,  516
4780, 1326,   63,   62,  513
4781,  845,  843,  587,  844
4782, 1103,  541,  545,  540
4783, 1263,  959,  213,  214
4784, 1324,  516,  511,  512
4785,  959,  240,  239,  213
4786,  306,  858,  856,  969
4787, 1263,  959, 1154,  213
4788, 1107,  574,  951,  575
4789, 1263,  213, 1154,  187
4790, 1118,  727,  732,  731
4791, 1277,   31,  527,  522
4792, 1116,  730,  726,  731
4793,  872,  187, 1263, 1154
4794,  232,  258, 1051,  231
4795, 1116,  725,  726,  730
4796, 1230, 1232,  310,  309
4797,  966,  283,  256,  257
4798,  861,  431,  120,  864
4799, 1172,  123,  728,  124
4800,  911,  497,   36,  502
4801, 1017,  348,  375,  374
4802, 1135,  724,  729,  728
4803,  896, 1174,   37,  204
4804,  352, 1341,  351, 1342
4805, 1326,  513,  518,   63
4806,  910,  727,  722,   87
4807,   86,  913, 1118,   85
4808,  389,  996,  363,  362
4809, 1251, 1250,  631, 1276
4810,  901,  605,  592,  593
4811,  909,  726, 1118, 1116
4812,  389, 1247,  997,  415
4813,  919,  543,  538,  539
4814, 1317,   29,   28,  537
4815,  530, 1128, 1129,  531
4816, 1131,  524,  523,  519
4817, 1133,  724,  723,  719
4818, 1172,  123,  124,  428
4819,  875,  717,  722,  721
4820, 1343,  532,  531,  527
4821, 1306, 1098,  923, 1160
4822, 1288,  707,  706,  702
4823,  551,  917,  546,  550
4824, 1110,  252,  279, 1323
4825, 1336,  526,  522,  527
4826,  875,  908,  868,  721
4827,  982,  644,  165,  643
4828, 1232,  309,   56,  308
4829,  908,  724,  719,  720
4830,  978,  486,  491,  490
4831, 1155,  909,  866,  913
4832, 1199,  243,  242,  216
4833,  865,  864, 1133,  866
4834,  203,   36,  970, 1174
4835, 1014,  125,  426,  427
4836,  165,  166,  982,  643
4837, 1113,  729,  733,  728
4838,  724, 1136,  908, 1133
4839, 1340,   41,   42,  209
4840,  921,   68,  297,   67
4841, 1127,  533,  528,  529
4842, 1125,  524,  529,  528
4843,  938,   54,  311,   53
4844, 1300,  538,   67,  533
4845,   36,   37,  911, 1174
4846, 1180,  938, 1181,  473
4847, 1236, 1191, 1082,   42
4848, 1282,  610, 1202, 1266
4849,  875,   87,  722,   88
4850, 1097,  542, 1229,   27
4851, 1343,  526,  531,  530
4852, 1292, 1288,   90,  707
4853,  910,  727,   87,   86
4854, 1210,  479,  483,  478
4855, 1229, 1128,  537,  536
4856, 1071,  768, 1244,  769
4857, 1128,  530, 1343,  531
4858,  295, 1059, 1204,   70
4859,  355,  863, 1291,  862
4860, 1232,  966,  964,  965
4861, 1292, 1288,  707,  706
4862,   37,   38,  492,  897
4863,  865,  718,  714,  719
4864, 1102,  298,  272,  299
4865,  896,  492,  897,   37
4866,  909, 1136, 1155,  866
4867,  908,  715,  720,  719
4868,  865,  718,  713,  714
4869,  909, 1118,  727,  913
4870,  978,  487,  492,  491
4871,  916,  543,  544,  548
4872, 1097,   26,  194,  193
4873,  869,  863, 1292, 1293
4874,  964,  281,  308,  307
4875, 1118,  731,  726,  727
4876, 1100,  539,  538,  534
4877,  876,   89,   88,  717
4878,  875,  722,  717,   88
4879,  897,  492,  487,   38
4880, 1045, 1084, 1090,  826
4881,  371, 1272, 1273,  372
4882, 1228,  373,  372,  346
4883,  886,  884,  169,  639
4884, 1296, 1312,  118, 1177
4885,  868,  720,  715,  716
4886,  921,  926,  298,  297
4887,  868,  709,  710,  714
4888, 1060,  553,  548,  549
4889,  165,  982, 1066,  164
4890, 1002,  126,  125,  738
4891,  415, 1247,  997,  414
4892, 1129,  540,  539,  535
4893,  990, 1286,  998, 1308
4894, 1127,  529,  534,  533
4895, 1342,  352, 1156,  378
4896, 1338,   68,   69,  296
4897,  919,  543,   68,  538
4898, 1083, 1138, 1137,  364
4899,  946,  668,  673,  112
4900, 1137, 1138,  416,  390
4901,  875,  717,  721,  716
4902, 1301, 1344, 1300, 1102
4903,  896,   37,   38,  205
4904, 1144,  418,  392,  419
4905,  916,  544,  549,  548
4906, 1099, 1229,  541,  536
4907, 1288,  702,   91,  707
4908, 1311,  383,  409,  382
4909, 1291,  329,  330,  356
4910,  531, 1128, 1129,  536
4911, 1177,  119,  870,  433
4912,  899,  156,  900,  591
4913, 1133,  723,  122,  718
4914, 1311, 1294,  383,  382
4915,  864,  121,  431,  120
4916,  864,  430,  431,  121
4917, 1131,  941, 1326, 1132
4918, 1274, 1245, 1158,  422
4919,  923,  220,  246,  219
4920,  392,  366, 1144,  393
4921, 1339,  357, 1294,  331
4922, 1198,  287, 1237,  261
4923, 1080,  468,   53,  463
4924, 1288,  330,  331, 1294
4925,  801,  983,  802,  797
4926,  541,  540, 1099,  536
4927, 1291, 1288, 1294,  330
4928, 1291,  330,   89,   90
4929,  844,  601,  588,  589
4930, 1129,  539,  534,  535
4931,  876,  712,   89,  717
4932, 1060, 1063,  553,  554
4933, 1326,  922,  941, 1279
4934, 1186,  286,  312,  285
4935, 1340, 1236, 1187, 1185
4936, 1097,   27,  547,  542
4937, 1220,  702,   92,   91
4938, 1291,  329,   89,  330
4939, 1301, 1102, 1160, 1344
4940, 1236,  208,  209,  235
4941, 1282, 1281,  597,  596
4942, 1237,  234,  235,  261
4943, 1092,  585,  597,  584
4944, 1219,  695,  696,  700
4945, 1290,  699,  694,  695
4946,  924,  218,  192,  219
4947, 1014,  126,  426,  125
4948, 1082,   42,   43,  210
4949, 1297,  116,  435,  436
4950,  916,  543,  548,   69
4951, 1251,  632,  645,  644
4952,  917,  916,  544,  549
4953, 1060,  554,  550,  555
4954, 1095,  626,  613,  614
4955, 1297,  116,  117,  435
4956, 1290,  698,  693,  694
4957,  886, 1041,  170,  823
4958,  924, 1227, 1203,  918
4959, 1288,   91,   90,  707
4960, 1307, 1309,  384,  358
4961, 1192,  454,  455,  459
4962,  892,  694, 1290,  693
4963, 1098,  195,  194,   27
4964, 1226,  918,  917, 1062
4965, 1237,  260,  287,  286
4966, 1179, 1186, 1233, 1185
4967,  976,  809,  889,  808
4968, 1198,  288,  261,  262
4969, 1242,  466,  462,  467
4970, 1242,  461,  462,  466
4971, 1292,  707,   90,  712
4972, 1242,  461, 1191,  462
4973,  917,  550,  549,  545
4974, 1100, 1102, 1300,  921
4975,  691, 1221,  696,  692
4976, 1059,   70,  548,  553
4977, 1290,  693,  698,  117
4978,  891,  690, 1221,  695
4979, 1062,  555,  550,  551
4980, 1290,  694,  699,  698
4981, 1291,  356,  330, 1294
4982, 1242, 1191,  467,  462
4983,  519, 1325,  518, 1131
4984, 1203,  218,  925,  217
4985,  702, 1289,  701,  706
4986, 1237,  260,  261,  287
4987, 1078,   51,  313,  314
4988, 1197, 1194, 1242, 1076
4989,   25,  924,  193,   26
4990, 1080,   52, 1195,  463
4991, 1296, 1297, 1312, 1293
4992, 1194,  469,  464,  465
4993, 1198,  261,  288,  287
4994,  552, 1097,  547, 1226
4995, 1282, 1040, 1266, 1202
4996, 1311, 1331, 1307, 1297
4997, 1081, 1032, 1038, 1033
4998, 1289, 1288,  702, 1219
4999, 1123,  689,  685,  690
5000, 1078,   51,   52,  313
5001, 1063,  558,   71,  553
5002, 1204,  243,  269,  242
5003, 1292,  712,   90,   89
5004, 1263,  214,  188,  215
5005, 1104,  145,  455,  454
5006, 1024,  633,  645,  632
5007,  690, 1221,  686,  685
5008, 1197,  467, 1191,   42
5009, 1260, 1033,   47,  609
5010, 1258,   23,   22,  567
5011,  867,  499,  495,  500
5012, 1063,  554,  559,  558
5013,  892,  689,  693,  688
5014, 1133, 1135, 1134,  122
5015, 1176, 1312,  434,  408
5016,  908,  865,  714,  719
5017, 1331,  411,  437,  410
5018, 1134,  429,  122,  123
5019, 1236,  234,  208,  235
5020, 1219,  696, 1221,  697
5021, 1234,  293,  267,  294
5022, 1314, 1341,  350,  324
5023, 1223, 1283, 1222,  359
5024, 1342,  378,  351,  352
5025, 1173,  430,  429,  403
5026,  893,  680,  685,  684
5027, 1341,  325,  326,  352
5028, 1134, 1136, 1173, 1172
5029, 1057,  559,  555,  560
5030,  896,  979,  898,  897
5031, 1100,  919,  920,  921
5032,  565, 1153, 1161,  570
5033,  864, 1329, 1133,  866
5034,  893,  684,  683,  679
5035, 1161,  568,  563,  564
5036, 1258,  562,   23,  567
5037,  869, 1296, 1289, 1313
5038, 1076, 1181, 1194,  470
5039, 1183,  233,  207, 1185
5040,  681, 1310,  680,  881
5041,  992,  993,  995, 1243
5042,  583, 1281, 1260,  596
5043, 1057,  559,  560,  564
5044, 1333,  562,  567,  566
5045,  692, 1221,  696,  697
5046,  891, 1290,  892,  694
5047, 1033,  622,   48,  609
5048,  877,  587,  599,  586
5049, 1200, 1263,  188,  215
5050, 1219,  701, 1289,  700
5051, 1256,  440,  112,  439
5052,  877,  599,  612,  611
5053, 1241,  559,  564,  563
5054, 1106,  181,  955,  179
5055, 1054,  485,  489,  484
5056,  915,  920,  917,  919
5057, 1044,  836,  835,  831
5058,  890,  688,  683,  684
5059,  893,  684,  679,  680
5060, 1084,  826,  821,  822
5061, 1124,  675,  679,  674
5062, 1333,  565,  561,  566
5063,  565,  570,  566, 1333
5064, 1153, 1333,  873,  951
5065, 1258,  873,  189,  871
5066, 1225, 1182,  476,  481
5067,  570, 1153, 1333,  565
5068,  680, 1310,  681,  676
5069,  872,  577,  572,   21
5070,  573,  951,  574,  569
5071, 1333,  570,  566,  571
5072, 1336,  522,  526,  521
5073,  571,  951,  576,  572
5074,  675,  680,  676, 1310
5075, 1085,  150,  837,  832
5076,  843,  153,  587,  152
5077,  877,  598,  599,  611
5078,  944,  678,  674,  679
5079,  947,  683,  114,  678
5080,  675, 1310,  676,  847
5081,  671,  675,  847,  670
5082, 1333,  566,  561,  562
5083, 1216,  949,  582,  581
5084, 1161,  573,  568,  569
5085,  951,  575,  571,  576
5086, 1320, 1279, 1326,  941
5087, 1127,  533,   66,  528
5088,  997,  912,  888,  362
5089,  957,  573,   74,  568
5090,  951,  570,  575,  574
5091, 1253,  776, 1164, 1165
5092,  855,  820,  816,  821
5093, 1333,  951, 1153,  570
5094, 1140, 1137, 1334,  415
5095, 1330, 1296, 1290, 1289
5096, 1274, 1171, 1158, 1245
5097,  894,  683,  115,  114
5098,  847, 1124,  675, 1310
5099, 1106,  579,   10,    9
5100,  873, 1258,   22,  567
5101,  955,  185,  179,  181
5102,  847,  675,  674,  670
5103,  566, 1333,  571,  567
5104,  567, 1333,  571,  873
5105,   22,  189,  873,   21
5106,  965,  307,  308,   57
5107,  945,  997,  912,  888
5108,  947,  113,  678,  114
5109,  965,  488,   58,   57
5110, 1100,  538,  533,  534
5111, 1241, 1161,  563,  564
5112, 1107,  580,  579,  575
5113, 1069,    8,  161,  133
5114,  790,  791,  986,  795
5115,  953,  949, 1216,  954
5116, 1090,  832, 1085,  827
5117, 1216,  581,   12,  182
5118, 1212,  582,   19,  183
5119, 1212,  186,   19,  187
5120,  953,  577,   20,  582
5121, 1103,  540, 1099,  541
5122, 1106,  579,    9,  578
5123,  934,   15,  184,  212
5124, 1103,  546,  917,  545
5125,  944,  678,  673,  674
5126, 1106,  955,   75,  179
5127, 1106,  578,  574,  579
5128,  848,  945,  888,  996
5129, 1189,  664,  663,  659
5130, 1090,  586,  585,  151
5131, 1045,  829,  824,  825
5132,  109,  933,  108,  443
5133, 1039,  806,  811,  810
5134,  581,  580,   11,  182
5135,  951, 1153,  570, 1161
5136,  393, 1120,  419,  451
5137, 1335,  666,  665,  661
5138,  907,  604,  617,  616
5139,  953,   19,  582,   20
5140,  949,  576,  577,  581
5141,  582,   13,   19,  183
5142, 1085,  832,  831,  827
5143,  843,  600,  844, 1095
5144,  973,  811,  806,  807
5145,  845,  817,  154,  153
5146, 1026,  174, 1165,    5
5147, 1028,   47,  263,  237
5148, 1101,  842,  148,  147
5149,  985,  157,  797,  158
5150,  841,  145,  146, 1101
5151, 1332,   57,   56,  483
5152, 1190, 1192, 1194, 1195
5153,  148,  149,  842, 1094
5154,  928,  660,  665,  664
5155, 1100, 1127,  534,  533
5156, 1129,  535,  534,  530
5157,  903,  973,  902,  904
5158,  148,   45, 1265,    3
5159,  930,  650,  654,  649
5160, 1124,  675,  680,  679
5161, 1331, 1218, 1309, 1261
5162, 1103,  917,  919,  544
5163, 1260,  583,  596,   46
5164, 1322,  278,  251,  252
5165,  948,  113,  112,  673
5166,  937,  656,  660,  655
5167,  936,  656,  652,  657
5168, 1139,   99,   98,  667
5169, 1103, 1226,  917,  546
5170, 1089, 1040, 1265, 1281
5171,  901,  157,  158,  592
5172,  873,  572,  567,   22
5173,  837, 1089, 1094,  149
5174, 1266,  610,  623,  622
5175, 1095,  600,  601,  613
5176,  930,  650,  655,  654
5177, 1241,  558,  559,  563
5178, 1119, 1295,  930,  649
5179, 1260,  596,  609,   47
5180,  584,  150, 1092,  585
5181, 1144,  365,  392,  391
5182, 1119,  653,  649,  654
5183,  936,  656,  651,  652
5184, 1049,  558,  563,   72
5185,  936,  100,  657,  101
5186,  916,  543,   69,   68
5187,  173, 1178,  838,  833
5188, 1281,  596,  583,  584
5189,    3,   44,   45, 1036
5190, 1097,   27,   26,  547
5191,  847,  670,  674,  669
5192, 1137,  389,  416,  415
5193, 1295,  649,  140,  650
5194, 1105, 1045,  824,  825
5195, 1125, 1131, 1130, 1128
5196,  953,  954, 1216, 1212
5197,  937, 1335,  662,  939
5198,  926,  298,  271,  272
5199, 1161,  565,  569,  564
5200,  937,  661, 1335,  660
5201, 1045,  830,  825,  826
5202,  110, 1211,  663,  658
5203,  928,  659,  655,  660
*Nset, nset=PIPE_CEL_BODY, generate
    1,  1345,     1
*Elset, elset=PIPE_CEL_BODY, generate
    1,  5203,     1
*Elset, elset=PIPE_SOLID_ALL, generate
1, 5203, 1
*Surface, type=ELEMENT, name=PIPE_SOLID_SURF
PIPE_SOLID_ALL, S1
PIPE_SOLID_ALL, S2
PIPE_SOLID_ALL, S3
PIPE_SOLID_ALL, S4
** Section: SEC_PIPE_RIGID
*Solid Section, elset=PIPE_CEL_BODY, material=MAT_PIPE_RIGID
,
*End Part
**  
** ROBOT TRANSVERSE SHRINK: PCA minor axes scaled to 0.90; long axis unchanged
*Part, name=Robot_SOLID
*Node
1, 3.43472225275, -4.86226208389, -6.86025986431
2, 3.95675337699, -4.88513515563, -7.20912625246
3, 3.76246273074, -4.87331943111, -6.43736251544
4, 6.34266350067, -5.15728505012, -6.52480888697
5, 6.17046934444, -5.16416350179, -5.89737128719
6, 3.56618829152, -4.85820625182, -7.02477517213
7, 3.74664822189, -4.86045322335, -7.17702249192
8, 3.92660090733, -5.05597548022, -7.17345635768
9, 3.88317999837, -5.19180905798, -7.06842273681
10, 3.8350901539, -5.26573178382, -6.9148283309
11, 3.79185641314, -5.2631024152, -6.74309468168
12, 3.76204186105, -5.18444206975, -6.5872354885
13, 3.75155131231, -5.04533042341, -6.47812088153
14, 3.59273783192, -4.86642110837, -6.56727895754
15, 3.47903226342, -4.86431718758, -6.7101091085
16, 3.7926152004, -4.70247910652, -6.47303241021
17, 3.83603611929, -4.56664552888, -6.57806603086
18, 3.88412596376, -4.49272280304, -6.73166043677
19, 3.92735969459, -4.49535217154, -6.90339408621
20, 3.95717424668, -4.57401251699, -7.05925327939
21, 3.96766480081, -4.713124587, -7.16836788506
22, 4.15691353388, -4.90985008491, -7.15874708808
23, 4.35707393937, -4.9345650261, -7.10836790895
24, 4.55723434547, -4.95927995947, -7.05798830448
25, 4.75739475074, -4.98399490063, -7.00760913441
26, 4.95755514619, -5.00870983269, -6.95722995554
27, 5.15771556222, -5.03342476617, -6.90685035085
28, 5.35787595756, -5.05813970722, -6.856471181
29, 5.55803588627, -5.08285463388, -6.80609201278
30, 5.75819629142, -5.10756956603, -6.75571284273
31, 5.95835669786, -5.13228450844, -6.70533322918
32, 6.15861261313, -5.14937416425, -6.64727082591
33, 6.3224274246, -5.28652722483, -6.53297586998
34, 6.28371327072, -5.42045621574, -6.46957039448
35, 6.23573777543, -5.50635771887, -6.33306249385
36, 6.19387287571, -5.51388150612, -6.16821930406
37, 6.16888530022, -5.44008623377, -6.02471880833
38, 6.16154225005, -5.31541073495, -5.93089869875
39, 5.96422671159, -5.14518414385, -5.88318987167
40, 5.76406631614, -5.12046921179, -5.93356905054
41, 5.56390590011, -5.09575427831, -5.98394865523
42, 5.36374550477, -5.07103933726, -6.03432782508
43, 5.16358509389, -5.04632397241, -6.08470700552
44, 4.96342468779, -5.02160903904, -6.13508660998
45, 4.76326475897, -4.99689410336, -6.18546577824
46, 4.56310435381, -4.97217917121, -6.23584494828
47, 4.36294394771, -4.94746423784, -6.28622455275
48, 4.16278354222, -4.92274929666, -6.33660373187
49, 3.96262314699, -4.89803436462, -6.38698290169
50, 6.34450408065, -5.05711874149, -6.47223861249
51, 6.34255854315, -4.9533228935, -6.42526268846
52, 6.32164924477, -4.87088119833, -6.32731535435
53, 6.28357526037, -4.84104687132, -6.18648394233
54, 6.23711449093, -4.89027233178, -6.03857634532
55, 6.19622337474, -5.01047949135, -5.9331071102
56, 3.78186455567, -5.08134432524, -7.1304212028
57, 3.67052983, -5.05561038534, -7.06878234754
58, 3.7348596065, -5.17051013691, -7.02390128398
59, 3.54225335563, -4.98564429667, -6.96687044278
60, 3.6212795013, -5.10748361183, -6.9538344947
61, 3.67753839561, -5.1926364312, -6.86731286042
62, 3.54988652263, -5.07961306444, -6.82873309623
63, 3.63203530092, -5.14569613362, -6.71212948548
64, 3.46832575278, -4.96851441427, -6.80427093141
65, 3.52237091372, -5.00604250938, -6.6920939298
66, 3.62705470044, -5.05877967164, -6.59431368878
67, 3.58964284305, -4.72219956453, -6.64112778657
68, 3.72397588046, -4.5734461935, -6.65642332889
69, 3.51067664233, -4.74696307478, -6.76563930767
70, 3.61020388207, -4.63821202793, -6.75403485033
71, 3.73380469265, -4.52814235983, -6.83128348646
72, 3.58430585795, -4.67473567479, -6.90735811239
73, 3.77167809457, -4.5530363172, -6.98146901711
74, 3.72434195817, -4.66759132187, -7.09810633761
75, 3.84268105574, -4.69053101687, -7.14876854424
76, 4.12676131821, -5.08069084507, -7.12307717724
77, 4.32692172431, -5.10540577844, -7.07269757278
78, 4.52708212958, -5.1301207196, -7.02231840271
79, 4.72724252503, -5.15483565166, -6.97193922383
80, 4.92740293019, -5.17955058381, -6.92156005379
81, 5.1275633364, -5.20426552619, -6.8711804493
82, 5.32772326511, -5.22898045286, -6.82080128107
83, 5.52788367038, -5.25369539402, -6.770422111
84, 5.7280440767, -5.27841032742, -6.72004249748
85, 5.92820448186, -5.30312525956, -6.66966332743
86, 6.12830895494, -5.31672011001, -6.61589382443
87, 4.08334040447, -5.21652399135, -7.01804313235
88, 4.28350080996, -5.24123893253, -6.96766395322
89, 4.48366120519, -5.26595386456, -6.9172847834
90, 4.68382114454, -5.29066879255, -6.86690518958
91, 4.88398155004, -5.31538373373, -6.81652601046
92, 5.08414194526, -5.34009866576, -6.76614684064
93, 5.28430235064, -5.36481359794, -6.71576766154
94, 5.48446275686, -5.38952854032, -6.66538805704
95, 5.68462316224, -5.41424347249, -6.61500887795
96, 5.88478355746, -5.43895840452, -6.56462970813
97, 6.08491915372, -5.46184045865, -6.51431546546
98, 4.03525054935, -5.29044671588, -6.86444915203
99, 4.23541096538, -5.31516164936, -6.81406954734
100, 4.43557136072, -5.33987659041, -6.76369037749
101, 4.63573175617, -5.36459152247, -6.71331119862
102, 4.83589169552, -5.38930645045, -6.6629316048
103, 5.03605210079, -5.4140213916, -6.61255243473
104, 5.23621249624, -5.43873632366, -6.56217325585
105, 5.43637291239, -5.46345126616, -6.51179365114
106, 5.63653330784, -5.48816619822, -6.46141447226
107, 5.83669371299, -5.51288113037, -6.41103530222
108, 6.0368541192, -5.53759607275, -6.36065569772
109, 3.99201682917, -5.28781734869, -6.69271507699
110, 4.19217698628, -5.31253227799, -6.64233590356
111, 4.39233739155, -5.33724721915, -6.59195673348
112, 4.592497787, -5.36196215121, -6.54157755461
113, 4.79265820853, -5.38667751737, -6.49119794858
114, 4.99281860376, -5.4113924494, -6.44081877876
115, 5.19297900925, -5.43610739059, -6.39043959963
116, 5.39313941535, -5.46082232396, -6.34005999517
117, 5.59329982062, -5.48553726512, -6.2896808251
118, 5.79345974933, -5.51025219179, -6.23930165687
119, 5.99362015543, -5.53496712516, -6.18892205241
120, 3.96220202809, -5.20915699917, -6.53685631484
121, 4.16236242332, -5.2338719312, -6.48647714502
122, 4.36252283946, -5.2585868737, -6.4360975403
123, 4.56268323491, -5.28330180576, -6.38571836143
124, 4.76284364018, -5.30801674692, -6.33533919136
125, 4.96300404651, -5.33273168032, -6.28495957784
126, 5.16316445166, -5.35744661246, -6.23458040779
127, 5.36332437055, -5.38216154803, -6.18420123977
128, 5.56348478658, -5.40687648151, -6.13382163507
129, 5.76364518181, -5.43159141354, -6.08344246526
130, 5.96380559269, -5.4563067784, -6.03306328482
131, 3.95171170788, -5.07004536448, -6.42774170262
132, 4.15187211303, -5.09476029662, -6.37736253258
133, 4.35203251913, -5.11947523, -6.32698292812
134, 4.55219292463, -5.14419017118, -6.27660374899
135, 4.75235285311, -5.16890509782, -6.22622458982
136, 4.95251325943, -5.19362003122, -6.1758449763
137, 5.1526736647, -5.21833497238, -6.12546580622
138, 5.35283406015, -5.24304990444, -6.07508662735
139, 5.5529944763, -5.26776484694, -6.02470702263
140, 5.75315487152, -5.29247977897, -5.97432785281
141, 5.9533152769, -5.31719471114, -5.92394867371
142, 6.30217952956, -4.94837249344, -6.30453373849
143, 6.24736588084, -4.98258808622, -6.12260722765
144, 6.20504544756, -5.13957042209, -6.03218769423
145, 6.20948251614, -5.27692041992, -6.11713601094
146, 6.22094850018, -5.39114738225, -6.21882771503
147, 6.27042370884, -5.34259704543, -6.38392645827
148, 6.32575784119, -5.05207336099, -6.43452100088
149, 6.29995789254, -5.20061762448, -6.4197737443
150, 6.26315636182, -5.12032730249, -6.24893078645
151, 6.2527099551, -5.26517144993, -6.28048904367
152, 5.9943789373, -4.97434339282, -5.91885978225
153, 6.03779984112, -4.83851024643, -6.02389382737
154, 6.08586150555, -4.76596198892, -6.17931245096
155, 6.12907970548, -4.77726402805, -6.3560674215
156, 6.15904601196, -4.8571401636, -6.50646719058
157, 6.16961752502, -4.9881570841, -6.60823367658
158, 5.79421852116, -4.94962845032, -5.96923938696
159, 5.83763992223, -4.81379531086, -6.0742729954
160, 5.88572929002, -4.73987257951, -6.22786741218
161, 5.9289632538, -4.74250152711, -6.3996010575
162, 5.95877781582, -4.82116187267, -6.55546025045
163, 5.96926813161, -4.96027393993, -6.66457486156
164, 5.59405812593, -4.92491351829, -6.01961855678
165, 5.63747951707, -4.78908037872, -6.12465216544
166, 5.68556936154, -4.71515765287, -6.27824657135
167, 5.72880285846, -4.71778658606, -6.44998022735
168, 5.75861741032, -4.79644693148, -6.60583942958
169, 5.76910820279, -4.93555900424, -6.71495402981
170, 5.39389772055, -4.90019858611, -6.06999773588
171, 5.43731910524, -4.76436501264, -6.1750317803
172, 5.48540894971, -4.6904422868, -6.32862618621
173, 5.52864244243, -4.69307165258, -6.50035983204
174, 5.5584570151, -4.77173199945, -6.6562185994
175, 5.56894779763, -4.9108440721, -6.76533319985
176, 5.19373779101, -4.87548364923, -6.1203773295
177, 5.23715869997, -4.73965007148, -6.22541095037
178, 5.28524854456, -4.66572735465, -6.37900535626
179, 5.32848204698, -4.66835672052, -6.55073901091
180, 5.35829659907, -4.74701706597, -6.70659820409
181, 5.36878740218, -4.88612914004, -6.81571237873
182, 4.99357738563, -4.85076871706, -6.1707565086
183, 5.03699830452, -4.71493513942, -6.27579012925
184, 5.08508814899, -4.64101241358, -6.42938453516
185, 5.12832164171, -4.64364177936, -6.60111818098
186, 5.15813667025, -4.72230213029, -6.75697737235
187, 5.16862698604, -4.86141419754, -6.86609198345
188, 4.79341699041, -4.82605378503, -6.22113567842
189, 4.83683788849, -4.69022020594, -6.32616973394
190, 4.88492773296, -4.61629748009, -6.47976413985
191, 4.92816123539, -4.61892684596, -6.6514977945
192, 4.95797627502, -4.69758719826, -6.80735654216
193, 4.96846659081, -4.83669926551, -6.91647115327
194, 4.59325657427, -4.80133884253, -6.27151528314
195, 4.63667749315, -4.66550526489, -6.37654890379
196, 4.68476733774, -4.59158254806, -6.53014330967
197, 4.72800130691, -4.59421191932, -6.70187695367
198, 4.75781586953, -4.67287225707, -6.85773572129
199, 4.76830618543, -4.81198433334, -6.96685033236
200, 4.39309617881, -4.77662391047, -6.32189446201
201, 4.43651708777, -4.64079033272, -6.42692808288
202, 4.48460693224, -4.56686760688, -6.58052248879
203, 4.52784090141, -4.56949697813, -6.7522561328
204, 4.55765546343, -4.6481573237, -6.90811532576
205, 4.56814577922, -4.78726939095, -7.01722993686
206, 4.19293577355, -4.75190896931, -6.37227363208
207, 4.23635668167, -4.61607539935, -6.47730768735
208, 4.28444652615, -4.54215267351, -6.63090209326
209, 4.32768049531, -4.54478204476, -6.80263573727
210, 4.35749505827, -4.62344239155, -6.9584944958
211, 4.36798537384, -4.76255445878, -7.06760911596
212, 3.99277536745, -4.72719403594, -6.42265323655
213, 4.03619675285, -4.59136046367, -6.5276868556
214, 4.08428612065, -4.51743773232, -6.68128127239
215, 4.12752009997, -4.52006710372, -6.85301490711
216, 4.15733466271, -4.59872745048, -7.0088736747
217, 4.1678249785, -4.73783951773, -7.1179882858
218, 5.8361745679, -4.97623081586, -6.37612869892
219, 5.95419509471, -4.8908928016, -6.26388153738
220, 5.98271944925, -5.12394322556, -6.37561119226
221, 5.7125459852, -5.09560132906, -6.18425477869
222, 5.9276385201, -5.02631775761, -6.17998284921
223, 6.06210055171, -4.97597884251, -6.45356330292
224, 5.73448676137, -4.95537854897, -6.15848354819
225, 3.6137219332, -4.80440383857, -6.84529820121
226, 3.75586617088, -4.82576542529, -6.71484385728
227, 3.61831064019, -4.91620185923, -6.83558608809
228, 3.7027316105, -4.85303440002, -6.96238691398
229, 4.50657695441, -5.19914691058, -6.58352001113
230, 4.36220684594, -5.17232322493, -6.65352853319
231, 4.45725233417, -5.13827981347, -6.48391991139
232, 4.47373131399, -4.98403901712, -6.3943846768
233, 3.82995158871, -4.79093165218, -7.04745785584
234, 3.73360684772, -4.71177469989, -6.8887792251
235, 3.91428449138, -4.8939464975, -6.99255379516
236, 3.90180052009, -4.71871350372, -6.93565221646
237, 4.30915140435, -5.02497425923, -6.46244230772
238, 4.49155278586, -4.99295154879, -6.5605496862
239, 4.25010062059, -5.10387867072, -6.53918364988
240, 5.69094925331, -5.3066182988, -6.19232939998
241, 5.80800968124, -5.35097413813, -6.24777480894
242, 5.83929796311, -5.21081899718, -6.11368659349
243, 5.92460792005, -5.34458270599, -6.12862118799
244, 5.6419496108, -5.30482471841, -6.36727707448
245, 5.48821023559, -5.32463873634, -6.32651715145
246, 5.80808681396, -5.21957659088, -6.37642509623
247, 5.525262399, -5.21809737425, -6.17504895816
248, 5.55213269844, -5.10987180959, -6.4061840112
249, 5.51346341417, -5.25110261023, -6.52595121196
250, 4.61928630301, -4.83838133565, -6.86972224065
251, 4.83627898772, -4.9974671768, -6.79726034904
252, 4.90869486131, -4.95871651009, -6.86631133698
253, 5.92318364734, -5.05865694627, -6.06340490611
254, 5.5288426208, -4.97783281735, -6.14469098103
255, 5.59461949274, -4.95159408833, -6.24246874725
256, 5.63298601808, -5.01955502893, -6.53064517019
257, 5.69365208304, -5.23050716392, -6.53520911043
258, 5.64628673309, -4.86708768162, -6.51574286898
259, 5.80854109554, -4.89565727202, -6.51297824434
260, 5.71199227194, -4.98171843596, -6.61924468158
261, 5.69519130272, -4.86145270777, -6.35951785073
262, 5.47905628215, -4.89254272443, -6.39020370663
263, 5.4501672308, -4.85776046085, -6.57175898187
264, 5.43038859941, -5.06762843512, -6.65672269804
265, 3.86013334394, -4.96472317214, -6.84272385282
266, 3.66356198978, -5.01692016109, -6.78278470707
267, 5.12946486395, -4.93777673136, -6.26398551276
268, 5.28974353326, -4.93064809344, -6.48974690316
269, 5.02164913782, -4.97627767879, -6.33053672567
270, 5.09194094777, -4.7777620091, -6.49745144102
271, 3.98746632067, -4.79520906718, -6.80429734012
272, 3.76409453337, -5.0783657792, -6.71625042209
273, 3.78123527306, -4.95148672423, -6.6562782737
274, 3.91483774811, -5.12844871806, -6.74461519651
275, 4.06102504489, -5.06272855852, -6.64226587176
276, 4.01162674372, -5.07830323691, -6.90508023162
277, 5.99987047393, -5.25431920631, -6.51820640207
278, 5.82446729614, -5.21290629638, -6.5697686929
279, 5.97381487978, -5.37346704585, -6.3500959066
280, 5.87691788985, -5.06208277992, -6.56811986564
281, 5.38641807327, -5.26134879714, -6.64068784253
282, 5.62454214409, -5.1767081429, -6.62480725098
283, 4.24899496706, -4.76239086739, -6.8634393862
284, 4.4259350576, -4.7195741626, -6.82354912072
285, 5.29829940069, -5.1231257237, -6.62288323761
286, 5.23947352734, -5.2628855348, -6.51700023889
287, 3.87792136649, -5.04356468861, -6.57183920628
288, 3.78521528985, -4.9758710555, -7.02431286088
289, 3.96819055718, -5.05144132921, -7.03015014324
290, 4.21405912679, -5.1484079132, -6.71963406716
291, 5.42198708512, -5.05502842749, -6.32023394998
292, 5.31578425255, -4.84613792849, -6.3093569238
293, 5.27444926071, -5.1408868272, -6.35689498017
294, 5.36140472339, -5.30355389515, -6.41217583992
295, 5.05788932551, -4.84157893326, -6.70866865621
296, 5.03001516878, -5.11106918456, -6.73045051402
297, 5.09668806699, -4.98887055434, -6.51611661091
298, 4.86794789418, -4.96009210595, -6.5802652399
299, 4.84498307155, -4.7833922907, -6.72306253097
300, 5.19956346435, -4.85498221352, -6.67195578526
301, 5.21219276475, -5.02079590889, -6.73722332498
302, 5.35674403155, -4.8031590786, -6.42665511505
303, 6.07184129606, -5.26422650567, -6.01616059417
304, 4.54863454227, -4.73675144198, -6.54399310326
305, 4.36954210379, -4.76296636417, -6.51451466113
306, 5.33013613437, -4.96291659098, -6.75148898286
307, 5.27756448039, -5.14561901428, -6.17980440109
308, 5.42361548104, -5.25563834978, -6.23922871466
309, 5.07755348803, -5.10807591464, -6.26085979479
310, 5.13291124215, -5.24932775472, -6.63730862189
311, 5.12200593022, -5.21750273762, -6.24782854627
312, 5.13368743024, -5.23043075393, -6.40175440992
313, 4.18493511924, -5.0981556444, -6.94892643725
314, 4.37959698019, -5.17139338373, -6.80115909943
315, 4.67336026438, -4.96322613596, -6.39233646311
316, 4.92115962796, -5.11103488822, -6.43803703082
317, 4.73469142274, -5.08538568027, -6.55587705192
318, 4.65743832697, -4.9000496972, -6.65878908395
319, 4.8829172328, -4.90697564713, -6.37602753976
320, 4.95988846819, -5.2663124103, -6.57476290465
321, 4.21214944519, -4.89566988642, -6.62986256438
322, 4.70620785111, -5.12754477153, -6.39105612015
323, 4.10910842154, -4.95894746938, -6.49863159575
324, 4.89989637078, -5.02309383656, -6.29686893082
325, 5.75270884855, -5.37067017542, -6.42025146329
326, 3.7385343624, -5.06271677699, -6.95964088115
327, 4.21406637453, -4.69578905676, -6.67815718457
328, 4.16772803614, -4.86684508691, -6.98738600376
329, 4.16894618865, -4.67141980901, -6.83657327878
330, 4.06890448742, -4.96440761039, -6.81263332258
331, 3.99166549107, -4.83901981373, -6.57555246647
332, 6.09144051638, -5.21611937173, -6.17867660954
333, 6.10587301787, -5.04321088422, -6.19351285854
334, 6.16144297372, -5.12691306135, -6.38418754423
335, 6.24367606414, -5.13782949061, -6.49054689576
336, 6.15140307171, -5.28526293352, -6.38731034463
337, 4.58513279742, -5.20946356202, -6.7238256424
338, 4.66269566242, -5.16791796571, -6.83714912523
339, 4.67947433335, -5.22601626418, -6.5295113215
340, 4.78307147987, -5.22815221939, -6.68528751842
341, 4.69114072984, -5.05475823211, -6.77562819433
342, 3.63944835454, -5.00233698629, -6.90492567569
343, 4.80101242634, -4.75947565215, -6.50185072776
344, 3.75172086584, -4.68827255405, -6.73838020594
345, 3.61872846191, -4.82588997925, -6.72497465368
346, 3.87030034758, -4.70218053517, -6.63348116174
347, 4.39899891502, -4.95427573233, -6.93941851942
348, 4.55417699841, -4.97994964902, -6.86989887949
349, 4.43306177929, -4.8419804817, -6.81864669302
350, 4.40364485808, -4.987419566, -6.72797329865
351, 4.57430773667, -4.71746663098, -6.7475970363
352, 4.3924321589, -4.7261342278, -6.71428618238
353, 4.48509865693, -4.84527483729, -6.65846474964
354, 3.96457362118, -4.63787918988, -6.69966387658
355, 3.81532203457, -5.12052300537, -6.87755859844
356, 4.57101500282, -4.79233912048, -6.4635060544
357, 4.06305687396, -4.75972972128, -7.00491987105
358, 4.20683466696, -4.59678954628, -6.74246978708
359, 6.14086542536, -5.42050083235, -6.32389339578
360, 4.14465002655, -4.74006973737, -6.53693341369
361, 4.75333805069, -4.81068293489, -6.38962562059
362, 6.07688481882, -5.39903396777, -6.15981968162
363, 6.20817692356, -5.32658077318, -6.46137874971
*Element, type=C3D4
   1, 218, 160, 219, 161
   2, 220, 221, 222, 218
   3, 218, 220, 223, 219
   4, 218, 222, 219, 224
   5, 225, 226, 227, 228
   6, 228,  72,   6, 225
   7, 225,   6, 227,   1
   8, 122, 229, 230, 231
   9, 231, 134, 232, 133
  10, 233, 234, 235, 236
  11, 231, 237, 238, 239
  12, 231, 237, 133, 232
  13, 240, 241, 242, 243
  14, 240, 118, 241, 129
  15, 240, 118, 244, 241
  16, 240, 245, 244, 117
  17, 246, 240, 221, 244
  18, 240, 241, 246, 242
  19, 240, 247, 221, 244
  20, 244, 245, 248, 249
  21,  25, 250, 251, 252
  22, 240, 247, 244, 245
  23, 218, 222, 224, 221
  24, 224,  40, 253, 158
  25, 164, 254, 165, 224
  26, 224, 255, 165, 166
  27, 224, 159, 253, 222
  28, 256, 248, 249, 257
  29, 256, 258, 259, 260
  30, 256, 261, 258, 262
  31, 256, 258, 174, 263
  32, 256, 262, 258, 263
  33, 256, 248, 264, 249
  34, 260, 258, 174, 256
  35,  26,  79, 252,  25
  36, 265, 226, 227, 266
  37, 267, 268, 269, 270
  38, 265, 235, 236, 271
  39, 265, 266, 272, 273
  40, 265, 274, 273, 272
  41, 274, 265, 275, 276
  42, 246, 220, 277, 278
  43, 246, 248, 244, 221
  44, 218, 246, 220, 221
  45, 242, 221, 222, 220
  46, 242, 220, 279, 246
  47, 157, 223, 280,  32
  48, 281,  83,  94,  93
  49, 281, 282, 264, 249
  50, 281, 282,  94,  83
  51, 283, 284, 211, 210
  52,  93, 285, 286, 281
  53, 281, 104, 286,  93
  54, 281,  82, 285, 264
  55, 281, 285,  82,  93
  56, 274, 287, 120, 275
  57, 274, 287, 275, 273
  58, 274,  12, 272,  11
  59, 288, 265, 289, 235
  60, 275, 276,  98, 274
  61, 290, 276,  98, 275
  62, 170,  42, 176, 291
  63, 289,   8,  76,   9
  64, 291, 292, 268, 267
  65, 268, 293, 285, 291
  66, 291, 248, 249, 264
  67, 291, 293, 267, 268
  68, 294, 291, 285, 293
  69, 295, 296, 297, 298
  70, 295, 251, 298, 299
  71, 295,  27, 252, 187
  72, 177, 171, 170, 292
  73, 295, 300, 301, 187
  74, 300, 268, 302, 270
  75, 303, 141,  38,  39
  76, 226,  16,  14,   3
  77, 304, 202, 305, 201
  78, 181, 187, 306, 300
  79, 300, 268, 270, 297
  80, 300, 301, 268, 297
  81, 295, 300, 187, 186
  82, 291, 307, 293, 308
  83, 267, 309, 269, 293
  84, 285,  81, 310, 296
  85, 285, 301,  81, 296
  86, 306, 285, 268, 301
  87, 285,  28, 306, 264
  88, 285, 297, 296, 310
  89, 310,  93, 285, 286
  90, 268, 306, 263, 264
  91, 268, 300, 263, 306
  92, 285,  28, 264,  82
  93, 288,   6,   7,  57
  94, 291,  42, 247, 254
  95, 307, 291, 267, 176
  96, 293, 311, 309, 312
  97, 307, 267,  43, 176
  98, 247,  42, 307, 138
  99, 293, 307, 267, 309
 100, 285, 291, 264, 268
 101, 270, 268, 292, 267
 102, 292, 270, 178, 302
 103, 295, 298, 297, 270
 104, 285, 268, 301, 297
 105, 273,  65,  66,  14
 106, 268, 262, 302, 292
 107, 264, 263, 256, 175
 108, 256, 282,  29, 260
 109, 256, 278, 246, 257
 110,  88, 313,  99, 314
 111, 262, 263, 173, 258
 112, 256, 259, 258, 261
 113, 315, 298, 316, 317
 114, 298, 317, 315, 318
 115, 233,  74,  75,   7
 116, 316, 296, 317, 298
 117, 298, 299, 251, 318
 118, 298, 319, 297, 270
 119, 320, 316, 296, 317
 120, 237, 239, 122, 132
 121, 237, 321, 238, 239
 122, 232, 238, 315, 322
 123, 237, 132, 323, 239
 124, 237, 305, 200, 232
 125, 324, 316, 309, 125
 126, 324, 124, 316, 125
 127, 324, 316, 124, 322
 128, 324, 269, 319, 182
 129, 188, 324, 315, 319
 130, 324, 309, 269,  44
 131, 247, 308, 245, 128
 132, 291, 247, 308, 245
 133, 291, 171, 255, 262
 134, 105, 249, 294, 245
 135, 291, 294, 245, 308
 136, 106, 245, 249, 105
 137, 240, 245, 117, 128
 138, 245, 244, 117, 106
 139, 246, 220, 278, 280
 140, 245, 248, 249, 291
 141, 254, 221,  41, 247
 142, 256, 282, 278, 257
 143, 247, 221, 291, 254
 144, 291, 255, 248, 262
 145, 246, 325, 257, 278
 146, 325, 244,  95, 106
 147, 325, 257, 278,  95
 148, 246, 325, 277, 279
 149, 325,  96, 277, 279
 150, 293, 309, 269, 312
 151, 326,  61,  60,  58
 152, 291, 308, 293, 294
 153, 301, 295, 296, 297
 154, 293, 269, 268, 297
 155, 297, 286, 312, 310
 156, 297, 270, 319, 269
 157, 295, 270, 300, 185
 158, 297, 316, 296, 310
 159, 213, 327, 214, 207
 160, 282, 249,  95, 257
 161, 282, 257,  84, 278
 162, 260, 282, 278, 256
 163, 260, 256, 175,  29
 164, 264, 282,  29, 256
 165, 256, 282, 249, 264
 166, 226,  16,  67,  14
 167,  22, 328,   2, 289
 168, 289, 235,   2, 288
 169, 227,  15,   1,  64
 170, 235, 233,  21,   2
 171, 329, 209, 210, 216
 172,   7, 288,   2, 233
 173, 330, 331, 321, 271
 174, 330, 290, 321, 275
 175, 265, 275, 276, 330
 176, 235, 289, 328, 276
 177, 235, 330, 276, 328
 178, 330, 321, 283, 271
 179, 256, 246, 248, 257
 180, 220, 222, 332, 333
 181, 334, 220, 335, 336
 182, 220, 223, 335, 277
 183, 220, 223, 334, 335
 184, 270, 267, 177, 183
 185, 268, 269, 270, 297
 186, 337,  89, 338,  90
 187, 337, 339, 101, 340
 188, 339, 320, 317, 322
 189, 339, 123, 322, 229
 190, 339, 102, 340, 320
 191, 337, 340, 338, 341
 192, 337, 339, 340, 317
 193, 337,  90, 340, 101
 194, 337, 340,  90, 338
 195, 339, 340, 102, 101
 196, 320, 296, 340, 317
 197, 324, 322, 315, 316
 198, 324, 269, 316, 319
 199, 227, 342, 266,  64
 200, 319, 315, 298, 316
 201, 337, 339, 317, 229
 202, 317, 341, 318, 251
 203, 317, 318, 341, 238
 204, 298, 343, 318, 315
 205, 317, 318, 238, 315
 206, 131, 323, 132, 275
 207, 120, 275, 131, 121
 208, 323, 287, 331, 275
 209, 323, 321, 239, 275
 210, 323,  49, 287, 131
 211, 275, 323, 132, 239
 212, 298, 270, 299, 343
 213, 293, 285, 286, 297
 214,  79, 252,  25, 251
 215, 324, 309,  44, 136
 216, 309, 312, 311, 125
 217, 316, 322, 315, 317
 218, 324, 322, 124, 135
 219, 316, 124, 320, 125
 220, 231, 322, 238, 232
 221, 231, 322, 232, 134
 222, 289, 313, 328, 276
 223, 322, 315,  46,  45
 224,  46, 322, 232, 315
 225, 226,  67, 344, 345
 226,  14, 345, 226,  65
 227, 226,  65, 273,  14
 228,  16, 226, 331,   3
 229, 226, 271, 344, 346
 230,   3, 331, 273, 226
 231, 347, 314, 290, 313
 232, 347, 314, 313,  88
 233,  88, 347,  78,  77
 234, 347, 348, 250, 349
 235, 347, 348,  78,  24
 236, 347, 283, 350, 349
 237, 313,  23,  77,  76
 238, 330, 275, 276, 290
 239, 321, 271, 331, 327
 240, 321, 238, 239, 350
 241, 321, 350, 239, 290
 242, 351, 304, 202, 352
 243, 351, 299, 250, 198
 244, 351, 349, 250, 353
 245, 351, 299, 318, 250
 246, 318, 351, 304, 299
 247, 354, 344,  68,  18
 248, 354, 271, 346, 344
 249, 354, 344,  18,  19
 250, 354, 236,  19, 329
 251, 354, 331, 271, 327
 252, 354, 346, 213,  17
 253, 224, 158, 253, 159
 254, 141, 303, 243, 242
 255, 253, 222, 242, 221
 256, 253,  40, 221, 242
 257, 140, 242,  40, 141
 258, 242,  40, 141, 253
 259, 221, 246, 220, 242
 260, 253, 332, 222, 333
 261, 224, 221, 255, 261
 262, 224, 255, 166, 261
 263, 352, 209, 208, 202
 264, 153, 143, 152, 253
 265, 222, 219, 153, 333
 266, 253, 222, 159, 153
 267,  41, 221, 240, 247
 268, 255, 221, 224, 254
 269, 224, 253, 221, 222
 270, 291, 221, 248, 255
 271, 288,   8,  56,   7
 272, 220, 223, 219, 333
 273, 261, 221, 255, 248
 274, 240, 247, 128, 139
 275, 221, 140,  41, 240
 276, 246, 325, 278, 277
 277, 248, 257, 244, 249
 278, 159, 224, 160, 219
 279, 332, 253, 242, 303
 280, 303, 253, 242, 141
 281, 242, 140, 243, 141
 282, 253, 143, 152, 144
 283, 303, 144, 332, 253
 284, 224, 221, 253,  40
 285, 265, 227, 342, 266
 286, 228, 342, 265, 227
 287, 227, 228,  59,   6
 288, 225, 228, 227,   6
 289, 225, 344,  70, 345
 290, 225,  15, 227, 345
 291, 225, 345,  70,  69
 292, 227,  59, 342,  64
 293, 225,   1, 227,  15
 294, 289, 328,  76,  22
 295, 328,   2, 289, 235
 296, 265, 326, 289, 355
 297, 289,   9, 276, 355
 298, 289, 276,   9,  87
 299, 236, 226, 234, 265
 300, 289, 288,  56, 326
 301, 289, 288,   8,  56
 302, 302, 270, 178, 179
 303, 298, 297, 316, 296
 304, 287,  49,   3, 131
 305, 173, 263, 262, 302
 306, 287,  66,  12,  13
 307, 302, 262, 173, 172
 308, 302, 292, 262, 172
 309, 240, 242, 140, 243
 310, 253, 222, 332, 242
 311, 218, 256, 280, 246
 312, 162, 223, 161, 218
 313, 223, 161, 218, 219
 314, 222, 153, 219, 159
 315, 219, 333, 154, 153
 316, 142, 334, 333, 223
 317, 223, 334, 333, 220
 318, 219, 333, 142, 154
 319, 314, 290, 110, 230
 320, 347, 314, 348, 350
 321, 347, 349, 205, 211
 322, 330, 313, 347, 290
 323, 266,  61,  63,  62
 324, 220, 335, 336, 277
 325, 223, 334, 148, 142
 326, 345,  67,  69,  15
 327, 333, 223, 219, 142
 328, 218, 280, 259, 162
 329, 280, 157,  31, 163
 330, 289,   9,  56,   8
 331, 223, 163, 280, 162
 332, 287, 272,  12,  66
 333, 274, 120, 287,  12
 334, 271, 346, 226, 331
 335, 274, 275, 120, 109
 336, 287,  66, 273, 272
 337, 287,   3, 273,  13
 338, 287, 275, 273, 331
 339, 237, 323, 305, 321
 340, 239, 122, 132, 121
 341, 232, 200, 356, 305
 342, 232, 356, 194, 315
 343, 229, 231, 322, 238
 344, 134,  46, 322, 232
 345, 231, 237, 232, 238
 346, 265, 330, 271, 331
 347, 354, 271, 344, 236
 348, 235, 236, 357,  21
 349, 321, 271, 327, 283
 350, 354, 346, 271, 331
 351, 212, 346, 213, 331
 352, 354, 271, 236, 329
 353, 299, 193, 252, 199
 354, 299, 199, 252, 250
 355, 299, 318, 343, 304
 356, 299, 343, 190, 196
 357, 351, 349, 352, 284
 358, 299, 199, 250, 198
 359, 190, 299, 270, 343
 360, 351, 353, 352, 349
 361, 250, 347, 205,  24
 362, 250, 318, 353, 348
 363, 349, 347, 205, 250
 364, 351, 299, 198, 197
 365, 299, 196, 304, 343
 366, 351, 196, 299, 197
 367, 351, 198, 250, 204
 368, 299, 250, 251, 318
 369, 250, 318, 341, 251
 370, 250, 348,  24,  25
 371, 295, 299, 298, 270
 372, 119, 241, 129, 243
 373, 298, 299, 318, 343
 374, 229, 111, 100, 101
 375, 249, 294, 291, 285
 376, 114, 286, 310, 312
 377, 285,  93, 310,  82
 378, 294, 285, 249, 281
 379, 243, 332, 279, 242
 380, 104, 294, 281, 286
 381, 312, 114, 320, 310
 382, 286, 312, 114, 115
 383, 286, 312, 115, 294
 384, 318, 353, 356, 304
 385, 238, 350, 230, 239
 386, 237, 232, 238, 305
 387, 231, 238, 229, 230
 388, 231, 123, 322, 134
 389, 326,  57,  58,  60
 390, 328,  22, 217, 211
 391, 232, 238, 356, 315
 392, 321, 305, 353, 352
 393, 352, 321, 350, 353
 394, 330, 328, 347, 313
 395, 321, 275, 290, 239
 396, 321, 305, 238, 353
 397, 353, 304, 305, 356
 398, 347, 348, 314,  78
 399, 347,  88, 313,  77
 400, 318, 356, 238, 315
 401, 312, 320, 114, 125
 402, 297, 312, 316, 310
 403, 262, 291, 292, 268
 404, 229, 101, 112, 111
 405, 104, 310, 114, 286
 406, 347, 290, 314, 350
 407,  23, 328, 313, 347
 408, 328,  76,  23, 313
 409, 330, 313, 290, 276
 410, 313,  98, 290, 276
 411, 289,  76, 313,  87
 412, 316, 312, 297, 269
 413, 313, 276,  87,  98
 414, 351, 353, 304, 352
 415, 201, 356, 305, 304
 416, 358, 327, 208, 214
 417, 350, 353, 348, 349
 418, 318, 304, 356, 343
 419, 295, 193, 252, 299
 420, 353, 305, 304, 352
 421, 304, 356, 343, 195
 422, 304, 201, 356, 195
 423, 228, 235, 234, 265
 424, 225, 226, 234, 344
 425, 342, 326,  62,  60
 426, 342, 326,  60,  57
 427, 225, 226, 344, 345
 428, 265, 226, 331, 271
 429, 326,   9,  58,  56
 430, 342,  57, 288, 326
 431, 332, 146, 359, 151
 432, 219, 223, 161, 155
 433, 219, 224, 160, 218
 434, 220, 280, 277, 278
 435, 218, 261, 224, 160
 436, 237,  48, 323, 132
 437, 271, 327, 283, 329
 438, 246, 325, 244, 257
 439, 323, 287, 275, 131
 440, 346,  16, 226, 331
 441, 321, 327, 352, 283
 442, 323, 305, 206, 237
 443, 321, 360, 327, 331
 444, 331, 346,  16, 212
 445, 346, 213, 331, 354
 446, 354, 360, 213, 331
 447, 281, 286, 294, 285
 448, 293, 268, 285, 297
 449, 281, 264, 282,  83
 450, 127, 307, 138, 308
 451,  91,  92, 296, 320
 452, 312, 309, 269, 316
 453, 307, 309,  43, 267
 454, 293, 312, 126, 311
 455, 310, 320,  92, 103
 456, 322, 238, 315, 317
 457, 285, 297, 310, 286
 458, 310, 114, 320, 103
 459, 293, 307, 309, 311
 460, 307, 309, 137,  43
 461, 294, 293, 126, 127
 462, 293, 308, 127, 294
 463, 245, 128, 308, 127
 464, 348,  78,  24,  25
 465, 247, 139,  42, 138
 466,  89,  78, 338,  79
 467, 261, 262, 172, 173
 468, 291, 248, 264, 262
 469, 221, 218, 261, 224
 470, 263, 173, 258, 174
 471, 260, 259, 256, 280
 472, 289, 328, 313,  76
 473,  41, 254, 164, 224
 474, 224, 222, 219, 159
 475, 258, 168, 167, 259
 476, 224, 160, 261, 166
 477,  32, 157,  31, 280
 478, 223, 155, 162, 161
 479, 220, 222, 242, 332
 480, 278, 260, 280,  30
 481, 277,  31, 280,  32
 482, 337, 317, 238, 229
 483, 218, 162, 259, 161
 484, 280, 169, 163,  30
 485, 169, 280, 259, 260
 486, 270, 300, 179, 302
 487, 295, 270, 191, 299
 488,   6,  74, 228,   7
 489, 301, 296, 295,  27
 490, 274,  10,  98,  11
 491, 252, 299, 251, 295
 492, 300, 180, 263, 181
 493, 300, 268, 263, 302
 494, 245, 249, 294, 291
 495, 105, 104, 294, 281
 496, 249, 281, 282,  94
 497, 293, 312, 286, 294
 498, 245, 308, 294, 127
 499, 281, 249, 105,  94
 500, 244, 247, 248, 245
 501, 349, 283, 284, 211
 502, 275, 290, 121, 110
 503, 318, 343, 356, 315
 504, 232,  46, 315, 194
 505, 200, 201, 356, 305
 506, 304, 195, 343, 196
 507, 356, 343, 361, 315
 508, 356, 343, 195, 361
 509, 251,  79, 341,  25
 510, 250, 341, 318, 348
 511, 250, 199, 252,  25
 512, 316, 310, 312, 320
 513, 324, 316, 269, 309
 514, 293, 126, 312, 294
 515, 295, 251, 252, 296
 516, 295, 300, 270, 297
 517, 318, 341, 238, 350
 518, 325, 244, 117, 118
 519, 325, 244, 257,  95
 520, 256, 280, 246, 278
 521, 245, 294, 116, 127
 522, 246, 244, 248, 257
 523, 244, 221, 248, 247
 524, 240, 247, 245, 128
 525, 314, 348, 350, 337
 526, 266,  62,  65,  64
 527, 251, 298, 317, 296
 528, 317, 229, 322, 238
 529, 251, 341,  79,  80
 530, 341, 338,  79,  80
 531, 351, 304, 196, 202
 532, 230, 337, 238, 229
 533, 250, 341, 348,  25
 534, 341, 348,  25,  79
 535, 233, 288, 235, 228
 536, 273, 265, 331, 275
 537, 234,  73, 236,  74
 538, 344, 234,  70,  71
 539, 225,  15, 345,  69
 540, 265, 289, 235, 276
 541, 233, 236,  75,  74
 542, 228, 288,   6,   7
 543, 237, 323, 321, 239
 544, 323, 206, 360, 212
 545, 323, 321, 275, 331
 546, 239, 231, 122, 230
 547, 347, 328, 283, 211
 548, 237, 238, 321, 305
 549, 350, 352, 349, 283
 550, 323, 321, 360, 305
 551, 271, 328, 357, 283
 552, 230, 239, 121, 122
 553, 275, 290, 239, 121
 554, 191, 190, 299, 270
 555, 288, 228, 342, 265
 556, 225, 226, 228, 234
 557, 342,  59,  60,  62
 558, 271, 236, 357, 235
 559, 355,  58,  10,  61
 560, 242, 303, 243, 332
 561, 330, 313, 276, 328
 562, 290, 230, 121, 110
 563, 276,  10, 355,   9
 564, 265, 276, 274, 355
 565,  22, 328,  76,  23
 566, 314, 110, 290,  99
 567, 313,  99, 314, 290
 568, 274,  10, 276,  98
 569, 330, 283, 347, 328
 570, 253, 141, 303,  39
 571, 227,  64,   1,  59
 572, 347, 328, 211,  23
 573,   2, 288,   8, 289
 574, 283, 271, 329, 357
 575, 328, 283, 211, 217
 576, 265, 235, 330, 276
 577, 273, 265, 226, 331
 578, 287,  49, 331,   3
 579, 225, 226, 345, 227
 580, 354, 360, 331, 327
 581, 344, 236,  19, 354
 582, 354, 214, 327, 329
 583, 266,  66,  65,  63
 584, 303, 362,  37, 130
 585, 144, 332, 253, 333
 586, 303, 362, 145,  37
 587, 303, 144,   5,  38
 588, 303, 144,  39,   5
 589, 332, 145, 303, 362
 590, 243, 119, 279, 362
 591, 326,  62,  60,  61
 592, 247, 138, 307, 308
 593, 255, 262, 171, 172
 594, 243, 303, 141, 130
 595, 255, 172, 261, 262
 596, 256, 282, 257, 249
 597,  89, 338,  90,  79
 598, 218, 222, 220, 219
 599, 318, 238, 353, 350
 600, 337, 317, 340, 341
 601, 351, 349, 284, 250
 602, 321, 352, 327, 305
 603, 352, 305, 202, 208
 604, 284, 250, 204, 351
 605, 352, 283, 209, 284
 606,  24, 348, 250, 347
 607, 351, 299, 196, 304
 608, 342,  62, 266,  64
 609, 265, 226, 266, 273
 610, 227,  65, 345,  15
 611, 187, 306, 300, 301
 612, 265, 355, 289, 276
 613, 342, 266,  62, 326
 614, 363, 359,  34, 147
 615, 363, 149, 336, 147
 616, 325,  95, 278,  96
 617, 282,  30, 278,  84
 618, 257,  84, 278,  95
 619, 240, 244, 246, 241
 620, 218, 259, 261, 161
 621, 223, 277, 280,  32
 622, 332, 242, 220, 279
 623, 242, 246, 240, 221
 624, 261, 160, 161, 167
 625, 253,  39, 303, 144
 626, 354, 214,  18, 213
 627, 291, 293, 307, 267
 628, 321, 353, 238, 350
 629, 282,  95, 249,  94
 630, 267, 309,  44, 269
 631, 307, 127, 293, 308
 632, 311, 126, 137, 136
 633, 296, 252,  80, 251
 634, 269, 182, 267, 183
 635, 270, 269, 267, 183
 636, 317, 296, 340, 251
 637, 250, 349, 284, 205
 638, 268, 263, 302, 262
 639, 249, 291, 264, 285
 640, 292, 170, 176, 291
 641, 267, 270, 177, 292
 642, 323, 360, 321, 331
 643, 327, 283, 329, 209
 644, 358, 327, 214, 329
 645, 354, 213, 327, 214
 646, 360, 327, 207, 305
 647, 342,  59,  57,  60
 648, 321, 360, 305, 327
 649, 325, 118, 279, 241
 650, 291, 262, 292, 171
 651, 325, 278, 277,  96
 652, 223,  32, 335, 277
 653, 256, 260, 280, 278
 654, 244, 106, 245, 249
 655, 330, 271, 283, 328
 656, 282,  84, 257,  95
 657, 107, 325, 118, 279
 658, 259, 256, 280, 218
 659, 226, 344,  67,  16
 660, 266,  65, 273, 226
 661, 357, 271, 329, 236
 662, 226, 346, 344,  16
 663, 226, 345,  14,  67
 664, 274,  12, 287, 272
 665, 363,  34, 359,  97
 666, 359, 147,  35,  34
 667, 357, 235, 328, 271
 668, 359, 336, 151, 147
 669, 363, 359, 336,  97
 670, 267, 293, 269, 268
 671, 208, 305, 327, 352
 672, 232, 238, 305, 356
 673, 304, 352, 305, 202
 674, 305, 201, 208, 207
 675, 330, 321, 350, 283
 676, 327, 352, 283, 209
 677, 231, 237, 122, 133
 678, 318, 350, 348, 341
 679, 324, 322,  45, 315
 680, 339, 322, 317, 229
 681, 316, 312, 125, 320
 682, 340,  91, 320, 102
 683, 337, 314, 100, 230
 684, 229, 230, 100, 111
 685, 111, 122, 229, 230
 686, 341, 348,  79, 338
 687, 348,  78,  79, 338
 688, 347, 283, 349, 211
 689, 347, 313,  23,  77
 690, 340, 296,  91,  80
 691, 283, 321, 350, 352
 692, 290, 109,  98,  99
 693,  47, 237,  48, 206
 694, 265, 235, 271, 330
 695, 330, 290, 347, 350
 696, 274,  11, 355,  10
 697, 337, 350, 238, 341
 698, 323, 331,  49, 212
 699, 152, 144, 143,  55
 700, 350, 230, 337, 238
 701, 337, 229, 100, 101
 702, 232, 356, 200, 194
 703, 231, 229, 322, 123
 704, 337, 348, 350, 341
 705, 337, 229, 230, 100
 706, 285, 286, 294, 293
 707, 220, 222, 333, 219
 708, 291, 264, 268, 262
 709, 282,  83, 264,  29
 710, 312, 115, 294, 126
 711, 260, 175, 168, 169
 712, 281, 264,  83,  82
 713,  19, 214, 354, 329
 714, 286, 104, 310,  93
 715, 286, 104, 294, 115
 716, 300, 301, 306, 268
 717, 348,  25,  79,  78
 718, 192, 299, 193, 295
 719, 296, 295,  27, 252
 720, 340,  91,  90, 338
 721, 301,  81, 296,  27
 722, 258, 173, 261, 167
 723, 258, 260, 174, 168
 724, 263, 306, 175, 264
 725, 256, 262, 248, 261
 726, 302, 173, 263, 179
 727, 263, 181, 174, 175
 728, 238, 356, 353, 305
 729, 351, 352, 203, 284
 730, 343, 189, 190, 196
 731, 270, 268, 302, 292
 732, 183, 343, 189, 190
 733, 295, 270, 185, 191
 734, 231, 229, 123, 122
 735, 285,  81, 301,  82
 736, 319, 343, 189, 183
 737, 356, 194, 315, 361
 738, 250, 348, 353, 349
 739, 295, 299, 191, 192
 740, 319, 315, 188, 361
 741, 337, 350, 314, 230
 742, 340,  90,  91, 101
 743, 318, 348, 350, 353
 744, 232, 237,  47, 200
 745, 243, 332, 303, 362
 746, 218, 223, 220, 280
 747, 277,  32,  86,  85
 748, 220, 336, 334, 332
 749, 248, 262, 255, 261
 750, 359, 147, 151, 146
 751, 363, 147,  33, 149
 752, 325, 244, 106, 117
 753, 332, 359, 146, 362
 754, 265, 355, 266, 326
 755, 265, 274, 272, 355
 756, 266, 265, 326, 342
 757, 342,  59, 288,  57
 758, 289, 326,  56,   9
 759, 288, 326,  57,  56
 760, 233, 236, 235,  21
 761, 330, 321, 290, 350
 762, 357,   2, 328, 235
 763, 236,  19, 329,  20
 764, 228,   6, 288,  59
 765, 330, 275, 321, 331
 766, 354, 327, 271, 329
 767, 248, 218, 261, 221
 768, 359,  36, 362, 119
 769, 218, 162, 223, 280
 770, 288,   7,  56,  57
 771, 303, 141,  37,  38
 772, 332, 151, 359, 336
 773, 362, 146,  37,  36
 774, 295, 300, 297, 301
 775, 264, 285, 268, 306
 776, 281, 249, 294, 105
 777, 174, 256, 175, 260
 778, 310, 296,  81,  92
 779, 285,  82, 310,  81
 780, 269,  44, 267, 182
 781, 295, 296, 298, 251
 782, 111, 230, 100, 110
 783, 355,  11,  63,  61
 784, 285,  82, 301,  28
 785, 234,  72,  70,  71
 786, 256, 263, 264, 262
 787, 221, 248, 247, 291
 788, 221, 291, 254, 255
 789, 117, 240, 118, 244
 790, 245, 294, 105, 116
 791, 266, 326, 355,  61
 792, 266, 355, 272,  63
 793, 272, 355,  11,  63
 794, 265, 274, 275, 273
 795, 265, 272, 266, 355
 796, 330, 350, 347, 283
 797, 266,  66, 273,  65
 798, 344,  71,  19, 234
 799, 266,  65, 226, 227
 800,  65, 226, 227, 345
 801, 266, 355,  63,  61
 802, 233,  75, 236,  21
 803, 225,  69,  72,   1
 804, 225,  69,   1,  15
 805, 323, 360, 206, 305
 806, 327, 208, 209, 358
 807, 265, 271, 236, 226
 808, 358, 329, 215, 209
 809, 329,  20, 216, 357
 810, 288,   2, 233, 235
 811, 274, 272, 355,  11
 812, 227, 266,  65,  64
 813, 274, 287, 273, 272
 814, 226, 273,   3,  14
 815, 354,  68, 346,  17
 816, 274, 276,  10, 355
 817, 288, 235, 228, 265
 818, 323, 132,  48,  49
 819, 217,   2, 328, 357
 820, 266, 273,  66, 272
 821, 266, 326,  61,  62
 822, 326,  58, 355,  61
 823, 289, 355, 326,   9
 824, 326, 355,  58,   9
 825, 324, 135, 136,  45
 826, 300, 181, 187, 180
 827,  74, 228,   7, 233
 828, 231, 133, 122, 123
 829, 103, 104, 310, 114
 830, 320, 113, 102, 103
 831, 340, 341,  80, 338
 832, 280, 278,  30,  31
 833, 267, 176, 182,  43
 834,  26,  80, 252,  79
 835, 340, 251,  80, 341
 836, 224, 159, 166, 165
 837, 340, 320,  91, 296
 838, 298, 317, 318, 251
 839, 316, 309, 125, 312
 840, 291, 247, 307, 308
 841, 356, 200, 194, 201
 842, 234, 228,  74, 233
 843, 353, 352, 349, 350
 844, 228,   7, 233, 288
 845, 267, 182,  44,  43
 846, 299, 197, 196, 190
 847, 323, 331, 287,  49
 848, 195, 361, 189, 188
 849, 356, 361, 195, 194
 850, 339, 320, 113, 102
 851, 182, 189, 319, 188
 852, 337, 101, 100,  90
 853,  78, 348, 314, 338
 854, 299, 190, 191, 197
 855, 188, 194, 195, 361
 856, 283, 217, 357, 216
 857, 358, 329, 214, 215
 858, 358, 208, 215, 214
 859, 208, 352, 327, 209
 860, 344,  70,  68,  71
 861, 281,  94, 105, 104
 862, 265, 227, 226, 228
 863, 294, 115, 104, 105
 864, 307,  43, 137, 138
 865, 313,  77,  88,  87
 866, 301,  27,  28,  81
 867, 351, 250, 318, 353
 868, 189, 319, 188, 361
 869, 232, 194, 200,  46
 870, 217, 216,  21, 357
 871, 300, 186, 179, 180
 872, 261, 166, 173, 172
 873,  80, 252,  79, 251
 874, 218, 246, 221, 248
 875, 343, 270, 183, 319
 876, 278,  85,  96,  95
 877,  19, 234, 236, 344
 878, 328,  22,   2, 217
 879, 231, 239, 238, 230
 880, 323, 212,  49,  48
 881, 351, 196, 197, 203
 882, 228, 342,  59, 288
 883, 319, 183, 189, 182
 884, 312, 311, 125, 126
 885, 237, 231, 122, 239
 886, 270, 184, 177, 178
 887, 227, 228, 342,  59
 888, 345,  67,  15,  14
 889, 279, 241, 118, 119
 890, 327, 208, 214, 207
 891, 276,  87,  98,  10
 892, 274, 109,  11,  98
 893, 313,  98,  87,  88
 894, 276,   9,  87,  10
 895, 342, 265, 326, 288
 896, 328,  23,  22, 211
 897, 358, 215, 208, 209
 898, 227,   6,  59,   1
 899, 279, 359,  97, 336
 900, 272,  12,  63,  11
 901, 279, 119, 359, 362
 902, 351, 204, 284, 203
 903, 344, 346,  68,  16
 904, 329,  20,  19, 215
 905, 360, 207, 213, 206
 906, 206, 305, 200, 237
 907, 305, 207, 206, 200
 908, 351, 204, 197, 198
 909, 357, 216,  21,  20
 910, 250, 205, 199,  24
 911, 332, 333, 144, 150
 912, 243, 279, 332, 362
 913, 356, 201, 194, 195
 914, 283, 329, 209, 210
 915, 250, 205, 198, 199
 916, 342,  64,  59,  62
 917, 283, 216, 210, 217
 918, 332, 362, 279, 359
 919, 351, 197, 204, 203
 920, 250, 199,  25,  24
 921, 252, 199, 193,  25
 922, 341, 338, 337, 348
 923, 304, 196, 202, 195
 924, 304, 195, 202, 201
 925, 229, 123, 122, 112
 926, 329, 215, 216,  20
 927,   2,  21, 357, 217
 928, 334, 332, 150, 333
 929, 245, 127, 116, 117
 930, 351, 352, 202, 203
 931, 252,  26,  25, 193
 932, 299, 198, 192, 199
 933, 295, 192, 191, 185
 934, 299, 191, 192, 198
 935, 353, 318, 351, 304
 936, 317, 251, 340, 341
 937, 266,  63,  65,  62
 938, 346, 212, 213,  17
 939, 263, 173, 174, 180
 940, 345,  14,  15,  65
 941, 312, 125, 114, 115
 942, 320, 124, 113, 114
 943, 237,  48, 132, 133
 944, 299, 192, 193, 199
 945, 305, 200, 201, 207
 946, 306,  27, 187, 181
 947, 340,  80, 251, 296
 948, 298, 297, 319, 316
 949, 263, 179, 173, 180
 950, 340, 102, 101,  91
 951, 295, 192, 186, 193
 952, 270, 183, 177, 184
 953, 285, 296, 297, 301
 954, 332, 279, 336, 359
 955, 295, 185, 300, 186
 956, 253, 222, 153, 333
 957, 295, 192, 185, 186
 958, 219, 223, 155, 142
 959, 306,  28,  27, 181
 960, 295, 187, 301,  27
 961, 306, 181, 175,  28
 962, 252, 250, 251, 299
 963, 185, 300, 179, 270
 964, 270, 191, 184, 185
 965, 306,  28, 301,  27
 966, 327, 207, 213, 360
 967, 267, 183, 182, 176
 968, 363, 149, 335, 336
 969,  27, 252,  80, 296
 970,  90,  80,  79, 338
 971, 294, 126, 115, 116
 972, 270, 190, 184, 191
 973, 302, 179, 178, 172
 974, 329, 214, 215,  19
 975, 278,  95,  84,  85
 976, 300, 185, 179, 186
 977, 295, 186, 187, 193
 978, 258, 167, 174, 173
 979, 234,  71,  19,  73
 980, 360, 331, 212, 213
 981, 307, 309, 311, 137
 982, 258, 174, 167, 168
 983, 337, 314,  89, 100
 984, 337, 339, 229, 101
 985, 323, 360, 331, 212
 986, 325,  96, 107, 106
 987, 360, 206, 213, 212
 988, 323, 212,  48, 206
 989, 316, 310, 320, 296
 990, 234, 233,  74, 236
 991, 240, 128, 117, 118
 992, 283, 284, 210, 209
 993, 298, 270, 343, 319
 994, 233, 228, 235, 234
 995, 354, 344, 346,  68
 996, 260, 174, 168, 175
 997,  29, 175,  28, 264
 998, 260, 280,  30, 169
 999, 302, 179, 172, 173
1000,  29, 256, 175, 264
1001, 352, 203, 284, 209
1002, 282,  29, 260,  30
1003, 224, 221,  40,  41
1004, 347, 205,  24,  23
1005, 284, 211, 204, 205
1006, 175,  28, 264, 306
1007, 209, 203, 284, 210
1008, 250, 198, 205, 204
1009, 205, 250, 204, 284
1010, 300, 302, 263, 179
1011, 309, 137,  43,  44
1012, 282,  94,  84,  95
1013, 254, 170, 164, 171
1014, 171, 254, 291, 255
1015, 162, 280, 169, 163
1016, 260,  30,  29, 169
1017, 260, 175, 169,  29
1018, 223, 162, 156, 163
1019, 240, 243, 129, 241
1020, 218, 248, 256, 246
1021, 280,  31,  30, 163
1022, 325,  96, 279, 107
1023, 219, 159, 153, 160
1024, 240, 247, 139,  41
1025, 255, 166, 172, 165
1026, 325, 244, 118, 241
1027,  43, 267, 309,  44
1028, 224, 159, 160, 166
1029, 157, 156, 148,  51
1030, 219, 160, 154, 161
1031, 165, 254, 164, 171
1032, 359, 362,  36, 146
1033, 261, 166, 160, 167
1034, 254, 165, 224, 255
1035, 267, 176, 177, 183
1036, 322, 134, 123, 124
1037, 363, 336, 277,  97
1038, 291, 254, 170,  42
1039, 240, 129, 243, 140
1040, 154,  54, 153, 143
1041, 333, 154, 153, 143
1042, 254, 164, 170,  41
1043, 157,  50,  51, 148
1044, 293, 297, 286, 312
1045, 155, 154, 142,  53
1046, 219, 155, 154, 142
1047, 219, 160, 153, 154
1048, 156,  51, 142, 148
1049, 143, 333, 253, 153
1050,  30, 282, 278, 260
1051, 275, 265, 331, 330
1052, 142,  52,  51, 156
1053, 334, 150, 149, 148
1054, 335,  32, 157,  50
1055, 253, 158,  39, 152
1056, 332, 151, 150, 145
1057, 279,  97, 359, 108
1058, 279, 359, 119, 108
1059, 253, 144, 152,  39
1060, 178, 292, 171, 177
1061, 246, 277, 220, 279
1062, 220, 332, 279, 336
1063, 363,  97,  86,  33
1064, 277,  96,  85,  86
1065, 362, 146, 145,  37
1066, 243, 241, 279, 119
1067, 332, 362, 146, 145
1068, 335, 334, 149, 148
1069, 223, 156, 157, 163
1070, 218, 161, 261, 160
1071, 244, 249,  95, 106
1072, 253, 152, 153, 159
1073, 333, 144, 150, 143
1074, 303,  38, 145, 144
1075, 302, 172, 178, 292
1076, 223, 142, 156, 155
1077, 291, 247,  42, 307
1078, 355,  10,  58,   9
1079, 153,  55, 143,  54
1080, 243, 362, 303, 130
1081, 253,  40,  39, 158
1082, 359, 119, 108,  35
1083, 163, 223, 280, 157
1084, 240, 129, 128, 118
1085, 359,  35, 146,  36
1086, 255, 165, 172, 171
1087,  52, 155, 156, 142
1088, 334, 148, 142, 150
1089, 154, 143,  53,  54
1090, 291, 171, 292, 170
1091, 153, 152, 143,  55
1092, 334, 150, 151, 149
1093, 303,  38,  37, 145
1094, 303, 141, 130,  37
1095, 279, 107,  96,  97
1096, 335,   4,  50, 148
1097, 333, 143, 150, 142
1098, 218, 256, 248, 261
1099, 152, 144,   5,  39
1100, 140, 242, 221,  40
1101, 268, 264, 263, 262
1102, 230, 110, 111, 121
1103, 155,  53, 142,  52
1104, 218, 256, 261, 259
1105, 223, 157, 335,  32
1106, 152,  55,   5, 144
1107, 223, 156, 142, 148
1108, 303,  38,   5,  39
1109, 253, 159, 158, 152
1110, 171, 292, 178, 172
1111, 344, 345,  67,  70
1112, 224, 164,  41,  40
1113,  42, 170,  41, 254
1114, 224, 164,  40, 158
1115, 253,  39,  40, 141
1116, 292, 170, 177, 176
1117, 240, 129, 140, 139
1118, 144, 333, 253, 143
1119, 240, 129, 139, 128
1120, 227,  15,  64,  65
1121, 270, 190, 183, 184
1122, 292, 270, 177, 178
1123, 307,  42, 176,  43
1124,  72, 234,  70, 225
1125, 333, 142, 154, 143
1126, 294, 127, 126, 116
1127, 363, 335,  86, 277
1128, 234,  70, 225, 344
1129, 307, 127, 126, 293
1130, 335,  50,   4,  32
1131, 337,  90, 100,  89
1132, 315, 194,  46,  45
1133, 247, 254,  42,  41
1134,  74,  72,   6, 228
1135, 247, 139,  41,  42
1136, 279, 118, 107, 108
1137, 243, 140, 130, 141
1138, 154,  53, 143, 142
1139, 285, 301, 306,  28
1140, 281, 285, 249, 264
1141, 287,  12, 120,  13
1142, 126, 307, 311, 137
1143, 332, 144, 303, 145
1144, 256, 248, 262, 264
1145, 308, 127, 128, 138
1146, 260, 169, 168, 259
1147, 247, 248, 245, 291
1148, 246, 244, 325, 241
1149, 296,  91,  80,  81
1150, 307,  43, 138,  42
1151, 282,  94,  83,  84
1152, 225, 234, 228,  72
1153, 349, 283, 352, 284
1154,   7, 288,   8,   2
1155, 166, 255, 172, 261
1156, 261, 167, 173, 166
1157, 247, 139, 138, 128
1158, 218, 246, 280, 220
1159, 343, 189, 196, 195
1160, 316, 322, 317, 320
1161, 261, 259, 167, 161
1162, 324,  45,  44, 188
1163, 347, 349, 350, 348
1164, 259, 162, 168, 161
1165, 309, 136, 137,  44
1166, 354,  17, 213,  18
1167, 229, 122, 111, 112
1168, 351, 203, 202, 196
1169, 258, 259, 260, 168
1170, 319, 343, 361, 189
1171, 230, 121, 111, 122
1172, 237,  48, 133,  47
1173, 331,   3,  49,  16
1174, 258, 261, 173, 262
1175,  40, 140,  41, 221
1176, 236,  20, 329, 357
1177, 223, 157, 156, 148
1178, 243, 130, 140, 129
1179, 287,   3, 331, 273
1180, 334, 150, 332, 151
1181, 246, 241, 325, 279
1182, 362, 130, 119,  36
1183, 224, 164, 158, 165
1184, 223, 162, 155, 156
1185, 118, 119, 241, 129
1186, 315, 188, 194,  45
1187, 324, 188,  44, 182
1188, 325, 107, 118, 117
1189, 332, 145, 150, 144
1190, 332, 151, 145, 146
1191, 279, 242, 241, 243
1192, 245, 106, 117, 116
1193, 316, 322, 320, 124
1194, 258, 261, 259, 167
1195, 325, 107, 117, 106
1196, 320, 103, 102,  92
1197, 312, 125, 115, 126
1198, 360, 206, 305, 207
1199, 259, 161, 168, 167
1200, 305, 202, 208, 201
1201, 237, 232,  47, 133
1202, 311, 126, 136, 125
1203, 232,  46,  47, 134
1204, 281,  93,  82,  83
1205, 320, 102,  91,  92
1206, 179, 270, 178, 185
1207, 315, 316, 319, 324
1208, 274, 275, 109,  98
1209, 352, 209, 202, 203
1210, 359, 108,  97,  34
1211, 362,  36,  37, 130
1212, 243, 119, 130, 129
1213, 336, 151, 147, 149
1214, 322, 124, 135, 134
1215, 243, 362, 130, 119
1216, 137, 307, 138, 127
1217, 344,  16,  68,  67
1218, 293, 307, 311, 126
1219, 324, 125, 309, 136
1220, 309, 125, 311, 136
1221, 245, 128, 127, 117
1222, 245, 106, 116, 105
1223, 363,  33, 335, 149
1224, 320, 103, 114, 113
1225, 320, 125, 124, 114
1226, 339, 113, 112, 102
1227, 339, 229, 112, 123
1228, 273,  66,  13,  14
1229, 339, 123, 112, 113
1230, 299, 197, 191, 198
1231, 286, 104, 115, 114
1232, 294, 105, 116, 115
1233, 324, 125, 135, 124
1234, 274, 120,  12, 109
1235, 347,  77,  24,  78
1236, 297, 316, 269, 319
1237, 331,  49, 212,  16
1238, 287,  13, 131,   3
1239, 252,  26, 187,  27
1240, 162, 169, 259, 168
1241, 233,  75,   2,   7
1242, 289,  87, 313, 276
1243, 322,  45,  46, 135
1244, 324, 269, 182,  44
1245,  90,  91,  80, 338
1246, 231, 133, 123, 134
1247, 354, 360, 327, 213
1248, 324, 182, 319, 188
1249, 236,  75,  20,  21
1250,  45, 188, 324, 315
1251, 283, 329, 216, 357
1252, 359, 147, 146,  35
1253, 359,  36, 119,  35
1254, 279, 119, 118, 108
1255, 277,  97,  96,  86
1256, 310,  92,  81,  82
1257, 170, 171, 254, 291
1258, 113, 339, 124, 320
1259, 240,  41, 139, 140
1260, 270, 178, 185, 184
1261, 249,  95, 105,  94
1262, 267, 176, 292, 177
1263, 259, 162, 280, 169
1264,  92, 296, 320, 310
1265, 224, 165, 158, 159
1266, 137, 127, 126, 307
1267, 324,  45, 322, 135
1268, 306, 301, 187,  27
1269, 322,  46, 134, 135
1270, 318, 238, 356, 353
1271, 324, 136, 135, 125
1272, 269, 319, 182, 183
1273, 314, 100,  99,  89
1274, 314, 110,  99, 100
1275, 232, 134,  47, 133
1276, 210, 203, 284, 204
1277, 262, 292, 171, 172
1278, 275, 120, 110, 121
1279, 313,  88,  99,  98
1280, 255, 171, 254, 165
1281, 254, 221, 224,  41
1282, 207, 208, 305, 327
1283, 359,  34,  35, 108
1284, 334, 335, 223, 148
1285, 339, 317, 320, 340
1286, 279,  97, 108, 107
1287, 363, 335,  33,  86
1288, 314,  89,  88,  78
1289, 249, 106, 105,  95
1290, 325, 106,  95,  96
1291, 363, 359, 147, 336
1292, 244, 249, 257,  95
1293, 282,  84,  83,  30
1294, 363,  33, 147,  34
1295, 270, 319, 269, 183
1296, 281,  93,  94, 104
1297, 339, 123, 113, 124
1298, 310,  92,  82,  93
1299, 247, 138, 308, 128
1300, 310,  92,  93, 103
1301, 319, 361, 343, 315
1302,  42, 176, 291, 307
1303, 300, 186, 180, 187
1304, 358, 327, 329, 209
1305, 347, 211, 205,  23
1306, 263, 174, 181, 180
1307, 190, 270, 183, 343
1308, 234, 235, 236, 265
1309, 363, 335, 277, 336
1310, 314,  88, 347,  78
1311, 335,  33,   4, 149
1312, 335,   4, 148, 149
1313, 335,   4,  86,  32
1314, 363,  34,  97,  33
1315, 340, 338,  80,  91
1316, 278,  31,  85,  84
1317, 277,  32,  85,  31
1318, 296,  91,  81,  92
1319, 282,  29,  30,  83
1320, 264,  29,  82,  28
1321, 335,  86, 277,  32
1322, 277, 279,  96,  97
1323, 240, 242, 221, 140
1324, 176, 291, 267, 292
1325, 264,  83,  82,  29
1326, 250, 251, 341,  25
1327, 363,  97, 277,  86
1328, 132, 275, 121, 131
1329, 220, 277, 336, 279
1330, 306, 300, 263, 181
1331, 219, 161, 154, 155
1332, 339, 112, 101, 102
1333, 278,  31,  84,  30
1334, 263, 256, 175, 174
1335, 263, 175, 306, 181
1336, 252,  26, 193, 187
1337, 310,  93, 104, 103
1338, 296,  27,  81,  80
1339, 335, 149, 334, 336
1340, 348, 338, 337, 314
1341, 324, 136,  44,  45
1342, 274,  11, 109,  12
1343, 349, 205, 211, 284
1344, 277, 278,  85,  96
1345, 301,  28,  82,  81
1346, 329, 215, 209, 216
1347, 277, 278,  31,  85
1348, 232,  46, 200,  47
1349, 347,  77,  23,  24
1350, 326, 288, 265, 289
1351, 314,  99,  88,  89
1352, 235, 271, 330, 328
1353,  26,  27, 252,  80
1354, 277, 280,  31, 278
1355,  18,  19, 214, 354
1356, 283, 329, 210, 216
1357, 277, 279,  97, 336
1358, 290, 109,  99, 110
1359, 206, 237,  48, 323
1360, 265, 226, 234, 228
1361, 283, 211, 217, 210
1362, 334, 333, 150, 142
1363, 284, 210, 204, 211
1364, 335,  50, 157, 148
1365, 295, 252, 193, 187
1366, 334, 336, 149, 151
1367, 328, 357, 283, 217
1368, 334, 151, 332, 336
1369, 220, 334, 333, 332
1370, 246, 242, 241, 279
1371, 289,  22,  76,   8
1372, 346,  16, 212,  17
1373,  19, 344,  18,  71
1374, 289,  76,  87,   9
1375, 287, 131,  13, 120
1376, 315, 361, 194, 188
1377, 343, 361, 189, 195
1378, 339, 229, 101, 112
1379, 225,   1,  72,   6
1380, 345,  70,  69,  67
1381,  20,  74, 236,  73
1382, 300, 263, 180, 179
1383, 269, 312, 297, 293
1384, 344,  18,  71,  68
1385, 239, 275, 121, 132
1386, 337, 317, 341, 238
1387, 287, 120, 275, 131
1388, 236,  20,  73,  19
1389, 344, 226, 234, 236
1390, 236, 357,  21,  20
1391, 226, 271, 236, 344
1392, 339, 124, 322, 123
1393, 326,  58,  57,  56
1394, 339, 124, 320, 322
1395, 234,  71,  73,  72
1396, 344,  68,  70,  67
1397, 237, 122, 133, 132
1398, 272,  12,  66,  63
1399, 234,  74,  72,  73
1400, 298, 315, 319, 343
1401, 287,  13, 273,  66
1402, 288,   6,  57,  59
1403, 275, 290, 110, 109
1404, 335,  33,  86,   4
1405, 290, 239, 121, 230
1406, 266,  63, 272,  66
1407, 313,  99, 290,  98
1408,  73, 234, 236,  19
1409,  98, 275, 109, 290
1410, 354,  17,  18,  68
1411, 350, 239, 290, 230
1412, 313,  87,  76,  77
1413, 233,  21,   2,  75
1414, 314, 350, 290, 230
1415, 355,  11,  61,  10
1416, 289,  22,   8,   2
1417, 275, 109, 110, 120
1418, 346,  17,  68,  16
1419, 230, 100, 110, 314
1420, 200, 237,  47, 206
1421, 337, 338,  89, 314
1422, 314, 338,  89,  78
1423, 225,  69,  70,  72
1424,  72, 234, 228,  74
1425, 220, 280, 223, 277
1426, 323,  49, 131, 132
1427,  75,  20,  74, 236
1428, 309, 136, 311, 137
1429, 335, 223, 148, 157
1430, 235,  21, 357,   2
1431, 273,   3,  14,  13
** TRUE EXTERIOR C3D4 FACE SETS; internal tetra faces excluded
*Elset, elset=ROBOT_EXTERIOR_S1
62, 72, 477, 855, 870, 970, 997, 1040, 1043, 1052, 1087, 1106, 1113, 1134, 1175, 1245
1266, 1355, 1427
*Elset, elset=ROBOT_EXTERIOR_S2
35, 466, 488, 829, 834, 851, 927, 1007, 1029, 1045, 1079, 1091, 1103, 1185, 1240, 1276
1353, 1381
*Elset, elset=ROBOT_EXTERIOR_S3
48, 63, 75, 76, 93, 105, 115, 151, 166, 169, 171, 237, 263, 271, 304, 306
323, 326, 329, 330, 340, 374, 389, 390, 404, 429, 464, 465, 478, 484, 490, 526
557, 559, 571, 583, 587, 591, 624, 626, 632, 647, 666, 674, 692, 699, 711, 717
727, 730, 742, 747, 750, 751, 770, 771, 773, 783, 785, 803, 804, 818, 825, 826
828, 830, 833, 836, 841, 845, 846, 852, 854, 858, 860, 861, 863, 864, 865, 866
869, 871, 872, 876, 878, 880, 881, 883, 886, 888, 890, 891, 892, 893, 894, 896
897, 898, 900, 904, 905, 907, 908, 909, 910, 913, 915, 916, 917, 919, 920, 921
923, 924, 925, 926, 929, 931, 932, 933, 934, 937, 938, 939, 940, 941, 942, 943
944, 945, 946, 949, 950, 951, 952, 957, 959, 961, 964, 967, 971, 972, 973, 974
975, 976, 977, 978, 979, 982, 986, 987, 988, 991, 996, 999, 1004, 1005, 1008, 1011
1012, 1013, 1016, 1017, 1018, 1021, 1023, 1025, 1028, 1030, 1033, 1035, 1036, 1042, 1043, 1047
1048, 1052, 1053, 1054, 1055, 1056, 1063, 1064, 1065, 1069, 1072, 1073, 1074, 1078, 1079, 1081
1082, 1084, 1085, 1086, 1088, 1089, 1092, 1093, 1094, 1095, 1096, 1097, 1102, 1103, 1106, 1108
1109, 1112, 1114, 1115, 1116, 1117, 1119, 1120, 1121, 1123, 1126, 1130, 1131, 1132, 1135, 1136
1137, 1138, 1141, 1145, 1149, 1150, 1151, 1156, 1157, 1159, 1162, 1164, 1165, 1166, 1167, 1168
1171, 1172, 1173, 1178, 1182, 1183, 1184, 1186, 1187, 1188, 1189, 1190, 1192, 1195, 1196, 1197
1199, 1200, 1202, 1203, 1204, 1205, 1209, 1210, 1211, 1212, 1213, 1214, 1217, 1221, 1222, 1224
1225, 1226, 1228, 1229, 1230, 1231, 1232, 1233, 1234, 1235, 1237, 1238, 1239, 1241, 1243, 1246
1249, 1252, 1253, 1254, 1255, 1256, 1259, 1260, 1261, 1265, 1269, 1271, 1273, 1274, 1275, 1278
1279, 1283, 1286, 1288, 1289, 1290, 1293, 1294, 1296, 1297, 1298, 1300, 1303, 1305, 1306, 1311
1312, 1313, 1314, 1316, 1317, 1318, 1319, 1320, 1325, 1331, 1332, 1333, 1336, 1337, 1338, 1341
1342, 1345, 1346, 1348, 1349, 1351, 1358, 1361, 1363, 1371, 1372, 1374, 1375, 1379, 1380, 1384
1388, 1393, 1395, 1396, 1397, 1398, 1399, 1402, 1404, 1410, 1412, 1413, 1415, 1416, 1417, 1418
1423, 1426, 1431
*Elset, elset=ROBOT_EXTERIOR_S4
159, 207, 233, 257, 565, 597, 693, 732, 782, 848, 1015, 1031, 1060, 1089, 1099, 1110
1154, 1206, 1216, 1328, 1373, 1420
*Nset, nset=ROBOT_CEL_BODY, generate
   1,  363,    1
*Elset, elset=ROBOT_CEL_BODY, generate
    1,  1431,     1
*Elset, elset=ROBOT_SOLID_ALL, generate
1, 1431, 1
*Surface, type=ELEMENT, name=ROBOT_SOLID_SURF
ROBOT_EXTERIOR_S1, S1
ROBOT_EXTERIOR_S2, S2
ROBOT_EXTERIOR_S3, S3
ROBOT_EXTERIOR_S4, S4
** Section: SEC_ROBOT_RIGID
*Solid Section, elset=ROBOT_CEL_BODY, material=MAT_ROBOT_RIGID
,
*End Part
**  
**
** ASSEMBLY
**
*Assembly, name=Assembly
*Instance, name=Pipe_WALL_HELPER-1, part=Pipe_WALL_HELPER
*End Instance
**  
*Instance, name=Pipe_TERMINAL_STOP-1, part=Pipe_TERMINAL_STOP
*End Instance
**  
*Instance, name=Pipe_TERMINAL_STOP_HIGH-1, part=Pipe_TERMINAL_STOP_HIGH
*End Instance
**  
*Elset, elset=PIPE_TERMINAL_STOP_CEL_ALL, instance=Pipe_TERMINAL_STOP-1, generate
1, 75, 1
*Elset, elset=PIPE_TERMINAL_STOP_HIGH_CEL_ALL, instance=Pipe_TERMINAL_STOP_HIGH-1, generate
1, 23, 1
*Elset, elset=PIPE_WALL_HELPER_CEL_ALL, instance=Pipe_WALL_HELPER-1, generate
1, 764, 1
**  
*Instance, name=Pipe_SOLID-1, part=Pipe_SOLID
*End Instance
**  
*Instance, name=Robot_SOLID-1, part=Robot_SOLID
-12.4046543000, 1.3357653000, -2.9992361000
*End Instance
**  
*Instance, name=Fluid_EULERIAN-1, part=FLUID_EULERIAN
*End Instance
*Elset, elset=FLUID_CEL_ALL, instance=Fluid_EULERIAN-1, generate
1, 1564, 1
*Elset, elset=FLUID_CEL_INIT_ALL, instance=Fluid_EULERIAN-1
1, 3, 4, 6, 8, 9, 10, 11, 12, 13, 14, 16, 17, 18, 19, 20
21, 22, 23, 25, 27, 28, 29, 30, 31, 36, 39, 44, 47, 52, 55, 60
63, 68, 71, 76, 79, 84, 87, 92, 95, 100, 103, 108, 111, 116, 119, 124
127, 132, 135, 140, 143, 148, 149, 152, 157, 158, 159, 162, 167, 168, 169, 172
177, 178, 179, 182, 187, 188, 189, 192, 197, 198, 199, 202, 208, 209, 212, 217
218, 219, 220, 221, 224, 229, 230, 231, 232, 233, 236, 241, 242, 243, 244, 245
248, 253, 254, 255, 256, 257, 260, 265, 266, 267, 268, 269, 272, 277, 278, 279
280, 281, 284, 289, 290, 291, 292, 293, 296, 301, 302, 303, 304, 305, 308, 313
314, 315, 316, 317, 320, 325, 326, 327, 328, 329, 332, 337, 338, 339, 341, 344
349, 350, 351, 352, 353, 356, 361, 362, 363, 364, 365, 368, 373, 374, 375, 376
377, 380, 385, 386, 387, 388, 389, 392, 397, 398, 399, 400, 401, 404, 409, 410
411, 412, 413, 416, 421, 422, 423, 424, 425, 428, 433, 434, 435, 436, 437, 440
445, 446, 447, 448, 449, 452, 457, 458, 459, 460, 461, 464, 469, 470, 471, 472
473, 476, 481, 482, 483, 484, 485, 488, 493, 494, 495, 496, 497, 500, 505, 506
507, 508, 509, 512, 517, 518, 519, 520, 521, 524, 529, 530, 531, 532, 533, 536
541, 542, 543, 544, 545, 548, 553, 554, 555, 556, 557, 560, 565, 566, 567, 568
569, 572, 577, 578, 579, 580, 581, 584, 589, 590, 591, 592, 593, 596, 601, 602
603, 604, 605, 608, 613, 614, 615, 616, 617, 620, 625, 626, 627, 628, 629, 632
637, 638, 639, 640, 641, 644, 649, 650, 651, 652, 653, 656, 661, 662, 663, 664
665, 668, 673, 674, 675, 676, 677, 680, 681, 684, 685, 686, 687, 688, 689, 690
691, 693, 694, 695, 696, 697, 698, 699, 700, 701, 702, 703, 704, 705, 706, 707
708, 709, 710, 711, 712, 713, 714, 715, 716, 717, 718, 719, 720, 721, 722, 723
724, 725, 726, 727, 728, 729, 730, 731, 732, 733, 734, 735, 736, 737, 738, 739
740, 741, 742, 743, 744, 745, 746, 747, 748, 749, 750, 751, 752, 753, 754, 755
756, 757, 758, 759, 760, 761, 762, 763, 764, 765, 766, 767, 768, 769, 770, 771
772, 773, 774, 775, 776, 777, 778, 779, 780, 781, 784, 785, 786, 787, 788, 789
790, 791, 792, 793, 794, 795, 796, 797, 798, 799, 800, 801, 802, 803, 804, 805
806, 807, 808, 809, 810, 811, 812, 813, 814, 815, 816, 817, 818, 819, 820, 821
822, 823, 824, 825, 826, 827, 828, 830, 831, 832, 833, 834, 835, 836, 837, 838
839, 840, 841, 842, 843, 844, 845, 846, 847, 848, 849, 850, 851, 852, 853, 854
855, 856, 857, 858, 859, 860, 861, 862, 864, 865, 866, 867, 868, 869, 870, 871
872, 873, 874, 875, 876, 877, 878, 879, 880, 881, 882, 883, 884, 885, 886, 887
888, 889, 890, 891, 893, 894, 895, 896, 897, 898, 899, 901, 902, 903, 904, 905
906, 907, 908, 909, 910, 911, 912, 913, 914, 915, 916, 917, 918, 919, 920, 921
922, 923, 924, 926, 927, 928, 930, 931, 932, 933, 934, 935, 936, 937, 938, 939
940, 943, 944, 945, 946, 947, 948, 949, 950, 951, 952, 953, 954, 955, 956, 957
958, 959, 960, 961, 962, 963, 964, 965, 966, 967, 968, 969, 970, 971, 972, 973
974, 975, 976, 977, 978, 979, 980, 981, 982, 983, 984, 985, 986, 987, 988, 989
990, 992, 993, 994, 995, 996, 997, 998, 999, 1000, 1001, 1002, 1003, 1004, 1005, 1006
1007, 1008, 1009, 1010, 1011, 1012, 1013, 1014, 1015, 1016, 1017, 1018, 1019, 1020, 1021, 1022
1023, 1024, 1025, 1026, 1027, 1028, 1029, 1030, 1031, 1032, 1033, 1034, 1035, 1036, 1037, 1038
1039, 1040, 1041, 1042, 1043, 1044, 1045, 1046, 1047, 1048, 1049, 1050, 1051, 1052, 1053, 1054
1055, 1056, 1057, 1058, 1059, 1060, 1061, 1062, 1063, 1064, 1065, 1066, 1067, 1068, 1069, 1070
1071, 1072, 1073, 1074, 1075, 1076, 1077, 1078, 1079, 1080, 1081, 1082, 1083, 1085, 1086, 1087
1088, 1089, 1090, 1091, 1092, 1093, 1094, 1095, 1096, 1097, 1098, 1099, 1100, 1101, 1103, 1104
1105, 1106, 1107, 1108, 1109, 1110, 1111, 1112, 1113, 1114, 1115, 1116, 1117, 1118, 1120, 1121
1122, 1123, 1124, 1125, 1126, 1127, 1128, 1129, 1130, 1131, 1132, 1133, 1134, 1135, 1136, 1137
1138, 1139, 1140, 1142, 1143, 1144, 1146, 1147, 1148, 1149, 1150, 1151, 1152, 1153, 1154, 1155
1156, 1158, 1159, 1160, 1161, 1162, 1163, 1164, 1165, 1166, 1168, 1169, 1170, 1172, 1173, 1174
1175, 1176, 1177, 1178, 1179, 1180, 1181, 1183, 1184, 1185, 1186, 1187, 1189, 1190, 1191, 1192
1193, 1194, 1196, 1198, 1199, 1200, 1201, 1202, 1203, 1204, 1205, 1206, 1207, 1208, 1209, 1210
1212, 1213, 1214, 1215, 1216, 1217, 1218, 1219, 1220, 1222, 1223, 1224, 1227, 1228, 1230, 1233
1235, 1236, 1237, 1238, 1239, 1240, 1241, 1242, 1243, 1244, 1245, 1246, 1247, 1248, 1249, 1250
1251, 1252, 1253, 1254, 1255, 1256, 1257, 1258, 1259, 1260, 1261, 1262, 1263, 1264, 1265, 1266
1267, 1268, 1269, 1270, 1271, 1272, 1273, 1275, 1276, 1277, 1279, 1280, 1281, 1282, 1283, 1284
1285, 1286, 1287, 1288, 1289, 1290, 1291, 1292, 1293, 1294, 1295, 1296, 1298, 1299, 1300, 1301
1302, 1303, 1304, 1305, 1306, 1307, 1308, 1309, 1310, 1311, 1312, 1313, 1314, 1315, 1316, 1317
1318, 1319, 1320, 1321, 1322, 1323, 1324, 1325, 1326, 1327, 1329, 1330, 1331, 1333, 1334, 1335
1336, 1337, 1338, 1339, 1340, 1341, 1343, 1344, 1345, 1346, 1347, 1348, 1349, 1350, 1351, 1352
1353, 1354, 1355, 1356, 1357, 1359, 1360, 1361, 1362, 1363, 1364, 1365, 1366, 1367, 1368, 1369
1370, 1371, 1372, 1373, 1374, 1376, 1377, 1378, 1379, 1380, 1381, 1382, 1383, 1384, 1385, 1386
1387, 1388, 1389, 1390, 1391, 1392, 1393, 1394, 1395, 1396, 1397, 1399, 1400, 1401, 1402, 1403
1404, 1406, 1407, 1408, 1411, 1412, 1414, 1415, 1416, 1418, 1419, 1421, 1422, 1423, 1424, 1426
1427, 1429, 1430, 1437, 1438, 1439, 1440, 1441, 1442, 1444, 1445, 1447, 1450, 1452, 1453, 1460
1461, 1462, 1463, 1464, 1465, 1467, 1468, 1470, 1473, 1475, 1476, 1483, 1484, 1485, 1486, 1487
1488, 1490, 1491, 1493, 1496, 1498, 1499, 1506, 1507, 1508, 1509, 1510, 1511, 1513, 1514, 1516
1519, 1521, 1522, 1529, 1530, 1531, 1532, 1533, 1534, 1536, 1537, 1539, 1542, 1544, 1545, 1552
1553, 1554, 1555, 1556, 1557, 1559, 1560, 1562
*Elset, elset=PIPE_SOLID_CEL_ALL, instance=Pipe_SOLID-1, generate
1, 5203, 1
*Elset, elset=ROBOT_SOLID_CEL_ALL, instance=Robot_SOLID-1, generate
1, 1431, 1
**  
*Node
      1,  -5.80302477,  -9.99273777,  -5.95533371
*Node
      2, -7.468174204284, -3.676918015967, -9.550745259298
*Nset, nset=RP_PIPE
 1,
*Nset, nset=RP_ROBOT
 2,
*Elset, elset=PIPE_RIGID_ALL
PIPE_SOLID_CEL_ALL,
PIPE_WALL_HELPER_CEL_ALL,
PIPE_TERMINAL_STOP_CEL_ALL,
PIPE_TERMINAL_STOP_HIGH_CEL_ALL,
*Rigid Body, ref node=RP_PIPE, elset=PIPE_RIGID_ALL
** Constraint: RB_PIPE
** Constraint: RB_ROBOT
*Rigid Body, ref node=RP_ROBOT, elset=ROBOT_SOLID_CEL_ALL
*Surface, type=EULERIAN MATERIAL, name=FLUID_CEL_SURF
Fluid_EULERIAN-1_WATER
*End Assembly
** CEL fill uses 1564 verified Eulerian elements; unassigned volume is VOID.
*Initial Conditions, type=VOLUME FRACTION
FLUID_CEL_INIT_ALL, Fluid_EULERIAN-1_WATER, 1.0
** 
** MATERIALS
** 
*Material, name=MAT_FLUID_CEL
*Density
 1.0007e-09,
*Eos, type=USUP
 1480000, 0., 0.
*Viscosity
 7.1e-10,
*Material, name=MAT_PIPE_RIGID
*Density
 1e-09,
*Elastic
 1e+06, 0.3
*Material, name=MAT_ROBOT_RIGID
*Density
7.80906654321e-09, 
*Elastic
 1e+06, 0.3
** 
** INTERACTION PROPERTIES
** 
*Surface Interaction, name=PROP_CEL_HARD
*Friction
0.03,
*Surface Behavior, pressure-overclosure=HARD
*Contact Damping, definition=CRITICAL DAMPING FRACTION
0.055
** 
** BOUNDARY CONDITIONS
** 
** Name: BC_PIPE_FIXED Type: Symmetry/Antisymmetry/Encastre
*Boundary
RP_PIPE, ENCASTRE
RP_ROBOT, 1, 3
** ----------------------------------------------------------------
** 
** STEP: Step_Drive
** 
*Contact
*Contact Inclusions
ROBOT_SOLID-1.ROBOT_SOLID_SURF, FLUID_CEL_SURF
Pipe_WALL_HELPER-1.PIPE_WALL_HELPER_SURF, FLUID_CEL_SURF
*Contact Property Assignment
ROBOT_SOLID-1.ROBOT_SOLID_SURF, FLUID_CEL_SURF, PROP_CEL_HARD
Pipe_WALL_HELPER-1.PIPE_WALL_HELPER_SURF, FLUID_CEL_SURF, PROP_CEL_HARD
** COM-FIXED CALIBRATION PARAMETERS: phase=248.0 deg; cone=30 deg; Bias40; gradient=3.000 mT=0.003000 T; server-side analytic field
** SOCKET BASELINE JOB: Job_RouteA_CEL_Socket_ConnectorFixed_Capsule_0p003
** Local centerline frame at COM RP (metadata only); COM translations constrained in calibration
** COM-fixed RP_ROBOT = (-7.468174204284, -3.676918015967, -9.550745259298) mm; volume-weighted mesh COM
** tangent-X = (-0.928048296, 0.179421111, -0.326396119)
** transported-Y = (0.140416425, 0.988230515, -0.0606933022)
** binormal-Z = (0.312362773, -0.102386426, -0.944429202)
** CSF rho=1.0007e-09 tonne/mm^3; mu=7.1e-10 N*s/mm^2; c0=1480000 mm/s
*Step, name=Step_Drive, nlgeom=YES
*Dynamic, Explicit
, 0.100
*Bulk Viscosity
0.06, 1.2
** 
** BOUNDARY CONDITIONS
** 
** SOCKET MAGNETIC LOAD INTERFACE -- RP_ROBOT translations fixed at volume COM; UR1-UR3 free.
** Six VUAMP amplitudes remain updated every Explicit increment by vuforc_socket_bridge.f.
** DOF 1..3: Fx,Fy,Fz [N]; DOF 4..6: Mx,My,Mz [N*mm].
** Abaqus uses *CLOAD for both concentrated forces and moments;
** CFORCE/CMOMENT are output quantities, not input keywords.
*Amplitude, name=SOCKET_FX, definition=USER
*Amplitude, name=SOCKET_FY, definition=USER
*Amplitude, name=SOCKET_FZ, definition=USER
*Amplitude, name=SOCKET_MX, definition=USER
*Amplitude, name=SOCKET_MY, definition=USER
*Amplitude, name=SOCKET_MZ, definition=USER
*Cload, amplitude=SOCKET_FX
RP_ROBOT, 1, 1.
*Cload, amplitude=SOCKET_FY
RP_ROBOT, 2, 1.
*Cload, amplitude=SOCKET_FZ
RP_ROBOT, 3, 1.
*Cload, amplitude=SOCKET_MX
RP_ROBOT, 4, 1.
*Cload, amplitude=SOCKET_MY
RP_ROBOT, 5, 1.
*Cload, amplitude=SOCKET_MZ
RP_ROBOT, 6, 1.
** 
** OUTPUT REQUESTS
** 
*Restart, write, number interval=1, time marks=NO
** 
** FIELD OUTPUT: F-Output-1
** 
** IMPACT ENERGY DIAGNOSTIC: preserve all existing physics; save contact and energy fields every 1 us.
*Output, field, time interval=1.0e-4, variable=PRESELECT
*Contact Output, general contact
CSTRESS, CFORCE
*Contact Output, surface=ROBOT_SOLID-1.ROBOT_SOLID_SURF
CDISP
** 
** HISTORY OUTPUT: H-Output-1
** 
*Output, history, time interval=1.0e-4
*Energy Output, variable=ALL
*Node Output, nset=RP_ROBOT
COORD, U, UR, V, VR, A, AR, RF, RM, CF

*Output, history, frequency=1, sensor, name=RP_U1
*Node Output, nset=RP_ROBOT
U1
*Output, history, frequency=1, sensor, name=RP_U2
*Node Output, nset=RP_ROBOT
U2
*Output, history, frequency=1, sensor, name=RP_U3
*Node Output, nset=RP_ROBOT
U3
*Output, history, frequency=1, sensor, name=RP_UR1
*Node Output, nset=RP_ROBOT
UR1
*Output, history, frequency=1, sensor, name=RP_UR2
*Node Output, nset=RP_ROBOT
UR2
*Output, history, frequency=1, sensor, name=RP_UR3
*Node Output, nset=RP_ROBOT
UR3
*End Step
